<UPF version="2.0.1">
  <PP_INFO>

 This pseudopotential file has been produced using the code
 ONCVPSP  (Optimized Norm-Conservinng Vanderbilt PSeudopotential)
 fully-relativistic version 4.0.1 06/20/2107 by D. R. Hamann
 The code is available through a link at URL www.mat-simresearch.com.
 Documentation with the package provides a full discription of the
 input data below.


 While it is not required under the terms of the GNU GPL, it is
 suggested that you cite D. R. Hamann, Phys. Rev. B 88, 085117 (2013)
 in any publication using these pseudopotentials.

    <PP_INPUTFILE>
# ATOM AND REFERENCE CONFIGURATION
# atsym  z   nc   nv     iexc    psfile
  Be  4.00    0    2       4      upf
#
#   n    l    f        energy (Ha)
    1    0    2.00
    2    0    2.00
#
# PSEUDOPOTENTIAL AND OPTIMIZATION
# lmax
    1
#
#   l,   rc,     ep,   ncon, nbas, qcut
    0   1.85168  -3.90326    4    8   7.57154
    1   1.79524   0.10000    4    9   5.11266
#
# LOCAL POTENTIAL
# lloc, lpopt,  rc(5),   dvloc0
    4    5   1.50012      0.00000
#
# VANDERBILT-KLEINMAN-BYLANDER PROJECTORs
# l, nproj, debl
    0    2   3.69710
    1    2   1.00000
#
# MODEL CORE CHARGE
# icmod, fcfact, rcfact
    0   0.00000   0.00000
#
# LOG DERIVATIVE ANALYSIS
# epsh1, epsh2, depsh
  -12.00   12.00    0.02
#
# OUTPUT GRID
# rlmax, drl
    4.00    0.01
#
# TEST CONFIGURATIONS
# ncnf
    0
# nvcnf
#   n    l    f
    </PP_INPUTFILE>
  </PP_INFO>
  <!--                               -->
  <!-- END OF HUMAN READABLE SECTION -->
  <!--                               -->
    <PP_HEADER
       generated="Generated using ONCVPSP code by D. R. Hamann"
       author="anonymous"
       date="260612"
       comment=""
       element="Be"
       pseudo_type="NC"
       relativistic="full"
       is_ultrasoft="F"
       is_paw="F"
       is_coulomb="F"
       has_so="T"
       has_wfc="F"
       has_gipaw="F"
       core_correction="F"
       functional="PBE"
       z_valence="    4.00"
       total_psenergy="  -2.66781255556E+01"
       rho_cutoff="   1.35500000000E+01"
       l_max="1"
       l_local="-1"
       mesh_size="  1356"
       number_of_wfc="2"
       number_of_proj="6"/>
 <PP_MESH>
   <PP_R type="real"  size="1356" columns="8">
    0.0000    0.0100    0.0200    0.0300    0.0400    0.0500    0.0600    0.0700
    0.0800    0.0900    0.1000    0.1100    0.1200    0.1300    0.1400    0.1500
    0.1600    0.1700    0.1800    0.1900    0.2000    0.2100    0.2200    0.2300
    0.2400    0.2500    0.2600    0.2700    0.2800    0.2900    0.3000    0.3100
    0.3200    0.3300    0.3400    0.3500    0.3600    0.3700    0.3800    0.3900
    0.4000    0.4100    0.4200    0.4300    0.4400    0.4500    0.4600    0.4700
    0.4800    0.4900    0.5000    0.5100    0.5200    0.5300    0.5400    0.5500
    0.5600    0.5700    0.5800    0.5900    0.6000    0.6100    0.6200    0.6300
    0.6400    0.6500    0.6600    0.6700    0.6800    0.6900    0.7000    0.7100
    0.7200    0.7300    0.7400    0.7500    0.7600    0.7700    0.7800    0.7900
    0.8000    0.8100    0.8200    0.8300    0.8400    0.8500    0.8600    0.8700
    0.8800    0.8900    0.9000    0.9100    0.9200    0.9300    0.9400    0.9500
    0.9600    0.9700    0.9800    0.9900    1.0000    1.0100    1.0200    1.0300
    1.0400    1.0500    1.0600    1.0700    1.0800    1.0900    1.1000    1.1100
    1.1200    1.1300    1.1400    1.1500    1.1600    1.1700    1.1800    1.1900
    1.2000    1.2100    1.2200    1.2300    1.2400    1.2500    1.2600    1.2700
    1.2800    1.2900    1.3000    1.3100    1.3200    1.3300    1.3400    1.3500
    1.3600    1.3700    1.3800    1.3900    1.4000    1.4100    1.4200    1.4300
    1.4400    1.4500    1.4600    1.4700    1.4800    1.4900    1.5000    1.5100
    1.5200    1.5300    1.5400    1.5500    1.5600    1.5700    1.5800    1.5900
    1.6000    1.6100    1.6200    1.6300    1.6400    1.6500    1.6600    1.6700
    1.6800    1.6900    1.7000    1.7100    1.7200    1.7300    1.7400    1.7500
    1.7600    1.7700    1.7800    1.7900    1.8000    1.8100    1.8200    1.8300
    1.8400    1.8500    1.8600    1.8700    1.8800    1.8900    1.9000    1.9100
    1.9200    1.9300    1.9400    1.9500    1.9600    1.9700    1.9800    1.9900
    2.0000    2.0100    2.0200    2.0300    2.0400    2.0500    2.0600    2.0700
    2.0800    2.0900    2.1000    2.1100    2.1200    2.1300    2.1400    2.1500
    2.1600    2.1700    2.1800    2.1900    2.2000    2.2100    2.2200    2.2300
    2.2400    2.2500    2.2600    2.2700    2.2800    2.2900    2.3000    2.3100
    2.3200    2.3300    2.3400    2.3500    2.3600    2.3700    2.3800    2.3900
    2.4000    2.4100    2.4200    2.4300    2.4400    2.4500    2.4600    2.4700
    2.4800    2.4900    2.5000    2.5100    2.5200    2.5300    2.5400    2.5500
    2.5600    2.5700    2.5800    2.5900    2.6000    2.6100    2.6200    2.6300
    2.6400    2.6500    2.6600    2.6700    2.6800    2.6900    2.7000    2.7100
    2.7200    2.7300    2.7400    2.7500    2.7600    2.7700    2.7800    2.7900
    2.8000    2.8100    2.8200    2.8300    2.8400    2.8500    2.8600    2.8700
    2.8800    2.8900    2.9000    2.9100    2.9200    2.9300    2.9400    2.9500
    2.9600    2.9700    2.9800    2.9900    3.0000    3.0100    3.0200    3.0300
    3.0400    3.0500    3.0600    3.0700    3.0800    3.0900    3.1000    3.1100
    3.1200    3.1300    3.1400    3.1500    3.1600    3.1700    3.1800    3.1900
    3.2000    3.2100    3.2200    3.2300    3.2400    3.2500    3.2600    3.2700
    3.2800    3.2900    3.3000    3.3100    3.3200    3.3300    3.3400    3.3500
    3.3600    3.3700    3.3800    3.3900    3.4000    3.4100    3.4200    3.4300
    3.4400    3.4500    3.4600    3.4700    3.4800    3.4900    3.5000    3.5100
    3.5200    3.5300    3.5400    3.5500    3.5600    3.5700    3.5800    3.5900
    3.6000    3.6100    3.6200    3.6300    3.6400    3.6500    3.6600    3.6700
    3.6800    3.6900    3.7000    3.7100    3.7200    3.7300    3.7400    3.7500
    3.7600    3.7700    3.7800    3.7900    3.8000    3.8100    3.8200    3.8300
    3.8400    3.8500    3.8600    3.8700    3.8800    3.8900    3.9000    3.9100
    3.9200    3.9300    3.9400    3.9500    3.9600    3.9700    3.9800    3.9900
    4.0000    4.0100    4.0200    4.0300    4.0400    4.0500    4.0600    4.0700
    4.0800    4.0900    4.1000    4.1100    4.1200    4.1300    4.1400    4.1500
    4.1600    4.1700    4.1800    4.1900    4.2000    4.2100    4.2200    4.2300
    4.2400    4.2500    4.2600    4.2700    4.2800    4.2900    4.3000    4.3100
    4.3200    4.3300    4.3400    4.3500    4.3600    4.3700    4.3800    4.3900
    4.4000    4.4100    4.4200    4.4300    4.4400    4.4500    4.4600    4.4700
    4.4800    4.4900    4.5000    4.5100    4.5200    4.5300    4.5400    4.5500
    4.5600    4.5700    4.5800    4.5900    4.6000    4.6100    4.6200    4.6300
    4.6400    4.6500    4.6600    4.6700    4.6800    4.6900    4.7000    4.7100
    4.7200    4.7300    4.7400    4.7500    4.7600    4.7700    4.7800    4.7900
    4.8000    4.8100    4.8200    4.8300    4.8400    4.8500    4.8600    4.8700
    4.8800    4.8900    4.9000    4.9100    4.9200    4.9300    4.9400    4.9500
    4.9600    4.9700    4.9800    4.9900    5.0000    5.0100    5.0200    5.0300
    5.0400    5.0500    5.0600    5.0700    5.0800    5.0900    5.1000    5.1100
    5.1200    5.1300    5.1400    5.1500    5.1600    5.1700    5.1800    5.1900
    5.2000    5.2100    5.2200    5.2300    5.2400    5.2500    5.2600    5.2700
    5.2800    5.2900    5.3000    5.3100    5.3200    5.3300    5.3400    5.3500
    5.3600    5.3700    5.3800    5.3900    5.4000    5.4100    5.4200    5.4300
    5.4400    5.4500    5.4600    5.4700    5.4800    5.4900    5.5000    5.5100
    5.5200    5.5300    5.5400    5.5500    5.5600    5.5700    5.5800    5.5900
    5.6000    5.6100    5.6200    5.6300    5.6400    5.6500    5.6600    5.6700
    5.6800    5.6900    5.7000    5.7100    5.7200    5.7300    5.7400    5.7500
    5.7600    5.7700    5.7800    5.7900    5.8000    5.8100    5.8200    5.8300
    5.8400    5.8500    5.8600    5.8700    5.8800    5.8900    5.9000    5.9100
    5.9200    5.9300    5.9400    5.9500    5.9600    5.9700    5.9800    5.9900
    6.0000    6.0100    6.0200    6.0300    6.0400    6.0500    6.0600    6.0700
    6.0800    6.0900    6.1000    6.1100    6.1200    6.1300    6.1400    6.1500
    6.1600    6.1700    6.1800    6.1900    6.2000    6.2100    6.2200    6.2300
    6.2400    6.2500    6.2600    6.2700    6.2800    6.2900    6.3000    6.3100
    6.3200    6.3300    6.3400    6.3500    6.3600    6.3700    6.3800    6.3900
    6.4000    6.4100    6.4200    6.4300    6.4400    6.4500    6.4600    6.4700
    6.4800    6.4900    6.5000    6.5100    6.5200    6.5300    6.5400    6.5500
    6.5600    6.5700    6.5800    6.5900    6.6000    6.6100    6.6200    6.6300
    6.6400    6.6500    6.6600    6.6700    6.6800    6.6900    6.7000    6.7100
    6.7200    6.7300    6.7400    6.7500    6.7600    6.7700    6.7800    6.7900
    6.8000    6.8100    6.8200    6.8300    6.8400    6.8500    6.8600    6.8700
    6.8800    6.8900    6.9000    6.9100    6.9200    6.9300    6.9400    6.9500
    6.9600    6.9700    6.9800    6.9900    7.0000    7.0100    7.0200    7.0300
    7.0400    7.0500    7.0600    7.0700    7.0800    7.0900    7.1000    7.1100
    7.1200    7.1300    7.1400    7.1500    7.1600    7.1700    7.1800    7.1900
    7.2000    7.2100    7.2200    7.2300    7.2400    7.2500    7.2600    7.2700
    7.2800    7.2900    7.3000    7.3100    7.3200    7.3300    7.3400    7.3500
    7.3600    7.3700    7.3800    7.3900    7.4000    7.4100    7.4200    7.4300
    7.4400    7.4500    7.4600    7.4700    7.4800    7.4900    7.5000    7.5100
    7.5200    7.5300    7.5400    7.5500    7.5600    7.5700    7.5800    7.5900
    7.6000    7.6100    7.6200    7.6300    7.6400    7.6500    7.6600    7.6700
    7.6800    7.6900    7.7000    7.7100    7.7200    7.7300    7.7400    7.7500
    7.7600    7.7700    7.7800    7.7900    7.8000    7.8100    7.8200    7.8300
    7.8400    7.8500    7.8600    7.8700    7.8800    7.8900    7.9000    7.9100
    7.9200    7.9300    7.9400    7.9500    7.9600    7.9700    7.9800    7.9900
    8.0000    8.0100    8.0200    8.0300    8.0400    8.0500    8.0600    8.0700
    8.0800    8.0900    8.1000    8.1100    8.1200    8.1300    8.1400    8.1500
    8.1600    8.1700    8.1800    8.1900    8.2000    8.2100    8.2200    8.2300
    8.2400    8.2500    8.2600    8.2700    8.2800    8.2900    8.3000    8.3100
    8.3200    8.3300    8.3400    8.3500    8.3600    8.3700    8.3800    8.3900
    8.4000    8.4100    8.4200    8.4300    8.4400    8.4500    8.4600    8.4700
    8.4800    8.4900    8.5000    8.5100    8.5200    8.5300    8.5400    8.5500
    8.5600    8.5700    8.5800    8.5900    8.6000    8.6100    8.6200    8.6300
    8.6400    8.6500    8.6600    8.6700    8.6800    8.6900    8.7000    8.7100
    8.7200    8.7300    8.7400    8.7500    8.7600    8.7700    8.7800    8.7900
    8.8000    8.8100    8.8200    8.8300    8.8400    8.8500    8.8600    8.8700
    8.8800    8.8900    8.9000    8.9100    8.9200    8.9300    8.9400    8.9500
    8.9600    8.9700    8.9800    8.9900    9.0000    9.0100    9.0200    9.0300
    9.0400    9.0500    9.0600    9.0700    9.0800    9.0900    9.1000    9.1100
    9.1200    9.1300    9.1400    9.1500    9.1600    9.1700    9.1800    9.1900
    9.2000    9.2100    9.2200    9.2300    9.2400    9.2500    9.2600    9.2700
    9.2800    9.2900    9.3000    9.3100    9.3200    9.3300    9.3400    9.3500
    9.3600    9.3700    9.3800    9.3900    9.4000    9.4100    9.4200    9.4300
    9.4400    9.4500    9.4600    9.4700    9.4800    9.4900    9.5000    9.5100
    9.5200    9.5300    9.5400    9.5500    9.5600    9.5700    9.5800    9.5900
    9.6000    9.6100    9.6200    9.6300    9.6400    9.6500    9.6600    9.6700
    9.6800    9.6900    9.7000    9.7100    9.7200    9.7300    9.7400    9.7500
    9.7600    9.7700    9.7800    9.7900    9.8000    9.8100    9.8200    9.8300
    9.8400    9.8500    9.8600    9.8700    9.8800    9.8900    9.9000    9.9100
    9.9200    9.9300    9.9400    9.9500    9.9600    9.9700    9.9800    9.9900
   10.0000   10.0100   10.0200   10.0300   10.0400   10.0500   10.0600   10.0700
   10.0800   10.0900   10.1000   10.1100   10.1200   10.1300   10.1400   10.1500
   10.1600   10.1700   10.1800   10.1900   10.2000   10.2100   10.2200   10.2300
   10.2400   10.2500   10.2600   10.2700   10.2800   10.2900   10.3000   10.3100
   10.3200   10.3300   10.3400   10.3500   10.3600   10.3700   10.3800   10.3900
   10.4000   10.4100   10.4200   10.4300   10.4400   10.4500   10.4600   10.4700
   10.4800   10.4900   10.5000   10.5100   10.5200   10.5300   10.5400   10.5500
   10.5600   10.5700   10.5800   10.5900   10.6000   10.6100   10.6200   10.6300
   10.6400   10.6500   10.6600   10.6700   10.6800   10.6900   10.7000   10.7100
   10.7200   10.7300   10.7400   10.7500   10.7600   10.7700   10.7800   10.7900
   10.8000   10.8100   10.8200   10.8300   10.8400   10.8500   10.8600   10.8700
   10.8800   10.8900   10.9000   10.9100   10.9200   10.9300   10.9400   10.9500
   10.9600   10.9700   10.9800   10.9900   11.0000   11.0100   11.0200   11.0300
   11.0400   11.0500   11.0600   11.0700   11.0800   11.0900   11.1000   11.1100
   11.1200   11.1300   11.1400   11.1500   11.1600   11.1700   11.1800   11.1900
   11.2000   11.2100   11.2200   11.2300   11.2400   11.2500   11.2600   11.2700
   11.2800   11.2900   11.3000   11.3100   11.3200   11.3300   11.3400   11.3500
   11.3600   11.3700   11.3800   11.3900   11.4000   11.4100   11.4200   11.4300
   11.4400   11.4500   11.4600   11.4700   11.4800   11.4900   11.5000   11.5100
   11.5200   11.5300   11.5400   11.5500   11.5600   11.5700   11.5800   11.5900
   11.6000   11.6100   11.6200   11.6300   11.6400   11.6500   11.6600   11.6700
   11.6800   11.6900   11.7000   11.7100   11.7200   11.7300   11.7400   11.7500
   11.7600   11.7700   11.7800   11.7900   11.8000   11.8100   11.8200   11.8300
   11.8400   11.8500   11.8600   11.8700   11.8800   11.8900   11.9000   11.9100
   11.9200   11.9300   11.9400   11.9500   11.9600   11.9700   11.9800   11.9900
   12.0000   12.0100   12.0200   12.0300   12.0400   12.0500   12.0600   12.0700
   12.0800   12.0900   12.1000   12.1100   12.1200   12.1300   12.1400   12.1500
   12.1600   12.1700   12.1800   12.1900   12.2000   12.2100   12.2200   12.2300
   12.2400   12.2500   12.2600   12.2700   12.2800   12.2900   12.3000   12.3100
   12.3200   12.3300   12.3400   12.3500   12.3600   12.3700   12.3800   12.3900
   12.4000   12.4100   12.4200   12.4300   12.4400   12.4500   12.4600   12.4700
   12.4800   12.4900   12.5000   12.5100   12.5200   12.5300   12.5400   12.5500
   12.5600   12.5700   12.5800   12.5900   12.6000   12.6100   12.6200   12.6300
   12.6400   12.6500   12.6600   12.6700   12.6800   12.6900   12.7000   12.7100
   12.7200   12.7300   12.7400   12.7500   12.7600   12.7700   12.7800   12.7900
   12.8000   12.8100   12.8200   12.8300   12.8400   12.8500   12.8600   12.8700
   12.8800   12.8900   12.9000   12.9100   12.9200   12.9300   12.9400   12.9500
   12.9600   12.9700   12.9800   12.9900   13.0000   13.0100   13.0200   13.0300
   13.0400   13.0500   13.0600   13.0700   13.0800   13.0900   13.1000   13.1100
   13.1200   13.1300   13.1400   13.1500   13.1600   13.1700   13.1800   13.1900
   13.2000   13.2100   13.2200   13.2300   13.2400   13.2500   13.2600   13.2700
   13.2800   13.2900   13.3000   13.3100   13.3200   13.3300   13.3400   13.3500
   13.3600   13.3700   13.3800   13.3900   13.4000   13.4100   13.4200   13.4300
   13.4400   13.4500   13.4600   13.4700   13.4800   13.4900   13.5000   13.5100
   13.5200   13.5300   13.5400   13.5500
   </PP_R>
   <PP_RAB type="real"  size="1356" columns="8">
    0.0100    0.0100    0.0100    0.0100    0.0100    0.0100    0.0100    0.0100
    0.0100    0.0100    0.0100    0.0100    0.0100    0.0100    0.0100    0.0100
    0.0100    0.0100    0.0100    0.0100    0.0100    0.0100    0.0100    0.0100
    0.0100    0.0100    0.0100    0.0100    0.0100    0.0100    0.0100    0.0100
    0.0100    0.0100    0.0100    0.0100    0.0100    0.0100    0.0100    0.0100
    0.0100    0.0100    0.0100    0.0100    0.0100    0.0100    0.0100    0.0100
    0.0100    0.0100    0.0100    0.0100    0.0100    0.0100    0.0100    0.0100
    0.0100    0.0100    0.0100    0.0100    0.0100    0.0100    0.0100    0.0100
    0.0100    0.0100    0.0100    0.0100    0.0100    0.0100    0.0100    0.0100
    0.0100    0.0100    0.0100    0.0100    0.0100    0.0100    0.0100    0.0100
    0.0100    0.0100    0.0100    0.0100    0.0100    0.0100    0.0100    0.0100
    0.0100    0.0100    0.0100    0.0100    0.0100    0.0100    0.0100    0.0100
    0.0100    0.0100    0.0100    0.0100    0.0100    0.0100    0.0100    0.0100
    0.0100    0.0100    0.0100    0.0100    0.0100    0.0100    0.0100    0.0100
    0.0100    0.0100    0.0100    0.0100    0.0100    0.0100    0.0100    0.0100
    0.0100    0.0100    0.0100    0.0100    0.0100    0.0100    0.0100    0.0100
    0.0100    0.0100    0.0100    0.0100    0.0100    0.0100    0.0100    0.0100
    0.0100    0.0100    0.0100    0.0100    0.0100    0.0100    0.0100    0.0100
    0.0100    0.0100    0.0100    0.0100    0.0100    0.0100    0.0100    0.0100
    0.0100    0.0100    0.0100    0.0100    0.0100    0.0100    0.0100    0.0100
    0.0100    0.0100    0.0100    0.0100    0.0100    0.0100    0.0100    0.0100
    0.0100    0.0100    0.0100    0.0100    0.0100    0.0100    0.0100    0.0100
    0.0100    0.0100    0.0100    0.0100    0.0100    0.0100    0.0100    0.0100
    0.0100    0.0100    0.0100    0.0100    0.0100    0.0100    0.0100    0.0100
    0.0100    0.0100    0.0100    0.0100    0.0100    0.0100    0.0100    0.0100
    0.0100    0.0100    0.0100    0.0100    0.0100    0.0100    0.0100    0.0100
    0.0100    0.0100    0.0100    0.0100    0.0100    0.0100    0.0100    0.0100
    0.0100    0.0100    0.0100    0.0100    0.0100    0.0100    0.0100    0.0100
    0.0100    0.0100    0.0100    0.0100    0.0100    0.0100    0.0100    0.0100
    0.0100    0.0100    0.0100    0.0100    0.0100    0.0100    0.0100    0.0100
    0.0100    0.0100    0.0100    0.0100    0.0100    0.0100    0.0100    0.0100
    0.0100    0.0100    0.0100    0.0100    0.0100    0.0100    0.0100    0.0100
    0.0100    0.0100    0.0100    0.0100    0.0100    0.0100    0.0100    0.0100
    0.0100    0.0100    0.0100    0.0100    0.0100    0.0100    0.0100    0.0100
    0.0100    0.0100    0.0100    0.0100    0.0100    0.0100    0.0100    0.0100
    0.0100    0.0100    0.0100    0.0100    0.0100    0.0100    0.0100    0.0100
    0.0100    0.0100    0.0100    0.0100    0.0100    0.0100    0.0100    0.0100
    0.0100    0.0100    0.0100    0.0100    0.0100    0.0100    0.0100    0.0100
    0.0100    0.0100    0.0100    0.0100    0.0100    0.0100    0.0100    0.0100
    0.0100    0.0100    0.0100    0.0100    0.0100    0.0100    0.0100    0.0100
    0.0100    0.0100    0.0100    0.0100    0.0100    0.0100    0.0100    0.0100
    0.0100    0.0100    0.0100    0.0100    0.0100    0.0100    0.0100    0.0100
    0.0100    0.0100    0.0100    0.0100    0.0100    0.0100    0.0100    0.0100
    0.0100    0.0100    0.0100    0.0100    0.0100    0.0100    0.0100    0.0100
    0.0100    0.0100    0.0100    0.0100    0.0100    0.0100    0.0100    0.0100
    0.0100    0.0100    0.0100    0.0100    0.0100    0.0100    0.0100    0.0100
    0.0100    0.0100    0.0100    0.0100    0.0100    0.0100    0.0100    0.0100
    0.0100    0.0100    0.0100    0.0100    0.0100    0.0100    0.0100    0.0100
    0.0100    0.0100    0.0100    0.0100    0.0100    0.0100    0.0100    0.0100
    0.0100    0.0100    0.0100    0.0100    0.0100    0.0100    0.0100    0.0100
    0.0100    0.0100    0.0100    0.0100    0.0100    0.0100    0.0100    0.0100
    0.0100    0.0100    0.0100    0.0100    0.0100    0.0100    0.0100    0.0100
    0.0100    0.0100    0.0100    0.0100    0.0100    0.0100    0.0100    0.0100
    0.0100    0.0100    0.0100    0.0100    0.0100    0.0100    0.0100    0.0100
    0.0100    0.0100    0.0100    0.0100    0.0100    0.0100    0.0100    0.0100
    0.0100    0.0100    0.0100    0.0100    0.0100    0.0100    0.0100    0.0100
    0.0100    0.0100    0.0100    0.0100    0.0100    0.0100    0.0100    0.0100
    0.0100    0.0100    0.0100    0.0100    0.0100    0.0100    0.0100    0.0100
    0.0100    0.0100    0.0100    0.0100    0.0100    0.0100    0.0100    0.0100
    0.0100    0.0100    0.0100    0.0100    0.0100    0.0100    0.0100    0.0100
    0.0100    0.0100    0.0100    0.0100    0.0100    0.0100    0.0100    0.0100
    0.0100    0.0100    0.0100    0.0100    0.0100    0.0100    0.0100    0.0100
    0.0100    0.0100    0.0100    0.0100    0.0100    0.0100    0.0100    0.0100
    0.0100    0.0100    0.0100    0.0100    0.0100    0.0100    0.0100    0.0100
    0.0100    0.0100    0.0100    0.0100    0.0100    0.0100    0.0100    0.0100
    0.0100    0.0100    0.0100    0.0100    0.0100    0.0100    0.0100    0.0100
    0.0100    0.0100    0.0100    0.0100    0.0100    0.0100    0.0100    0.0100
    0.0100    0.0100    0.0100    0.0100    0.0100    0.0100    0.0100    0.0100
    0.0100    0.0100    0.0100    0.0100    0.0100    0.0100    0.0100    0.0100
    0.0100    0.0100    0.0100    0.0100    0.0100    0.0100    0.0100    0.0100
    0.0100    0.0100    0.0100    0.0100    0.0100    0.0100    0.0100    0.0100
    0.0100    0.0100    0.0100    0.0100    0.0100    0.0100    0.0100    0.0100
    0.0100    0.0100    0.0100    0.0100    0.0100    0.0100    0.0100    0.0100
    0.0100    0.0100    0.0100    0.0100    0.0100    0.0100    0.0100    0.0100
    0.0100    0.0100    0.0100    0.0100    0.0100    0.0100    0.0100    0.0100
    0.0100    0.0100    0.0100    0.0100    0.0100    0.0100    0.0100    0.0100
    0.0100    0.0100    0.0100    0.0100    0.0100    0.0100    0.0100    0.0100
    0.0100    0.0100    0.0100    0.0100    0.0100    0.0100    0.0100    0.0100
    0.0100    0.0100    0.0100    0.0100    0.0100    0.0100    0.0100    0.0100
    0.0100    0.0100    0.0100    0.0100    0.0100    0.0100    0.0100    0.0100
    0.0100    0.0100    0.0100    0.0100    0.0100    0.0100    0.0100    0.0100
    0.0100    0.0100    0.0100    0.0100    0.0100    0.0100    0.0100    0.0100
    0.0100    0.0100    0.0100    0.0100    0.0100    0.0100    0.0100    0.0100
    0.0100    0.0100    0.0100    0.0100    0.0100    0.0100    0.0100    0.0100
    0.0100    0.0100    0.0100    0.0100    0.0100    0.0100    0.0100    0.0100
    0.0100    0.0100    0.0100    0.0100    0.0100    0.0100    0.0100    0.0100
    0.0100    0.0100    0.0100    0.0100    0.0100    0.0100    0.0100    0.0100
    0.0100    0.0100    0.0100    0.0100    0.0100    0.0100    0.0100    0.0100
    0.0100    0.0100    0.0100    0.0100    0.0100    0.0100    0.0100    0.0100
    0.0100    0.0100    0.0100    0.0100    0.0100    0.0100    0.0100    0.0100
    0.0100    0.0100    0.0100    0.0100    0.0100    0.0100    0.0100    0.0100
    0.0100    0.0100    0.0100    0.0100    0.0100    0.0100    0.0100    0.0100
    0.0100    0.0100    0.0100    0.0100    0.0100    0.0100    0.0100    0.0100
    0.0100    0.0100    0.0100    0.0100    0.0100    0.0100    0.0100    0.0100
    0.0100    0.0100    0.0100    0.0100    0.0100    0.0100    0.0100    0.0100
    0.0100    0.0100    0.0100    0.0100    0.0100    0.0100    0.0100    0.0100
    0.0100    0.0100    0.0100    0.0100    0.0100    0.0100    0.0100    0.0100
    0.0100    0.0100    0.0100    0.0100    0.0100    0.0100    0.0100    0.0100
    0.0100    0.0100    0.0100    0.0100    0.0100    0.0100    0.0100    0.0100
    0.0100    0.0100    0.0100    0.0100    0.0100    0.0100    0.0100    0.0100
    0.0100    0.0100    0.0100    0.0100    0.0100    0.0100    0.0100    0.0100
    0.0100    0.0100    0.0100    0.0100    0.0100    0.0100    0.0100    0.0100
    0.0100    0.0100    0.0100    0.0100    0.0100    0.0100    0.0100    0.0100
    0.0100    0.0100    0.0100    0.0100    0.0100    0.0100    0.0100    0.0100
    0.0100    0.0100    0.0100    0.0100    0.0100    0.0100    0.0100    0.0100
    0.0100    0.0100    0.0100    0.0100    0.0100    0.0100    0.0100    0.0100
    0.0100    0.0100    0.0100    0.0100    0.0100    0.0100    0.0100    0.0100
    0.0100    0.0100    0.0100    0.0100    0.0100    0.0100    0.0100    0.0100
    0.0100    0.0100    0.0100    0.0100    0.0100    0.0100    0.0100    0.0100
    0.0100    0.0100    0.0100    0.0100    0.0100    0.0100    0.0100    0.0100
    0.0100    0.0100    0.0100    0.0100    0.0100    0.0100    0.0100    0.0100
    0.0100    0.0100    0.0100    0.0100    0.0100    0.0100    0.0100    0.0100
    0.0100    0.0100    0.0100    0.0100    0.0100    0.0100    0.0100    0.0100
    0.0100    0.0100    0.0100    0.0100    0.0100    0.0100    0.0100    0.0100
    0.0100    0.0100    0.0100    0.0100    0.0100    0.0100    0.0100    0.0100
    0.0100    0.0100    0.0100    0.0100    0.0100    0.0100    0.0100    0.0100
    0.0100    0.0100    0.0100    0.0100    0.0100    0.0100    0.0100    0.0100
    0.0100    0.0100    0.0100    0.0100    0.0100    0.0100    0.0100    0.0100
    0.0100    0.0100    0.0100    0.0100    0.0100    0.0100    0.0100    0.0100
    0.0100    0.0100    0.0100    0.0100    0.0100    0.0100    0.0100    0.0100
    0.0100    0.0100    0.0100    0.0100    0.0100    0.0100    0.0100    0.0100
    0.0100    0.0100    0.0100    0.0100    0.0100    0.0100    0.0100    0.0100
    0.0100    0.0100    0.0100    0.0100    0.0100    0.0100    0.0100    0.0100
    0.0100    0.0100    0.0100    0.0100    0.0100    0.0100    0.0100    0.0100
    0.0100    0.0100    0.0100    0.0100    0.0100    0.0100    0.0100    0.0100
    0.0100    0.0100    0.0100    0.0100    0.0100    0.0100    0.0100    0.0100
    0.0100    0.0100    0.0100    0.0100    0.0100    0.0100    0.0100    0.0100
    0.0100    0.0100    0.0100    0.0100    0.0100    0.0100    0.0100    0.0100
    0.0100    0.0100    0.0100    0.0100    0.0100    0.0100    0.0100    0.0100
    0.0100    0.0100    0.0100    0.0100    0.0100    0.0100    0.0100    0.0100
    0.0100    0.0100    0.0100    0.0100    0.0100    0.0100    0.0100    0.0100
    0.0100    0.0100    0.0100    0.0100    0.0100    0.0100    0.0100    0.0100
    0.0100    0.0100    0.0100    0.0100    0.0100    0.0100    0.0100    0.0100
    0.0100    0.0100    0.0100    0.0100    0.0100    0.0100    0.0100    0.0100
    0.0100    0.0100    0.0100    0.0100    0.0100    0.0100    0.0100    0.0100
    0.0100    0.0100    0.0100    0.0100    0.0100    0.0100    0.0100    0.0100
    0.0100    0.0100    0.0100    0.0100    0.0100    0.0100    0.0100    0.0100
    0.0100    0.0100    0.0100    0.0100    0.0100    0.0100    0.0100    0.0100
    0.0100    0.0100    0.0100    0.0100    0.0100    0.0100    0.0100    0.0100
    0.0100    0.0100    0.0100    0.0100    0.0100    0.0100    0.0100    0.0100
    0.0100    0.0100    0.0100    0.0100    0.0100    0.0100    0.0100    0.0100
    0.0100    0.0100    0.0100    0.0100    0.0100    0.0100    0.0100    0.0100
    0.0100    0.0100    0.0100    0.0100    0.0100    0.0100    0.0100    0.0100
    0.0100    0.0100    0.0100    0.0100    0.0100    0.0100    0.0100    0.0100
    0.0100    0.0100    0.0100    0.0100    0.0100    0.0100    0.0100    0.0100
    0.0100    0.0100    0.0100    0.0100    0.0100    0.0100    0.0100    0.0100
    0.0100    0.0100    0.0100    0.0100    0.0100    0.0100    0.0100    0.0100
    0.0100    0.0100    0.0100    0.0100    0.0100    0.0100    0.0100    0.0100
    0.0100    0.0100    0.0100    0.0100    0.0100    0.0100    0.0100    0.0100
    0.0100    0.0100    0.0100    0.0100    0.0100    0.0100    0.0100    0.0100
    0.0100    0.0100    0.0100    0.0100    0.0100    0.0100    0.0100    0.0100
    0.0100    0.0100    0.0100    0.0100    0.0100    0.0100    0.0100    0.0100
    0.0100    0.0100    0.0100    0.0100    0.0100    0.0100    0.0100    0.0100
    0.0100    0.0100    0.0100    0.0100    0.0100    0.0100    0.0100    0.0100
    0.0100    0.0100    0.0100    0.0100    0.0100    0.0100    0.0100    0.0100
    0.0100    0.0100    0.0100    0.0100    0.0100    0.0100    0.0100    0.0100
    0.0100    0.0100    0.0100    0.0100    0.0100    0.0100    0.0100    0.0100
    0.0100    0.0100    0.0100    0.0100    0.0100    0.0100    0.0100    0.0100
    0.0100    0.0100    0.0100    0.0100    0.0100    0.0100    0.0100    0.0100
    0.0100    0.0100    0.0100    0.0100    0.0100    0.0100    0.0100    0.0100
    0.0100    0.0100    0.0100    0.0100    0.0100    0.0100    0.0100    0.0100
    0.0100    0.0100    0.0100    0.0100    0.0100    0.0100    0.0100    0.0100
    0.0100    0.0100    0.0100    0.0100    0.0100    0.0100    0.0100    0.0100
    0.0100    0.0100    0.0100    0.0100    0.0100    0.0100    0.0100    0.0100
    0.0100    0.0100    0.0100    0.0100    0.0100    0.0100    0.0100    0.0100
    0.0100    0.0100    0.0100    0.0100    0.0100    0.0100    0.0100    0.0100
    0.0100    0.0100    0.0100    0.0100    0.0100    0.0100    0.0100    0.0100
    0.0100    0.0100    0.0100    0.0100    0.0100    0.0100    0.0100    0.0100
    0.0100    0.0100    0.0100    0.0100    0.0100    0.0100    0.0100    0.0100
    0.0100    0.0100    0.0100    0.0100
   </PP_RAB>
 </PP_MESH>
  <PP_LOCAL type="real"  size="1356" columns="4">
   -1.2230396695E+01   -1.2229109849E+01   -1.2225261139E+01   -1.2218859039E+01
   -1.2209919797E+01   -1.2198466482E+01   -1.2184528473E+01   -1.2168141146E+01
   -1.2149345559E+01   -1.2128188090E+01   -1.2104720058E+01   -1.2078997318E+01
   -1.2051079835E+01   -1.2021031256E+01   -1.1988918479E+01   -1.1954811225E+01
   -1.1918781631E+01   -1.1880903845E+01   -1.1841253655E+01   -1.1799908134E+01
   -1.1756945318E+01   -1.1712443904E+01   -1.1666482985E+01   -1.1619141804E+01
   -1.1570499548E+01   -1.1520635153E+01   -1.1469627150E+01   -1.1417553520E+01
   -1.1364491582E+01   -1.1310517887E+01   -1.1255708142E+01   -1.1200137133E+01
   -1.1143878677E+01   -1.1087005561E+01   -1.1029589512E+01   -1.0971701155E+01
   -1.0913409977E+01   -1.0854784301E+01   -1.0795891245E+01   -1.0736796693E+01
   -1.0677565244E+01   -1.0618260175E+01   -1.0558943373E+01   -1.0499675273E+01
   -1.0440514774E+01   -1.0381519140E+01   -1.0322743882E+01   -1.0264242617E+01
   -1.0206066901E+01   -1.0148266033E+01   -1.0090886824E+01   -1.0033973332E+01
   -9.9775665488E+00   -9.9217040506E+00   -9.8664195982E+00   -9.8117426910E+00
   -9.7576980747E+00   -9.7043052076E+00   -9.6515776912E+00   -9.5995226763E+00
   -9.5481402615E+00   -9.4974229030E+00   -9.4473548631E+00   -9.3979117277E+00
   -9.3490600286E+00   -9.3007570095E+00   -9.2529505745E+00   -9.2055794593E+00
   -9.1585736578E+00   -9.1118551320E+00   -9.0653388196E+00   -9.0189339430E+00
   -8.9725456034E+00   -8.9260766284E+00   -8.8794296237E+00   -8.8325091621E+00
   -8.7852240307E+00   -8.7374894474E+00   -8.6892291546E+00   -8.6403772993E+00
   -8.5908800171E+00   -8.5406966511E+00   -8.4898005550E+00   -8.4381794506E+00
   -8.3858353355E+00   -8.3327839580E+00   -8.2790539039E+00   -8.2246853569E+00
   -8.1697286152E+00   -8.1142424592E+00   -8.0582924782E+00   -8.0019494659E+00
   -7.9452880009E+00   -7.8883853240E+00   -7.8313206230E+00   -7.7741748263E+00
   -7.7170309974E+00   -7.6599754085E+00   -7.6030993492E+00   -7.5465016960E+00
   -7.4902922202E+00   -7.4345955442E+00   -7.3795555567E+00   -7.3253399594E+00
   -7.2721444382E+00   -7.2201957289E+00   -7.1697525920E+00   -7.1211034603E+00
   -7.0745593301E+00   -7.0304404249E+00   -6.9890553950E+00   -6.9506724622E+00
   -6.9154830908E+00   -6.8835604991E+00   -6.8548174614E+00   -6.8289700175E+00
   -6.8055152346E+00   -6.7837312532E+00   -6.7627058000E+00   -6.7413949591E+00
   -6.7187078514E+00   -6.6936065463E+00   -6.6652059045E+00   -6.6328569333E+00
   -6.5962001734E+00   -6.5551818987E+00   -6.5100334779E+00   -6.4612210263E+00
   -6.4093766653E+00   -6.3552238277E+00   -6.2995074423E+00   -6.2429365805E+00
   -6.1861433985E+00   -6.1296588546E+00   -6.0739032741E+00   -6.0191884880E+00
   -5.9657278588E+00   -5.9136507737E+00   -5.8630188269E+00   -5.8138416937E+00
   -5.7660914415E+00   -5.7197146415E+00   -5.6746420928E+00   -5.6307962679E+00
   -5.5880967521E+00   -5.5464640191E+00   -5.5058218920E+00   -5.4660990088E+00
   -5.4272295635E+00   -5.3891535429E+00   -5.3518166281E+00   -5.3151698898E+00
   -5.2791693563E+00   -5.2437755169E+00   -5.2089528968E+00   -5.1746696814E+00
   -5.1408973607E+00   -5.1076104011E+00   -5.0747859492E+00   -5.0424035696E+00
   -5.0104450144E+00   -4.9788940227E+00   -4.9477361470E+00   -4.9169586017E+00
   -4.8865501314E+00   -4.8565008953E+00   -4.8268023622E+00   -4.7974472163E+00
   -4.7684292679E+00   -4.7397433676E+00   -4.7113853221E+00   -4.6833518087E+00
   -4.6556402874E+00   -4.6282489101E+00   -4.6011764242E+00   -4.5744220727E+00
   -4.5479854898E+00   -4.5218665958E+00   -4.4960654898E+00   -4.4705823178E+00
   -4.4454171461E+00   -4.4205698755E+00   -4.3960401520E+00   -4.3718271503E+00
   -4.3479297167E+00   -4.3243466499E+00   -4.3010699474E+00   -4.2780729563E+00
   -4.2553198401E+00   -4.2328023727E+00   -4.2105240985E+00   -4.1884800860E+00
   -4.1666648833E+00   -4.1450760104E+00   -4.1237096576E+00   -4.1025624509E+00
   -4.0816310318E+00   -4.0609121141E+00   -4.0404024782E+00   -4.0200989691E+00
   -3.9999984949E+00   -3.9800980251E+00   -3.9603945893E+00   -3.9408852758E+00
   -3.9215672298E+00   -3.9024376523E+00   -3.8834937984E+00   -3.8647329767E+00
   -3.8461525472E+00   -3.8277499205E+00   -3.8095225567E+00   -3.7914679637E+00
   -3.7735836968E+00   -3.7558673569E+00   -3.7383165900E+00   -3.7209290858E+00
   -3.7037025767E+00   -3.6866348369E+00   -3.6697236817E+00   -3.6529669659E+00
   -3.6363625836E+00   -3.6199084669E+00   -3.6036025853E+00   -3.5874429445E+00
   -3.5714275859E+00   -3.5555545859E+00   -3.5398220546E+00   -3.5242281357E+00
   -3.5087710053E+00   -3.4934488715E+00   -3.4782599734E+00   -3.4632025806E+00
   -3.4482749929E+00   -3.4334755390E+00   -3.4188025756E+00   -3.4042544881E+00
   -3.3898296896E+00   -3.3755266192E+00   -3.3613437425E+00   -3.3472795507E+00
   -3.3333325605E+00   -3.3195013127E+00   -3.3057843726E+00   -3.2921803290E+00
   -3.2786877939E+00   -3.2653054017E+00   -3.2520318094E+00   -3.2388656954E+00
   -3.2258057597E+00   -3.2128507230E+00   -3.1999993264E+00   -3.1872503313E+00
   -3.1746025187E+00   -3.1620546886E+00   -3.1496056603E+00   -3.1372542714E+00
   -3.1249993776E+00   -3.1128398525E+00   -3.1007745873E+00   -3.0888024901E+00
   -3.0769224859E+00   -3.0651335162E+00   -3.0534345385E+00   -3.0418245265E+00
   -3.0303024690E+00   -3.0188673704E+00   -3.0075182499E+00   -2.9962541416E+00
   -2.9850740937E+00   -2.9739771689E+00   -2.9629624435E+00   -2.9520290075E+00
   -2.9411759644E+00   -2.9304024308E+00   -2.9197075361E+00   -2.9090904225E+00
   -2.8985502444E+00   -2.8880861687E+00   -2.8776973742E+00   -2.8673830512E+00
   -2.8571424020E+00   -2.8469746400E+00   -2.8368789898E+00   -2.8268546869E+00
   -2.8169009777E+00   -2.8070171192E+00   -2.7972023785E+00   -2.7874560332E+00
   -2.7777773709E+00   -2.7681656890E+00   -2.7586202945E+00   -2.7491405041E+00
   -2.7397256438E+00   -2.7303750488E+00   -2.7210880633E+00   -2.7118640404E+00
   -2.7027023420E+00   -2.6936023386E+00   -2.6845634090E+00   -2.6755849405E+00
   -2.6666663285E+00   -2.6578069764E+00   -2.6490062955E+00   -2.6402637049E+00
   -2.6315786314E+00   -2.6229505092E+00   -2.6143787799E+00   -2.6058628926E+00
   -2.5974023032E+00   -2.5889964749E+00   -2.5806448778E+00   -2.5723469888E+00
   -2.5641022913E+00   -2.5559102756E+00   -2.5477704384E+00   -2.5396822827E+00
   -2.5316453179E+00   -2.5236590594E+00   -2.5157230290E+00   -2.5078367543E+00
   -2.4999997688E+00   -2.4922116119E+00   -2.4844718286E+00   -2.4767799697E+00
   -2.4691355914E+00   -2.4615382554E+00   -2.4539875289E+00   -2.4464829841E+00
   -2.4390241987E+00   -2.4316107556E+00   -2.4242422424E+00   -2.4169182518E+00
   -2.4096383817E+00   -2.4024022345E+00   -2.3952094176E+00   -2.3880595428E+00
   -2.3809522268E+00   -2.3738870906E+00   -2.3668637600E+00   -2.3598818650E+00
   -2.3529410399E+00   -2.3460409234E+00   -2.3391811585E+00   -2.3323613922E+00
   -2.3255812756E+00   -2.3188404641E+00   -2.3121386167E+00   -2.3054753967E+00
   -2.2988504710E+00   -2.2922635105E+00   -2.2857141897E+00   -2.2792021870E+00
   -2.2727271842E+00   -2.2662888670E+00   -2.2598869244E+00   -2.2535210490E+00
   -2.2471909370E+00   -2.2408962877E+00   -2.2346368040E+00   -2.2284121921E+00
   -2.2222221613E+00   -2.2160664242E+00   -2.2099446967E+00   -2.2038566977E+00
   -2.1978021492E+00   -2.1917807762E+00   -2.1857923069E+00   -2.1798364722E+00
   -2.1739130062E+00   -2.1680216456E+00   -2.1621621302E+00   -2.1563342024E+00
   -2.1505376075E+00   -2.1447720934E+00   -2.1390374110E+00   -2.1333333135E+00
   -2.1276595568E+00   -2.1220158997E+00   -2.1164021031E+00   -2.1108179307E+00
   -2.1052631486E+00   -2.0997375254E+00   -2.0942408322E+00   -2.0887728423E+00
   -2.0833333314E+00   -2.0779220777E+00   -2.0725388615E+00   -2.0671834655E+00
   -2.0618556745E+00   -2.0565552758E+00   -2.0512820586E+00   -2.0460358143E+00
   -2.0408163364E+00   -2.0356234208E+00   -2.0304568651E+00   -2.0253164691E+00
   -2.0202020347E+00   -2.0151133656E+00   -2.0100502677E+00   -2.0050125487E+00
   -2.0000000182E+00   -1.9950124879E+00   -1.9900497711E+00   -1.9851116831E+00
   -1.9801980410E+00   -1.9753086638E+00   -1.9704433721E+00   -1.9656019885E+00
   -1.9607843371E+00   -1.9559902439E+00   -1.9512195364E+00   -1.9464720441E+00
   -1.9417475977E+00   -1.9370460300E+00   -1.9323671752E+00   -1.9277108690E+00
   -1.9230769489E+00   -1.9184652538E+00   -1.9138756242E+00   -1.9093079020E+00
   -1.9047619309E+00   -1.9002375559E+00   -1.8957346233E+00   -1.8912529812E+00
   -1.8867924789E+00   -1.8823529671E+00   -1.8779342981E+00   -1.8735363254E+00
   -1.8691589040E+00   -1.8648018901E+00   -1.8604651413E+00   -1.8561485167E+00
   -1.8518518764E+00   -1.8475750820E+00   -1.8433179963E+00   -1.8390804834E+00
   -1.8348624086E+00   -1.8306636385E+00   -1.8264840408E+00   -1.8223234846E+00
   -1.8181818399E+00   -1.8140589783E+00   -1.8099547721E+00   -1.8058690950E+00
   -1.8018018219E+00   -1.7977528286E+00   -1.7937219923E+00   -1.7897091910E+00
   -1.7857143040E+00   -1.7817372116E+00   -1.7777777951E+00   -1.7738359371E+00
   -1.7699115208E+00   -1.7660044309E+00   -1.7621145529E+00   -1.7582417732E+00
   -1.7543859794E+00   -1.7505470600E+00   -1.7467249044E+00   -1.7429194031E+00
   -1.7391304474E+00   -1.7353579298E+00   -1.7316017433E+00   -1.7278617824E+00
   -1.7241379419E+00   -1.7204301180E+00   -1.7167382074E+00   -1.7130621081E+00
   -1.7094017186E+00   -1.7057569384E+00   -1.7021276680E+00   -1.6985138084E+00
   -1.6949152619E+00   -1.6913319312E+00   -1.6877637200E+00   -1.6842105329E+00
   -1.6806722752E+00   -1.6771488530E+00   -1.6736401731E+00   -1.6701461432E+00
   -1.6666666719E+00   -1.6632016681E+00   -1.6597510421E+00   -1.6563147043E+00
   -1.6528925663E+00   -1.6494845402E+00   -1.6460905389E+00   -1.6427104761E+00
   -1.6393442660E+00   -1.6359918236E+00   -1.6326530647E+00   -1.6293279056E+00
   -1.6260162635E+00   -1.6227180560E+00   -1.6194332017E+00   -1.6161616194E+00
   -1.6129032291E+00   -1.6096579510E+00   -1.6064257062E+00   -1.6032064163E+00
   -1.6000000035E+00   -1.5968063909E+00   -1.5936255018E+00   -1.5904572604E+00
   -1.5873015914E+00   -1.5841584201E+00   -1.5810276725E+00   -1.5779092750E+00
   -1.5748031546E+00   -1.5717092391E+00   -1.5686274565E+00   -1.5655577358E+00
   -1.5625000062E+00   -1.5594541976E+00   -1.5564202404E+00   -1.5533980656E+00
   -1.5503876046E+00   -1.5473887896E+00   -1.5444015530E+00   -1.5414258279E+00
   -1.5384615480E+00   -1.5355086473E+00   -1.5325670604E+00   -1.5296367224E+00
   -1.5267175690E+00   -1.5238095361E+00   -1.5209125604E+00   -1.5180265788E+00
   -1.5151515291E+00   -1.5122873493E+00   -1.5094339782E+00   -1.5065913544E+00
   -1.5037594165E+00   -1.5009381034E+00   -1.4981273554E+00   -1.4953271156E+00
   -1.4925373267E+00   -1.4897579326E+00   -1.4869888720E+00   -1.4842300852E+00
   -1.4814815117E+00   -1.4787430967E+00   -1.4760147857E+00   -1.4732965253E+00
   -1.4705882604E+00   -1.4678899351E+00   -1.4652014937E+00   -1.4625228816E+00
   -1.4598540451E+00   -1.4571949311E+00   -1.4545454868E+00   -1.4519056594E+00
   -1.4492753966E+00   -1.4466546466E+00   -1.4440433577E+00   -1.4414414789E+00
   -1.4388489594E+00   -1.4362657487E+00   -1.4336917969E+00   -1.4311270543E+00
   -1.4285714714E+00   -1.4260249994E+00   -1.4234875896E+00   -1.4209591937E+00
   -1.4184397637E+00   -1.4159292521E+00   -1.4134276116E+00   -1.4109347952E+00
   -1.4084507563E+00   -1.4059754487E+00   -1.4035088264E+00   -1.4010508438E+00
   -1.3986014555E+00   -1.3961606166E+00   -1.3937282823E+00   -1.3913044084E+00
   -1.3888889507E+00   -1.3864818654E+00   -1.3840831092E+00   -1.3816926389E+00
   -1.3793104116E+00   -1.3769363847E+00   -1.3745705160E+00   -1.3722127635E+00
   -1.3698630855E+00   -1.3675214406E+00   -1.3651877877E+00   -1.3628620859E+00
   -1.3605442947E+00   -1.3582343737E+00   -1.3559322829E+00   -1.3536379827E+00
   -1.3513514335E+00   -1.3490725961E+00   -1.3468014315E+00   -1.3445379012E+00
   -1.3422819665E+00   -1.3400335895E+00   -1.3377927321E+00   -1.3355593567E+00
   -1.3333334259E+00   -1.3311149025E+00   -1.3289037496E+00   -1.3266999306E+00
   -1.3245034090E+00   -1.3223141486E+00   -1.3201321135E+00   -1.3179572680E+00
   -1.3157895766E+00   -1.3136290040E+00   -1.3114755153E+00   -1.3093290757E+00
   -1.3071896505E+00   -1.3050572056E+00   -1.3029317067E+00   -1.3008131200E+00
   -1.2987014118E+00   -1.2965965487E+00   -1.2944984975E+00   -1.2924072251E+00
   -1.2903226988E+00   -1.2882448859E+00   -1.2861737541E+00   -1.2841092712E+00
   -1.2820514052E+00   -1.2800001244E+00   -1.2779553971E+00   -1.2759171922E+00
   -1.2738854783E+00   -1.2718602246E+00   -1.2698414003E+00   -1.2678289747E+00
   -1.2658229176E+00   -1.2638231988E+00   -1.2618297882E+00   -1.2598426560E+00
   -1.2578617727E+00   -1.2558871089E+00   -1.2539186351E+00   -1.2519563225E+00
   -1.2500001421E+00   -1.2480500652E+00   -1.2461060634E+00   -1.2441681082E+00
   -1.2422361715E+00   -1.2403102252E+00   -1.2383902417E+00   -1.2364761932E+00
   -1.2345680522E+00   -1.2326657915E+00   -1.2307693839E+00   -1.2288788024E+00
   -1.2269940203E+00   -1.2251150108E+00   -1.2232417475E+00   -1.2213742041E+00
   -1.2195123545E+00   -1.2176561725E+00   -1.2158056325E+00   -1.2139607086E+00
   -1.2121213755E+00   -1.2102876076E+00   -1.2084593798E+00   -1.2066366670E+00
   -1.2048194443E+00   -1.2030076869E+00   -1.2012013703E+00   -1.1994004698E+00
   -1.1976049613E+00   -1.1958148205E+00   -1.1940300235E+00   -1.1922505462E+00
   -1.1904763650E+00   -1.1887074562E+00   -1.1869437964E+00   -1.1851853623E+00
   -1.1834321306E+00   -1.1816840783E+00   -1.1799411825E+00   -1.1782034205E+00
   -1.1764707694E+00   -1.1747432070E+00   -1.1730207107E+00   -1.1713032582E+00
   -1.1695908276E+00   -1.1678833968E+00   -1.1661809439E+00   -1.1644834472E+00
   -1.1627908850E+00   -1.1611032360E+00   -1.1594204786E+00   -1.1577425918E+00
   -1.1560695544E+00   -1.1544013453E+00   -1.1527379437E+00   -1.1510793289E+00
   -1.1494254803E+00   -1.1477763772E+00   -1.1461319994E+00   -1.1444923265E+00
   -1.1428573383E+00   -1.1412270149E+00   -1.1396013363E+00   -1.1379802826E+00
   -1.1363638343E+00   -1.1347519715E+00   -1.1331446750E+00   -1.1315419252E+00
   -1.1299437030E+00   -1.1283499891E+00   -1.1267607646E+00   -1.1251760105E+00
   -1.1235957079E+00   -1.1220198382E+00   -1.1204483826E+00   -1.1188813227E+00
   -1.1173186401E+00   -1.1157603164E+00   -1.1142063334E+00   -1.1126566730E+00
   -1.1111113173E+00   -1.1095702482E+00   -1.1080334480E+00   -1.1065008990E+00
   -1.1049725836E+00   -1.1034484842E+00   -1.1019285834E+00   -1.1004128638E+00
   -1.0989013084E+00   -1.0973938998E+00   -1.0958906212E+00   -1.0943914555E+00
   -1.0928963858E+00   -1.0914053955E+00   -1.0899184678E+00   -1.0884355861E+00
   -1.0869567340E+00   -1.0854818951E+00   -1.0840110530E+00   -1.0825441916E+00
   -1.0810812946E+00   -1.0796223460E+00   -1.0781673300E+00   -1.0767162305E+00
   -1.0752690318E+00   -1.0738257182E+00   -1.0723862741E+00   -1.0709506839E+00
   -1.0695189321E+00   -1.0680910035E+00   -1.0666668827E+00   -1.0652465544E+00
   -1.0638300037E+00   -1.0624172153E+00   -1.0610081744E+00   -1.0596028660E+00
   -1.0582012754E+00   -1.0568033877E+00   -1.0554091885E+00   -1.0540186630E+00
   -1.0526317968E+00   -1.0512485754E+00   -1.0498689845E+00   -1.0484930098E+00
   -1.0471206372E+00   -1.0457518524E+00   -1.0443866415E+00   -1.0430249905E+00
   -1.0416668854E+00   -1.0403123125E+00   -1.0389612579E+00   -1.0376137080E+00
   -1.0362696491E+00   -1.0349290678E+00   -1.0335919505E+00   -1.0322582838E+00
   -1.0309280544E+00   -1.0296012490E+00   -1.0282778544E+00   -1.0269578574E+00
   -1.0256412451E+00   -1.0243280044E+00   -1.0230181223E+00   -1.0217115860E+00
   -1.0204083828E+00   -1.0191084998E+00   -1.0178119243E+00   -1.0165186439E+00
   -1.0152286459E+00   -1.0139419178E+00   -1.0126584473E+00   -1.0113782219E+00
   -1.0101012294E+00   -1.0088274576E+00   -1.0075568943E+00   -1.0062895274E+00
   -1.0050253448E+00   -1.0037643345E+00   -1.0025064847E+00   -1.0012517834E+00
   -1.0000002188E+00   -9.9875177931E-01   -9.9750645309E-01   -9.9626422854E-01
   -9.9502509411E-01   -9.9378903826E-01   -9.9255604954E-01   -9.9132611656E-01
   -9.9009922795E-01   -9.8887537244E-01   -9.8765453880E-01   -9.8643671583E-01
   -9.8522189243E-01   -9.8401005751E-01   -9.8280120008E-01   -9.8159530915E-01
   -9.8039237384E-01   -9.7919238329E-01   -9.7799532670E-01   -9.7680119331E-01
   -9.7560997245E-01   -9.7442165345E-01   -9.7323622574E-01   -9.7205367877E-01
   -9.7087400206E-01   -9.6969718517E-01   -9.6852321771E-01   -9.6735208934E-01
   -9.6618378978E-01   -9.6501830880E-01   -9.6385563619E-01   -9.6269576183E-01
   -9.6153867563E-01   -9.6038436755E-01   -9.5923282758E-01   -9.5808404579E-01
   -9.5693801228E-01   -9.5579471719E-01   -9.5465415073E-01   -9.5351630314E-01
   -9.5238116470E-01   -9.5124872576E-01   -9.5011897669E-01   -9.4899190792E-01
   -9.4786750994E-01   -9.4674577324E-01   -9.4562668840E-01   -9.4451024602E-01
   -9.4339643676E-01   -9.4228525131E-01   -9.4117668042E-01   -9.4007071485E-01
   -9.3896734545E-01   -9.3786656307E-01   -9.3676835864E-01   -9.3567272310E-01
   -9.3457964745E-01   -9.3348912274E-01   -9.3240114004E-01   -9.3131569048E-01
   -9.3023276521E-01   -9.2915235544E-01   -9.2807445243E-01   -9.2699904744E-01
   -9.2592613182E-01   -9.2485569693E-01   -9.2378773417E-01   -9.2272223498E-01
   -9.2165919086E-01   -9.2059859333E-01   -9.1954043396E-01   -9.1848470434E-01
   -9.1743139611E-01   -9.1638050096E-01   -9.1533201060E-01   -9.1428591678E-01
   -9.1324221131E-01   -9.1220088600E-01   -9.1116193273E-01   -9.1012534341E-01
   -9.0909110996E-01   -9.0805922438E-01   -9.0702967867E-01   -9.0600246488E-01
   -9.0497757511E-01   -9.0395500146E-01   -9.0293473611E-01   -9.0191677124E-01
   -9.0090109908E-01   -8.9988771190E-01   -8.9887660199E-01   -8.9786776168E-01
   -8.9686118335E-01   -8.9585685939E-01   -8.9485478223E-01   -8.9385494435E-01
   -8.9285733825E-01   -8.9186195647E-01   -8.9086879157E-01   -8.8987783615E-01
   -8.8888908286E-01   -8.8790252435E-01   -8.8691815334E-01   -8.8593596254E-01
   -8.8495594473E-01   -8.8397809271E-01   -8.8300239930E-01   -8.8202885735E-01
   -8.8105745978E-01   -8.8008819949E-01   -8.7912106944E-01   -8.7815606261E-01
   -8.7719317203E-01   -8.7623239073E-01   -8.7527371180E-01   -8.7431712834E-01
   -8.7336263349E-01   -8.7241022041E-01   -8.7145988231E-01   -8.7051161240E-01
   -8.6956540395E-01   -8.6862125024E-01   -8.6767914458E-01   -8.6673908032E-01
   -8.6580105083E-01   -8.6486504951E-01   -8.6393106979E-01   -8.6299910513E-01
   -8.6206914901E-01   -8.6114119494E-01   -8.6021523648E-01   -8.5929126718E-01
   -8.5836928065E-01   -8.5744927051E-01   -8.5653123041E-01   -8.5561515403E-01
   -8.5470103508E-01   -8.5378886729E-01   -8.5287864441E-01   -8.5197036025E-01
   -8.5106400860E-01   -8.5015958330E-01   -8.4925707823E-01   -8.4835648728E-01
   -8.4745780435E-01   -8.4656102340E-01   -8.4566613839E-01   -8.4477314331E-01
   -8.4388203219E-01   -8.4299279906E-01   -8.4210543801E-01   -8.4121994312E-01
   -8.4033630851E-01   -8.3945452833E-01   -8.3857459674E-01   -8.3769650794E-01
   -8.3682025614E-01   -8.3594583559E-01   -8.3507324056E-01   -8.3420246532E-01
   -8.3333350420E-01   -8.3246635152E-01   -8.3160100166E-01   -8.3073744900E-01
   -8.2987568793E-01   -8.2901571290E-01   -8.2815751835E-01   -8.2730109877E-01
   -8.2644644865E-01   -8.2559356251E-01   -8.2474243489E-01   -8.2389306037E-01
   -8.2304543354E-01   -8.2219954900E-01   -8.2135540138E-01   -8.2051298535E-01
   -8.1967229559E-01   -8.1883332678E-01   -8.1799607366E-01   -8.1716053096E-01
   -8.1632669344E-01   -8.1549455591E-01   -8.1466411315E-01   -8.1383536000E-01
   -8.1300829131E-01   -8.1218290194E-01   -8.1135918679E-01   -8.1053714077E-01
   -8.0971675881E-01   -8.0889803586E-01   -8.0808096690E-01   -8.0726554691E-01
   -8.0645177092E-01   -8.0563963395E-01   -8.0482913105E-01   -8.0402025731E-01
   -8.0321300782E-01   -8.0240737768E-01   -8.0160336202E-01   -8.0080095601E-01
   -8.0000015481E-01   -7.9920095361E-01   -7.9840334763E-01   -7.9760733208E-01
   -7.9681290222E-01   -7.9602005331E-01   -7.9522878065E-01   -7.9443907953E-01
   -7.9365094527E-01   -7.9286437323E-01   -7.9207935875E-01   -7.9129589722E-01
   -7.9051398403E-01   -7.8973361460E-01   -7.8895478435E-01   -7.8817748875E-01
   -7.8740172326E-01   -7.8662748336E-01   -7.8585476456E-01   -7.8508356238E-01
   -7.8431387237E-01   -7.8354569007E-01   -7.8277901106E-01   -7.8201383094E-01
   -7.8125014530E-01   -7.8048794979E-01   -7.7972724004E-01   -7.7896801171E-01
   -7.7821026047E-01   -7.7745398203E-01   -7.7669917208E-01   -7.7594582637E-01
   -7.7519394063E-01   -7.7444351062E-01   -7.7369453212E-01   -7.7294700092E-01
   -7.7220091283E-01   -7.7145626367E-01   -7.7071304930E-01   -7.6997126555E-01
   -7.6923090831E-01   -7.6849197347E-01   -7.6775445693E-01   -7.6701835461E-01
   -7.6628366245E-01   -7.6555037640E-01   -7.6481849242E-01   -7.6408800650E-01
   -7.6335891464E-01   -7.6263121285E-01   -7.6190489716E-01   -7.6117996361E-01
   -7.6045640826E-01   -7.5973422719E-01   -7.5901341647E-01   -7.5829397222E-01
   -7.5757589056E-01   -7.5685916761E-01   -7.5614379953E-01   -7.5542978247E-01
   -7.5471711261E-01   -7.5400578615E-01   -7.5329579928E-01   -7.5258714823E-01
   -7.5187982924E-01   -7.5117383853E-01   -7.5046917240E-01   -7.4976582709E-01
   -7.4906379891E-01   -7.4836308417E-01   -7.4766367916E-01   -7.4696558024E-01
   -7.4626878374E-01   -7.4557328602E-01   -7.4487908346E-01   -7.4418617244E-01
   -7.4349454935E-01   -7.4280421062E-01   -7.4211515266E-01   -7.4142737192E-01
   -7.4074086484E-01   -7.4005562790E-01   -7.3937165758E-01   -7.3868895035E-01
   -7.3800750273E-01   -7.3732731124E-01   -7.3664837240E-01   -7.3597068276E-01
   -7.3529423887E-01   -7.3461903730E-01   -7.3394507464E-01   -7.3327234747E-01
   -7.3260085240E-01   -7.3193058605E-01   -7.3126154505E-01   -7.3059372604E-01
   -7.2992712568E-01   -7.2926174064E-01   -7.2859756759E-01   -7.2793460322E-01
   -7.2727284425E-01   -7.2661228738E-01   -7.2595292935E-01   -7.2529476688E-01
   -7.2463779674E-01   -7.2398201569E-01   -7.2332742050E-01   -7.2267400795E-01
   -7.2202177485E-01   -7.2137071801E-01   -7.2072083423E-01   -7.2007212037E-01
   -7.1942457326E-01   -7.1877818976E-01   -7.1813296673E-01   -7.1748890105E-01
   -7.1684598961E-01   -7.1620422930E-01   -7.1556361705E-01   -7.1492414978E-01
   -7.1428582441E-01   -7.1364863788E-01   -7.1301258717E-01   -7.1237766922E-01
   -7.1174388102E-01   -7.1111121956E-01   -7.1047968183E-01   -7.0984926484E-01
   -7.0921996561E-01   -7.0859178117E-01   -7.0796470857E-01   -7.0733874484E-01
   -7.0671388706E-01   -7.0609013229E-01   -7.0546747762E-01   -7.0484592014E-01
   -7.0422545695E-01   -7.0360608516E-01   -7.0298780190E-01   -7.0237060431E-01
   -7.0175448951E-01   -7.0113945467E-01   -7.0052549695E-01   -6.9991261352E-01
   -6.9930080156E-01   -6.9869005828E-01   -6.9808038086E-01   -6.9747176652E-01
   -6.9686421249E-01   -6.9625771600E-01   -6.9565227428E-01   -6.9504788459E-01
   -6.9444454418E-01   -6.9384225034E-01   -6.9324100033E-01   -6.9264079144E-01
   -6.9204162098E-01   -6.9144348626E-01   -6.9084638457E-01   -6.9025031327E-01
   -6.8965526967E-01   -6.8906125113E-01   -6.8846825499E-01   -6.8787627863E-01
   -6.8728531940E-01   -6.8669537470E-01   -6.8610644191E-01   -6.8551851843E-01
   -6.8493160167E-01   -6.8434568905E-01   -6.8376077799E-01   -6.8317686591E-01
   -6.8259395028E-01   -6.8201202854E-01   -6.8143109814E-01   -6.8085115656E-01
   -6.8027220128E-01   -6.7969422978E-01   -6.7911723956E-01   -6.7854122811E-01
   -6.7796619296E-01   -6.7739213162E-01   -6.7681904161E-01   -6.7624692048E-01
   -6.7567576578E-01   -6.7510557504E-01   -6.7453634585E-01   -6.7396807576E-01
   -6.7340076235E-01   -6.7283440321E-01   -6.7226899594E-01   -6.7170453813E-01
   -6.7114102740E-01   -6.7057846137E-01   -6.7001683766E-01   -6.6945615391E-01
   -6.6889640775E-01   -6.6833759684E-01   -6.6777971884E-01   -6.6722277141E-01
   -6.6666675223E-01   -6.6611165897E-01   -6.6555748933E-01   -6.6500424101E-01
   -6.6445191170E-01   -6.6390049912E-01   -6.6335000099E-01   -6.6280041503E-01
   -6.6225173899E-01   -6.6170397060E-01   -6.6115710761E-01   -6.6061114778E-01
   -6.6006608888E-01   -6.5952192867E-01   -6.5897866494E-01   -6.5843629547E-01
   -6.5789481805E-01   -6.5735423049E-01   -6.5681453059E-01   -6.5627571618E-01
   -6.5573778507E-01   -6.5520073508E-01   -6.5466456407E-01   -6.5412926988E-01
   -6.5359485034E-01   -6.5306130333E-01   -6.5252862670E-01   -6.5199681834E-01
   -6.5146587611E-01   -6.5093579790E-01   -6.5040658161E-01   -6.4987822514E-01
   -6.4935072639E-01   -6.4882408327E-01   -6.4829829371E-01   -6.4777335563E-01
   -6.4724926696E-01   -6.4672602565E-01   -6.4620362964E-01   -6.4568207688E-01
   -6.4516136534E-01   -6.4464149298E-01   -6.4412245777E-01   -6.4360425770E-01
   -6.4308689075E-01   -6.4257035490E-01   -6.4205464817E-01   -6.4153976856E-01
   -6.4102571407E-01   -6.4051248273E-01   -6.4000007256E-01   -6.3948848159E-01
   -6.3897770786E-01   -6.3846774941E-01   -6.3795860429E-01   -6.3745027056E-01
   -6.3694274627E-01   -6.3643602951E-01   -6.3593011833E-01   -6.3542501083E-01
   -6.3492070509E-01   -6.3441719919E-01   -6.3391449125E-01   -6.3341257936E-01
   -6.3291146163E-01   -6.3241113619E-01   -6.3191160115E-01   -6.3141285464E-01
   -6.3091489480E-01   -6.3041771976E-01   -6.2992132768E-01   -6.2942571671E-01
   -6.2893088499E-01   -6.2843683071E-01   -6.2794355202E-01   -6.2745104710E-01
   -6.2695931413E-01   -6.2646835130E-01   -6.2597815680E-01   -6.2548872882E-01
   -6.2500006558E-01   -6.2451216528E-01   -6.2402502614E-01   -6.2353864637E-01
   -6.2305302420E-01   -6.2256815786E-01   -6.2208404560E-01   -6.2160068564E-01
   -6.2111807624E-01   -6.2063621566E-01   -6.2015510215E-01   -6.1967473397E-01
   -6.1919510940E-01   -6.1871622670E-01   -6.1823808417E-01   -6.1776068008E-01
   -6.1728401272E-01   -6.1680808040E-01   -6.1633288140E-01   -6.1585841405E-01
   -6.1538467664E-01   -6.1491166751E-01   -6.1443938496E-01   -6.1396782732E-01
   -6.1349699294E-01   -6.1302688014E-01   -6.1255748727E-01   -6.1208881267E-01
   -6.1162085471E-01   -6.1115361173E-01   -6.1068708209E-01   -6.1022126418E-01
   -6.0975615635E-01   -6.0929175698E-01   -6.0882806447E-01   -6.0836507719E-01
   -6.0790279354E-01   -6.0744121192E-01   -6.0698033072E-01   -6.0652014836E-01
   -6.0606066325E-01   -6.0560187380E-01   -6.0514377843E-01   -6.0468637557E-01
   -6.0422966365E-01   -6.0377364111E-01   -6.0331830639E-01   -6.0286365793E-01
   -6.0240969418E-01   -6.0195641360E-01   -6.0150381464E-01   -6.0105189577E-01
   -6.0060065546E-01   -6.0015009218E-01   -5.9970020441E-01   -5.9925099062E-01
   -5.9880244931E-01   -5.9835457897E-01   -5.9790737809E-01   -5.9746084518E-01
   -5.9701497873E-01   -5.9656977726E-01   -5.9612523927E-01   -5.9568136330E-01
   -5.9523814786E-01   -5.9479559147E-01   -5.9435369267E-01   -5.9391244999E-01
   -5.9347186198E-01   -5.9303192717E-01   -5.9259264412E-01   -5.9215401138E-01
   -5.9171602750E-01   -5.9127869105E-01   -5.9084200059E-01   -5.9040595469E-01
  </PP_LOCAL>
 <PP_NONLOCAL>
   <PP_BETA.1
       type="real"
       size="1356"
       columns="4"
       index="1"
       angular_momentum="0"
       cutoff_radius_index=" 192"
       cutoff_radius="    1.9100000000E+00" >
    1.5165313449E-11    6.5164881506E-02    1.3020941810E-01    1.9501353621E-01
    2.5945770455E-01    3.2342320430E-01    3.8679239805E-01    4.4944899723E-01
    5.1127832737E-01    5.7216759108E-01    6.3200612785E-01    6.9068567060E-01
    7.4810059821E-01    8.0414818346E-01    8.5872883608E-01    9.1174633992E-01
    9.6310808400E-01    1.0127252864E+00    1.0605132109E+00    1.1063913747E+00
    1.1502837476E+00    1.1921189413E+00    1.2318303880E+00    1.2693565078E+00
    1.3046408643E+00    1.3376323072E+00    1.3682851015E+00    1.3965590427E+00
    1.4224195567E+00    1.4458377848E+00    1.4667906522E+00    1.4852609198E+00
    1.5012372192E+00    1.5147140697E+00    1.5256918774E+00    1.5341769168E+00
    1.5401812923E+00    1.5437228829E+00    1.5448252671E+00    1.5435176297E+00
    1.5398346499E+00    1.5338163711E+00    1.5255080539E+00    1.5149600103E+00
    1.5022274217E+00    1.4873701415E+00    1.4704524806E+00    1.4515429802E+00
    1.4307141694E+00    1.4080423113E+00    1.3836071370E+00    1.3574915696E+00
    1.3297814384E+00    1.3005651865E+00    1.2699335708E+00    1.2379793571E+00
    1.2047970125E+00    1.1704823938E+00    1.1351324367E+00    1.0988448445E+00
    1.0617177794E+00    1.0238495566E+00    9.8533834394E-01    9.4628186686E-01
    9.0677712108E-01    8.6692009370E-01    8.2680549393E-01    7.8652649454E-01
    7.4617448496E-01    7.0583883697E-01    6.6560668362E-01    6.2556271222E-01
    5.8578897189E-01    5.4636469610E-01    5.0736614063E-01    4.6886643723E-01
    4.3093546295E-01    3.9363972543E-01    3.5704226387E-01    3.2120256562E-01
    2.8617649816E-01    2.5201625603E-01    2.1877032238E-01    1.8648344455E-01
    1.5519662321E-01    1.2494711433E-01    9.5768443372E-02    6.7690430978E-02
    4.0739229319E-02    1.4937368435E-02   -9.6961882895E-03   -3.3145980319E-02
   -5.5399978594E-02   -7.6449507407E-02   -9.6289160282E-02   -1.1491671060E-01
   -1.3233301766E-01   -1.4854192893E-01   -1.6355017894E-01   -1.7736728557E-01
   -1.9000544417E-01   -2.0147941995E-01   -2.1180643912E-01   -2.2100607906E-01
   -2.2910015783E-01   -2.3611262328E-01   -2.4206944193E-01   -2.4699848763E-01
   -2.5092943024E-01   -2.5389362428E-01   -2.5592399741E-01   -2.5705493893E-01
   -2.5732218801E-01   -2.5676272160E-01   -2.5541464196E-01   -2.5331706358E-01
   -2.5050999940E-01   -2.4703424622E-01   -2.4293126910E-01   -2.3824308475E-01
   -2.3301214373E-01   -2.2728121149E-01   -2.2109324821E-01   -2.1449128746E-01
   -2.0751831377E-01   -2.0021713929E-01   -1.9263027958E-01   -1.8479982898E-01
   -1.7676733566E-01   -1.6857367678E-01   -1.6025893426E-01   -1.5186227140E-01
   -1.4342181112E-01   -1.3497451621E-01   -1.2655607222E-01   -1.1820077377E-01
   -1.0994141478E-01   -1.0180918339E-01   -9.3833562440E-02   -8.6042235960E-02
   -7.8461002698E-02   -7.1113697227E-02   -6.4022119427E-02   -5.7205973026E-02
   -5.0682813842E-02   -4.4468008357E-02   -3.8574703172E-02   -3.3013805859E-02
   -2.7793977625E-02   -2.2921638157E-02   -1.8400982925E-02   -1.4234012983E-02
   -1.0420578653E-02   -6.9584374520E-03   -3.8433146163E-03   -1.0689717350E-03
    1.3727115035E-03    3.4916427174E-03    5.2994100889E-03    6.8091642456E-03
    8.0354896293E-03    8.9942663020E-03    9.7025232092E-03    1.0178284001E-02
    1.0440406571E-02    1.0508417544E-02    1.0402342984E-02    1.0142536635E-02
    9.7495070619E-03    9.2437450435E-03    8.6455526031E-03    7.9748750612E-03
    7.2511374629E-03    6.4930867239E-03    5.7186407904E-03    4.9447459849E-03
    4.1872442019E-03    3.4607427541E-03    2.7784759865E-03    2.1522852000E-03
    1.5925089360E-03    1.1078874030E-03    7.0550950005E-04    3.9088629522E-04
    1.6678845470E-04    3.8323978620E-05   -1.3089464527E-06   -5.1243237378E-08
    2.6775515145E-07   -9.4623110563E-08    8.9316537268E-13    0.0000000000E+00
 0. 0. 0. 0.
 0. 0. 0. 0.
 0. 0. 0. 0.
 0. 0. 0. 0.
 0. 0. 0. 0.
 0. 0. 0. 0.
 0. 0. 0. 0.
 0. 0. 0. 0.
 0. 0. 0. 0.
 0. 0. 0. 0.
 0. 0. 0. 0.
 0. 0. 0. 0.
 0. 0. 0. 0.
 0. 0. 0. 0.
 0. 0. 0. 0.
 0. 0. 0. 0.
 0. 0. 0. 0.
 0. 0. 0. 0.
 0. 0. 0. 0.
 0. 0. 0. 0.
 0. 0. 0. 0.
 0. 0. 0. 0.
 0. 0. 0. 0.
 0. 0. 0. 0.
 0. 0. 0. 0.
 0. 0. 0. 0.
 0. 0. 0. 0.
 0. 0. 0. 0.
 0. 0. 0. 0.
 0. 0. 0. 0.
 0. 0. 0. 0.
 0. 0. 0. 0.
 0. 0. 0. 0.
 0. 0. 0. 0.
 0. 0. 0. 0.
 0. 0. 0. 0.
 0. 0. 0. 0.
 0. 0. 0. 0.
 0. 0. 0. 0.
 0. 0. 0. 0.
 0. 0. 0. 0.
 0. 0. 0. 0.
 0. 0. 0. 0.
 0. 0. 0. 0.
 0. 0. 0. 0.
 0. 0. 0. 0.
 0. 0. 0. 0.
 0. 0. 0. 0.
 0. 0. 0. 0.
 0. 0. 0. 0.
 0. 0. 0. 0.
 0. 0. 0. 0.
 0. 0. 0. 0.
 0. 0. 0. 0.
 0. 0. 0. 0.
 0. 0. 0. 0.
 0. 0. 0. 0.
 0. 0. 0. 0.
 0. 0. 0. 0.
 0. 0. 0. 0.
 0. 0. 0. 0.
 0. 0. 0. 0.
 0. 0. 0. 0.
 0. 0. 0. 0.
 0. 0. 0. 0.
 0. 0. 0. 0.
 0. 0. 0. 0.
 0. 0. 0. 0.
 0. 0. 0. 0.
 0. 0. 0. 0.
 0. 0. 0. 0.
 0. 0. 0. 0.
 0. 0. 0. 0.
 0. 0. 0. 0.
 0. 0. 0. 0.
 0. 0. 0. 0.
 0. 0. 0. 0.
 0. 0. 0. 0.
 0. 0. 0. 0.
 0. 0. 0. 0.
 0. 0. 0. 0.
 0. 0. 0. 0.
 0. 0. 0. 0.
 0. 0. 0. 0.
 0. 0. 0. 0.
 0. 0. 0. 0.
 0. 0. 0. 0.
 0. 0. 0. 0.
 0. 0. 0. 0.
 0. 0. 0. 0.
 0. 0. 0. 0.
 0. 0. 0. 0.
 0. 0. 0. 0.
 0. 0. 0. 0.
 0. 0. 0. 0.
 0. 0. 0. 0.
 0. 0. 0. 0.
 0. 0. 0. 0.
 0. 0. 0. 0.
 0. 0. 0. 0.
 0. 0. 0. 0.
 0. 0. 0. 0.
 0. 0. 0. 0.
 0. 0. 0. 0.
 0. 0. 0. 0.
 0. 0. 0. 0.
 0. 0. 0. 0.
 0. 0. 0. 0.
 0. 0. 0. 0.
 0. 0. 0. 0.
 0. 0. 0. 0.
 0. 0. 0. 0.
 0. 0. 0. 0.
 0. 0. 0. 0.
 0. 0. 0. 0.
 0. 0. 0. 0.
 0. 0. 0. 0.
 0. 0. 0. 0.
 0. 0. 0. 0.
 0. 0. 0. 0.
 0. 0. 0. 0.
 0. 0. 0. 0.
 0. 0. 0. 0.
 0. 0. 0. 0.
 0. 0. 0. 0.
 0. 0. 0. 0.
 0. 0. 0. 0.
 0. 0. 0. 0.
 0. 0. 0. 0.
 0. 0. 0. 0.
 0. 0. 0. 0.
 0. 0. 0. 0.
 0. 0. 0. 0.
 0. 0. 0. 0.
 0. 0. 0. 0.
 0. 0. 0. 0.
 0. 0. 0. 0.
 0. 0. 0. 0.
 0. 0. 0. 0.
 0. 0. 0. 0.
 0. 0. 0. 0.
 0. 0. 0. 0.
 0. 0. 0. 0.
 0. 0. 0. 0.
 0. 0. 0. 0.
 0. 0. 0. 0.
 0. 0. 0. 0.
 0. 0. 0. 0.
 0. 0. 0. 0.
 0. 0. 0. 0.
 0. 0. 0. 0.
 0. 0. 0. 0.
 0. 0. 0. 0.
 0. 0. 0. 0.
 0. 0. 0. 0.
 0. 0. 0. 0.
 0. 0. 0. 0.
 0. 0. 0. 0.
 0. 0. 0. 0.
 0. 0. 0. 0.
 0. 0. 0. 0.
 0. 0. 0. 0.
 0. 0. 0. 0.
 0. 0. 0. 0.
 0. 0. 0. 0.
 0. 0. 0. 0.
 0. 0. 0. 0.
 0. 0. 0. 0.
 0. 0. 0. 0.
 0. 0. 0. 0.
 0. 0. 0. 0.
 0. 0. 0. 0.
 0. 0. 0. 0.
 0. 0. 0. 0.
 0. 0. 0. 0.
 0. 0. 0. 0.
 0. 0. 0. 0.
 0. 0. 0. 0.
 0. 0. 0. 0.
 0. 0. 0. 0.
 0. 0. 0. 0.
 0. 0. 0. 0.
 0. 0. 0. 0.
 0. 0. 0. 0.
 0. 0. 0. 0.
 0. 0. 0. 0.
 0. 0. 0. 0.
 0. 0. 0. 0.
 0. 0. 0. 0.
 0. 0. 0. 0.
 0. 0. 0. 0.
 0. 0. 0. 0.
 0. 0. 0. 0.
 0. 0. 0. 0.
 0. 0. 0. 0.
 0. 0. 0. 0.
 0. 0. 0. 0.
 0. 0. 0. 0.
 0. 0. 0. 0.
 0. 0. 0. 0.
 0. 0. 0. 0.
 0. 0. 0. 0.
 0. 0. 0. 0.
 0. 0. 0. 0.
 0. 0. 0. 0.
 0. 0. 0. 0.
 0. 0. 0. 0.
 0. 0. 0. 0.
 0. 0. 0. 0.
 0. 0. 0. 0.
 0. 0. 0. 0.
 0. 0. 0. 0.
 0. 0. 0. 0.
 0. 0. 0. 0.
 0. 0. 0. 0.
 0. 0. 0. 0.
 0. 0. 0. 0.
 0. 0. 0. 0.
 0. 0. 0. 0.
 0. 0. 0. 0.
 0. 0. 0. 0.
 0. 0. 0. 0.
 0. 0. 0. 0.
 0. 0. 0. 0.
 0. 0. 0. 0.
 0. 0. 0. 0.
 0. 0. 0. 0.
 0. 0. 0. 0.
 0. 0. 0. 0.
 0. 0. 0. 0.
 0. 0. 0. 0.
 0. 0. 0. 0.
 0. 0. 0. 0.
 0. 0. 0. 0.
 0. 0. 0. 0.
 0. 0. 0. 0.
 0. 0. 0. 0.
 0. 0. 0. 0.
 0. 0. 0. 0.
 0. 0. 0. 0.
 0. 0. 0. 0.
 0. 0. 0. 0.
 0. 0. 0. 0.
 0. 0. 0. 0.
 0. 0. 0. 0.
 0. 0. 0. 0.
 0. 0. 0. 0.
 0. 0. 0. 0.
 0. 0. 0. 0.
 0. 0. 0. 0.
 0. 0. 0. 0.
 0. 0. 0. 0.
 0. 0. 0. 0.
 0. 0. 0. 0.
 0. 0. 0. 0.
 0. 0. 0. 0.
 0. 0. 0. 0.
 0. 0. 0. 0.
 0. 0. 0. 0.
 0. 0. 0. 0.
 0. 0. 0. 0.
 0. 0. 0. 0.
 0. 0. 0. 0.
 0. 0. 0. 0.
 0. 0. 0. 0.
 0. 0. 0. 0.
 0. 0. 0. 0.
 0. 0. 0. 0.
 0. 0. 0. 0.
 0. 0. 0. 0.
 0. 0. 0. 0.
 0. 0. 0. 0.
 0. 0. 0. 0.
 0. 0. 0. 0.
 0. 0. 0. 0.
 0. 0. 0. 0.
 0. 0. 0. 0.
 0. 0. 0. 0.
 0. 0. 0. 0.
 0. 0. 0. 0.
 0. 0. 0. 0.
 0. 0. 0. 0.
 0. 0. 0. 0.
 0. 0. 0. 0.
 0. 0. 0. 0.
 0. 0. 0. 0.
 0. 0. 0. 0.
 0. 0. 0. 0.
 0. 0. 0. 0.
 0. 0. 0. 0.
 0. 0. 0. 0.
   </PP_BETA.1>
   <PP_BETA.2
       type="real"
       size="1356"
       columns="4"
       index="2"
       angular_momentum="0"
       cutoff_radius_index=" 192"
       cutoff_radius="    1.9100000000E+00" >
   -8.5977280850E-11   -3.5156856595E-02   -7.0173383352E-02   -1.0490960888E-01
   -1.3922627905E-01   -1.7298521651E-01   -2.0604968124E-01   -2.3828473230E-01
   -2.6955759098E-01   -2.9973800543E-01   -3.2869861657E-01   -3.5631532517E-01
   -3.8246765968E-01   -4.0703914434E-01   -4.2991766677E-01   -4.5099584425E-01
   -4.7017138763E-01   -4.8734746157E-01   -5.0243303991E-01   -5.1534325426E-01
   -5.2599973446E-01   -5.3433093884E-01   -5.4027247223E-01   -5.4376738988E-01
   -5.4476648475E-01   -5.4322855619E-01   -5.3912065759E-01   -5.3241832065E-01
   -5.2310575398E-01   -5.1117601385E-01   -4.9663114472E-01   -4.7948228754E-01
   -4.5974975389E-01   -4.3746306397E-01   -4.1266094692E-01   -3.8539130205E-01
   -3.5571111966E-01   -3.2368636054E-01   -2.8939179363E-01   -2.5291079118E-01
   -2.1433508161E-01   -1.7376446012E-01   -1.3130645777E-01   -8.7075969881E-02
   -4.1194845013E-02    6.2085639011E-03    5.4999884316E-02    1.0503924254E-01
    1.5618181332E-01    2.0827839779E-01    2.6117602665E-01    3.1471858513E-01
    3.6874745648E-01    4.2310217983E-01    4.7762111890E-01    5.3214213725E-01
    5.8650327614E-01    6.4054343065E-01    6.9410302006E-01    7.4702464816E-01
    7.9915374957E-01    8.5033921776E-01    9.0043401132E-01    9.4929573440E-01
    9.9678718801E-01    1.0427768890E+00    1.0871395534E+00    1.1297565420E+00
    1.1705162653E+00    1.2093145456E+00    1.2460549358E+00    1.2806489917E+00
    1.3130164988E+00    1.3430856513E+00    1.3707931852E+00    1.3960844631E+00
    1.4189135142E+00    1.4392430280E+00    1.4570443047E+00    1.4722971632E+00
    1.4849898090E+00    1.4951186638E+00    1.5026881603E+00    1.5077105036E+00
    1.5102054034E+00    1.5101997796E+00    1.5077274446E+00    1.5028287654E+00
    1.4955503089E+00    1.4859444753E+00    1.4740691196E+00    1.4599871688E+00
    1.4437662340E+00    1.4254782235E+00    1.4051989583E+00    1.3830077927E+00
    1.3589872436E+00    1.3332226294E+00    1.3058017214E+00    1.2768144095E+00
    1.2463523831E+00    1.2145088283E+00    1.1813781430E+00    1.1470556697E+00
    1.1116374465E+00    1.0752199763E+00    1.0379000134E+00    9.9977436742E-01
    9.6093972365E-01    9.2149247811E-01    8.8152858661E-01    8.4114342603E-01
    8.0043166628E-01    7.5948715107E-01    7.1840278578E-01    6.7727043035E-01
    6.3618079545E-01    5.9522333992E-01    5.5448616759E-01    5.1405592188E-01
    4.7401767637E-01    4.3445481989E-01    3.9544893485E-01    3.5707966764E-01
    3.1942459020E-01    2.8255905218E-01    2.4655602317E-01    2.1148592504E-01
    1.7741645445E-01    1.4441239600E-01    1.1253542688E-01    8.1843913833E-02
    5.2392703965E-02    2.4232910867E-02   -2.5883021246E-03   -2.8027939438E-02
   -5.2047389292E-02   -7.4612635797E-02   -9.5694464515E-02   -1.1526865878E-01
   -1.3331618394E-01   -1.4982335673E-01   -1.6478199681E-01   -1.7818955775E-01
   -1.9004923459E-01   -2.0037004537E-01   -2.0916688403E-01   -2.1646054254E-01
   -2.2227769983E-01   -2.2665087594E-01   -2.2961834959E-01   -2.3122403855E-01
   -2.3151733615E-01   -2.3055290147E-01   -2.2839045535E-01   -2.2509455543E-01
   -2.2073432697E-01   -2.1538314977E-01   -2.0911830349E-01   -2.0202057399E-01
   -1.9417382338E-01   -1.8566452702E-01   -1.7658128080E-01   -1.6701428248E-01
   -1.5705479084E-01   -1.4679456702E-01   -1.3632530228E-01   -1.2573803684E-01
   -1.1512257436E-01   -1.0456689708E-01   -9.4156586252E-02   -8.3974252890E-02
   -7.4098983623E-02   -6.4605806474E-02   -5.5565181108E-02   -4.7042518995E-02
   -3.9097732011E-02   -3.1784908158E-02   -2.5152213181E-02   -1.9240706688E-02
   -1.4084383571E-02   -9.7102247482E-03   -6.1379735377E-03   -3.3810076820E-03
   -1.4365252179E-03   -3.2913783675E-04    1.1219004183E-05    4.3864337481E-07
   -2.2946565227E-06    8.1307285409E-07   -5.0037307681E-12    0.0000000000E+00
 0. 0. 0. 0.
 0. 0. 0. 0.
 0. 0. 0. 0.
 0. 0. 0. 0.
 0. 0. 0. 0.
 0. 0. 0. 0.
 0. 0. 0. 0.
 0. 0. 0. 0.
 0. 0. 0. 0.
 0. 0. 0. 0.
 0. 0. 0. 0.
 0. 0. 0. 0.
 0. 0. 0. 0.
 0. 0. 0. 0.
 0. 0. 0. 0.
 0. 0. 0. 0.
 0. 0. 0. 0.
 0. 0. 0. 0.
 0. 0. 0. 0.
 0. 0. 0. 0.
 0. 0. 0. 0.
 0. 0. 0. 0.
 0. 0. 0. 0.
 0. 0. 0. 0.
 0. 0. 0. 0.
 0. 0. 0. 0.
 0. 0. 0. 0.
 0. 0. 0. 0.
 0. 0. 0. 0.
 0. 0. 0. 0.
 0. 0. 0. 0.
 0. 0. 0. 0.
 0. 0. 0. 0.
 0. 0. 0. 0.
 0. 0. 0. 0.
 0. 0. 0. 0.
 0. 0. 0. 0.
 0. 0. 0. 0.
 0. 0. 0. 0.
 0. 0. 0. 0.
 0. 0. 0. 0.
 0. 0. 0. 0.
 0. 0. 0. 0.
 0. 0. 0. 0.
 0. 0. 0. 0.
 0. 0. 0. 0.
 0. 0. 0. 0.
 0. 0. 0. 0.
 0. 0. 0. 0.
 0. 0. 0. 0.
 0. 0. 0. 0.
 0. 0. 0. 0.
 0. 0. 0. 0.
 0. 0. 0. 0.
 0. 0. 0. 0.
 0. 0. 0. 0.
 0. 0. 0. 0.
 0. 0. 0. 0.
 0. 0. 0. 0.
 0. 0. 0. 0.
 0. 0. 0. 0.
 0. 0. 0. 0.
 0. 0. 0. 0.
 0. 0. 0. 0.
 0. 0. 0. 0.
 0. 0. 0. 0.
 0. 0. 0. 0.
 0. 0. 0. 0.
 0. 0. 0. 0.
 0. 0. 0. 0.
 0. 0. 0. 0.
 0. 0. 0. 0.
 0. 0. 0. 0.
 0. 0. 0. 0.
 0. 0. 0. 0.
 0. 0. 0. 0.
 0. 0. 0. 0.
 0. 0. 0. 0.
 0. 0. 0. 0.
 0. 0. 0. 0.
 0. 0. 0. 0.
 0. 0. 0. 0.
 0. 0. 0. 0.
 0. 0. 0. 0.
 0. 0. 0. 0.
 0. 0. 0. 0.
 0. 0. 0. 0.
 0. 0. 0. 0.
 0. 0. 0. 0.
 0. 0. 0. 0.
 0. 0. 0. 0.
 0. 0. 0. 0.
 0. 0. 0. 0.
 0. 0. 0. 0.
 0. 0. 0. 0.
 0. 0. 0. 0.
 0. 0. 0. 0.
 0. 0. 0. 0.
 0. 0. 0. 0.
 0. 0. 0. 0.
 0. 0. 0. 0.
 0. 0. 0. 0.
 0. 0. 0. 0.
 0. 0. 0. 0.
 0. 0. 0. 0.
 0. 0. 0. 0.
 0. 0. 0. 0.
 0. 0. 0. 0.
 0. 0. 0. 0.
 0. 0. 0. 0.
 0. 0. 0. 0.
 0. 0. 0. 0.
 0. 0. 0. 0.
 0. 0. 0. 0.
 0. 0. 0. 0.
 0. 0. 0. 0.
 0. 0. 0. 0.
 0. 0. 0. 0.
 0. 0. 0. 0.
 0. 0. 0. 0.
 0. 0. 0. 0.
 0. 0. 0. 0.
 0. 0. 0. 0.
 0. 0. 0. 0.
 0. 0. 0. 0.
 0. 0. 0. 0.
 0. 0. 0. 0.
 0. 0. 0. 0.
 0. 0. 0. 0.
 0. 0. 0. 0.
 0. 0. 0. 0.
 0. 0. 0. 0.
 0. 0. 0. 0.
 0. 0. 0. 0.
 0. 0. 0. 0.
 0. 0. 0. 0.
 0. 0. 0. 0.
 0. 0. 0. 0.
 0. 0. 0. 0.
 0. 0. 0. 0.
 0. 0. 0. 0.
 0. 0. 0. 0.
 0. 0. 0. 0.
 0. 0. 0. 0.
 0. 0. 0. 0.
 0. 0. 0. 0.
 0. 0. 0. 0.
 0. 0. 0. 0.
 0. 0. 0. 0.
 0. 0. 0. 0.
 0. 0. 0. 0.
 0. 0. 0. 0.
 0. 0. 0. 0.
 0. 0. 0. 0.
 0. 0. 0. 0.
 0. 0. 0. 0.
 0. 0. 0. 0.
 0. 0. 0. 0.
 0. 0. 0. 0.
 0. 0. 0. 0.
 0. 0. 0. 0.
 0. 0. 0. 0.
 0. 0. 0. 0.
 0. 0. 0. 0.
 0. 0. 0. 0.
 0. 0. 0. 0.
 0. 0. 0. 0.
 0. 0. 0. 0.
 0. 0. 0. 0.
 0. 0. 0. 0.
 0. 0. 0. 0.
 0. 0. 0. 0.
 0. 0. 0. 0.
 0. 0. 0. 0.
 0. 0. 0. 0.
 0. 0. 0. 0.
 0. 0. 0. 0.
 0. 0. 0. 0.
 0. 0. 0. 0.
 0. 0. 0. 0.
 0. 0. 0. 0.
 0. 0. 0. 0.
 0. 0. 0. 0.
 0. 0. 0. 0.
 0. 0. 0. 0.
 0. 0. 0. 0.
 0. 0. 0. 0.
 0. 0. 0. 0.
 0. 0. 0. 0.
 0. 0. 0. 0.
 0. 0. 0. 0.
 0. 0. 0. 0.
 0. 0. 0. 0.
 0. 0. 0. 0.
 0. 0. 0. 0.
 0. 0. 0. 0.
 0. 0. 0. 0.
 0. 0. 0. 0.
 0. 0. 0. 0.
 0. 0. 0. 0.
 0. 0. 0. 0.
 0. 0. 0. 0.
 0. 0. 0. 0.
 0. 0. 0. 0.
 0. 0. 0. 0.
 0. 0. 0. 0.
 0. 0. 0. 0.
 0. 0. 0. 0.
 0. 0. 0. 0.
 0. 0. 0. 0.
 0. 0. 0. 0.
 0. 0. 0. 0.
 0. 0. 0. 0.
 0. 0. 0. 0.
 0. 0. 0. 0.
 0. 0. 0. 0.
 0. 0. 0. 0.
 0. 0. 0. 0.
 0. 0. 0. 0.
 0. 0. 0. 0.
 0. 0. 0. 0.
 0. 0. 0. 0.
 0. 0. 0. 0.
 0. 0. 0. 0.
 0. 0. 0. 0.
 0. 0. 0. 0.
 0. 0. 0. 0.
 0. 0. 0. 0.
 0. 0. 0. 0.
 0. 0. 0. 0.
 0. 0. 0. 0.
 0. 0. 0. 0.
 0. 0. 0. 0.
 0. 0. 0. 0.
 0. 0. 0. 0.
 0. 0. 0. 0.
 0. 0. 0. 0.
 0. 0. 0. 0.
 0. 0. 0. 0.
 0. 0. 0. 0.
 0. 0. 0. 0.
 0. 0. 0. 0.
 0. 0. 0. 0.
 0. 0. 0. 0.
 0. 0. 0. 0.
 0. 0. 0. 0.
 0. 0. 0. 0.
 0. 0. 0. 0.
 0. 0. 0. 0.
 0. 0. 0. 0.
 0. 0. 0. 0.
 0. 0. 0. 0.
 0. 0. 0. 0.
 0. 0. 0. 0.
 0. 0. 0. 0.
 0. 0. 0. 0.
 0. 0. 0. 0.
 0. 0. 0. 0.
 0. 0. 0. 0.
 0. 0. 0. 0.
 0. 0. 0. 0.
 0. 0. 0. 0.
 0. 0. 0. 0.
 0. 0. 0. 0.
 0. 0. 0. 0.
 0. 0. 0. 0.
 0. 0. 0. 0.
 0. 0. 0. 0.
 0. 0. 0. 0.
 0. 0. 0. 0.
 0. 0. 0. 0.
 0. 0. 0. 0.
 0. 0. 0. 0.
 0. 0. 0. 0.
 0. 0. 0. 0.
 0. 0. 0. 0.
 0. 0. 0. 0.
 0. 0. 0. 0.
 0. 0. 0. 0.
 0. 0. 0. 0.
 0. 0. 0. 0.
 0. 0. 0. 0.
 0. 0. 0. 0.
 0. 0. 0. 0.
 0. 0. 0. 0.
 0. 0. 0. 0.
 0. 0. 0. 0.
 0. 0. 0. 0.
 0. 0. 0. 0.
 0. 0. 0. 0.
 0. 0. 0. 0.
   </PP_BETA.2>
   <PP_BETA.3
       type="real"
       size="1356"
       columns="4"
       index="3"
       angular_momentum="1"
       cutoff_radius_index=" 192"
       cutoff_radius="    1.9100000000E+00" >
   -6.6656236052E-09   -3.6733865216E-04   -1.4665762654E-03   -3.2895101872E-03
   -5.8229064226E-03   -9.0491408033E-03   -1.2947068067E-02   -1.7493091174E-02
   -2.2662396526E-02   -2.8430314971E-02   -3.4773763749E-02   -4.1672720984E-02
   -4.9111682051E-02   -5.7081046206E-02   -6.5578382352E-02   -7.4609524671E-02
   -8.4189452075E-02   -9.4342909991E-02   -1.0510473876E-01   -1.1651987982E-01
   -1.2864303857E-01   -1.4153799158E-01   -1.5527653482E-01   -1.6993707915E-01
   -1.8560290912E-01   -2.0236013057E-01   -2.2029534190E-01   -2.3949307251E-01
   -2.6003304000E-01   -2.8198728453E-01   -3.0541724455E-01   -3.3037084280E-01
   -3.5687965400E-01   -3.8495622756E-01   -4.1459163784E-01   -4.4575333294E-01
   -4.7838334903E-01   -5.1239695192E-01   -5.4768176068E-01   -5.8409739953E-01
   -6.2147571450E-01   -6.5962158045E-01   -6.9831431182E-01   -7.3730967830E-01
   -7.7634251304E-01   -8.1512988787E-01   -8.5337481696E-01   -8.9077043715E-01
   -9.2700460116E-01   -9.6176480867E-01   -9.9474339010E-01   -1.0256428493E+00
   -1.0541812645E+00   -1.0800976419E+00   -1.1031571125E+00   -1.1231558637E+00
   -1.1399256957E+00   -1.1533380989E+00   -1.1633077535E+00   -1.1697953593E+00
   -1.1728097162E+00   -1.1724089851E+00   -1.1687010758E+00   -1.1618431209E+00
   -1.1520400137E+00   -1.1395420038E+00   -1.1246413631E+00   -1.1076681542E+00
   -1.0889851498E+00   -1.0689819707E+00   -1.0480685273E+00   -1.0266678659E+00
   -1.0052085334E+00   -9.8411659009E-01   -9.6380740783E-01   -9.4467740140E-01
   -9.2709584462E-01   -9.1139692718E-01   -8.9787220751E-01   -8.8676361420E-01
   -8.7825714263E-01   -8.7247738488E-01   -8.6948301921E-01   -8.6926337129E-01
   -8.7173614254E-01   -8.7674638235E-01   -8.8406675979E-01   -8.9339916857E-01
   -9.0437767510E-01   -9.1657279581E-01   -9.2949706488E-01   -9.4261182971E-01
   -9.5533518716E-01   -9.6705095145E-01   -9.7711852289E-01   -9.8488350759E-01
   -9.8968892131E-01   -9.9088679597E-01   -9.8784999640E-01   -9.7998404628E-01
   -9.6673875789E-01   -9.4761945893E-01   -9.2219761239E-01   -8.9012063154E-01
   -8.5112070206E-01   -8.0502243691E-01   -7.5174920594E-01   -6.9132800246E-01
   -6.2389273145E-01   -5.4968582923E-01   -4.6905815150E-01   -3.8246709532E-01
   -2.9047295043E-01   -1.9373350543E-01   -9.2996964878E-02    1.0906736830E-02
    1.1707611040E-01    2.2454963342E-01    3.3231845216E-01    4.3934007383E-01
    5.4455284026E-01    6.4689095759E-01    7.4529984414E-01    8.3875154998E-01
    9.2625999734E-01    1.0068957909E+00    1.0798003511E+00    1.1441991322E+00
    1.1994136994E+00    1.2448724564E+00    1.2801198353E+00    1.3048237833E+00
    1.3187814110E+00    1.3219226922E+00    1.3143121411E+00    1.2961484241E+00
    1.2677618965E+00    1.2296100932E+00    1.1822712325E+00    1.1264358289E+00
    1.0628965427E+00    9.9253642370E-01    9.1631573501E-01    8.3525756810E-01
    7.5043248111E-01    6.6294241043E-01    5.7390411866E-01    4.8443245133E-01
    3.9562367877E-01    3.0853919919E-01    2.2418987405E-01    1.4352125443E-01
    6.7399964264E-02   -3.3985243946E-03   -6.8200693579E-02   -1.2644410732E-01
   -1.7768463917E-01   -2.2160167796E-01   -2.5800123017E-01   -2.8681687227E-01
   -3.0810854385E-01   -3.2205920864E-01   -3.2896944769E-01   -3.2925008382E-01
   -3.2341297099E-01   -3.1206011341E-01   -2.9587130828E-01   -2.7559053138E-01
   -2.5201130695E-01   -2.2596131857E-01   -1.9828654082E-01   -1.6983515034E-01
   -1.4144124027E-01   -1.1390924389E-01   -8.8000784654E-02   -6.4418604483E-02
   -4.3793505160E-02   -2.6672863424E-02   -1.3515570506E-02   -4.6253784205E-03
   -4.9336839611E-04    1.4259118739E-04   -4.5527903323E-05    7.8614751933E-06
   -1.0004447901E-07    0.0000000000E+00    0.0000000000E+00    0.0000000000E+00
    0.0000000000E+00    0.0000000000E+00    0.0000000000E+00    0.0000000000E+00
 0. 0. 0. 0.
 0. 0. 0. 0.
 0. 0. 0. 0.
 0. 0. 0. 0.
 0. 0. 0. 0.
 0. 0. 0. 0.
 0. 0. 0. 0.
 0. 0. 0. 0.
 0. 0. 0. 0.
 0. 0. 0. 0.
 0. 0. 0. 0.
 0. 0. 0. 0.
 0. 0. 0. 0.
 0. 0. 0. 0.
 0. 0. 0. 0.
 0. 0. 0. 0.
 0. 0. 0. 0.
 0. 0. 0. 0.
 0. 0. 0. 0.
 0. 0. 0. 0.
 0. 0. 0. 0.
 0. 0. 0. 0.
 0. 0. 0. 0.
 0. 0. 0. 0.
 0. 0. 0. 0.
 0. 0. 0. 0.
 0. 0. 0. 0.
 0. 0. 0. 0.
 0. 0. 0. 0.
 0. 0. 0. 0.
 0. 0. 0. 0.
 0. 0. 0. 0.
 0. 0. 0. 0.
 0. 0. 0. 0.
 0. 0. 0. 0.
 0. 0. 0. 0.
 0. 0. 0. 0.
 0. 0. 0. 0.
 0. 0. 0. 0.
 0. 0. 0. 0.
 0. 0. 0. 0.
 0. 0. 0. 0.
 0. 0. 0. 0.
 0. 0. 0. 0.
 0. 0. 0. 0.
 0. 0. 0. 0.
 0. 0. 0. 0.
 0. 0. 0. 0.
 0. 0. 0. 0.
 0. 0. 0. 0.
 0. 0. 0. 0.
 0. 0. 0. 0.
 0. 0. 0. 0.
 0. 0. 0. 0.
 0. 0. 0. 0.
 0. 0. 0. 0.
 0. 0. 0. 0.
 0. 0. 0. 0.
 0. 0. 0. 0.
 0. 0. 0. 0.
 0. 0. 0. 0.
 0. 0. 0. 0.
 0. 0. 0. 0.
 0. 0. 0. 0.
 0. 0. 0. 0.
 0. 0. 0. 0.
 0. 0. 0. 0.
 0. 0. 0. 0.
 0. 0. 0. 0.
 0. 0. 0. 0.
 0. 0. 0. 0.
 0. 0. 0. 0.
 0. 0. 0. 0.
 0. 0. 0. 0.
 0. 0. 0. 0.
 0. 0. 0. 0.
 0. 0. 0. 0.
 0. 0. 0. 0.
 0. 0. 0. 0.
 0. 0. 0. 0.
 0. 0. 0. 0.
 0. 0. 0. 0.
 0. 0. 0. 0.
 0. 0. 0. 0.
 0. 0. 0. 0.
 0. 0. 0. 0.
 0. 0. 0. 0.
 0. 0. 0. 0.
 0. 0. 0. 0.
 0. 0. 0. 0.
 0. 0. 0. 0.
 0. 0. 0. 0.
 0. 0. 0. 0.
 0. 0. 0. 0.
 0. 0. 0. 0.
 0. 0. 0. 0.
 0. 0. 0. 0.
 0. 0. 0. 0.
 0. 0. 0. 0.
 0. 0. 0. 0.
 0. 0. 0. 0.
 0. 0. 0. 0.
 0. 0. 0. 0.
 0. 0. 0. 0.
 0. 0. 0. 0.
 0. 0. 0. 0.
 0. 0. 0. 0.
 0. 0. 0. 0.
 0. 0. 0. 0.
 0. 0. 0. 0.
 0. 0. 0. 0.
 0. 0. 0. 0.
 0. 0. 0. 0.
 0. 0. 0. 0.
 0. 0. 0. 0.
 0. 0. 0. 0.
 0. 0. 0. 0.
 0. 0. 0. 0.
 0. 0. 0. 0.
 0. 0. 0. 0.
 0. 0. 0. 0.
 0. 0. 0. 0.
 0. 0. 0. 0.
 0. 0. 0. 0.
 0. 0. 0. 0.
 0. 0. 0. 0.
 0. 0. 0. 0.
 0. 0. 0. 0.
 0. 0. 0. 0.
 0. 0. 0. 0.
 0. 0. 0. 0.
 0. 0. 0. 0.
 0. 0. 0. 0.
 0. 0. 0. 0.
 0. 0. 0. 0.
 0. 0. 0. 0.
 0. 0. 0. 0.
 0. 0. 0. 0.
 0. 0. 0. 0.
 0. 0. 0. 0.
 0. 0. 0. 0.
 0. 0. 0. 0.
 0. 0. 0. 0.
 0. 0. 0. 0.
 0. 0. 0. 0.
 0. 0. 0. 0.
 0. 0. 0. 0.
 0. 0. 0. 0.
 0. 0. 0. 0.
 0. 0. 0. 0.
 0. 0. 0. 0.
 0. 0. 0. 0.
 0. 0. 0. 0.
 0. 0. 0. 0.
 0. 0. 0. 0.
 0. 0. 0. 0.
 0. 0. 0. 0.
 0. 0. 0. 0.
 0. 0. 0. 0.
 0. 0. 0. 0.
 0. 0. 0. 0.
 0. 0. 0. 0.
 0. 0. 0. 0.
 0. 0. 0. 0.
 0. 0. 0. 0.
 0. 0. 0. 0.
 0. 0. 0. 0.
 0. 0. 0. 0.
 0. 0. 0. 0.
 0. 0. 0. 0.
 0. 0. 0. 0.
 0. 0. 0. 0.
 0. 0. 0. 0.
 0. 0. 0. 0.
 0. 0. 0. 0.
 0. 0. 0. 0.
 0. 0. 0. 0.
 0. 0. 0. 0.
 0. 0. 0. 0.
 0. 0. 0. 0.
 0. 0. 0. 0.
 0. 0. 0. 0.
 0. 0. 0. 0.
 0. 0. 0. 0.
 0. 0. 0. 0.
 0. 0. 0. 0.
 0. 0. 0. 0.
 0. 0. 0. 0.
 0. 0. 0. 0.
 0. 0. 0. 0.
 0. 0. 0. 0.
 0. 0. 0. 0.
 0. 0. 0. 0.
 0. 0. 0. 0.
 0. 0. 0. 0.
 0. 0. 0. 0.
 0. 0. 0. 0.
 0. 0. 0. 0.
 0. 0. 0. 0.
 0. 0. 0. 0.
 0. 0. 0. 0.
 0. 0. 0. 0.
 0. 0. 0. 0.
 0. 0. 0. 0.
 0. 0. 0. 0.
 0. 0. 0. 0.
 0. 0. 0. 0.
 0. 0. 0. 0.
 0. 0. 0. 0.
 0. 0. 0. 0.
 0. 0. 0. 0.
 0. 0. 0. 0.
 0. 0. 0. 0.
 0. 0. 0. 0.
 0. 0. 0. 0.
 0. 0. 0. 0.
 0. 0. 0. 0.
 0. 0. 0. 0.
 0. 0. 0. 0.
 0. 0. 0. 0.
 0. 0. 0. 0.
 0. 0. 0. 0.
 0. 0. 0. 0.
 0. 0. 0. 0.
 0. 0. 0. 0.
 0. 0. 0. 0.
 0. 0. 0. 0.
 0. 0. 0. 0.
 0. 0. 0. 0.
 0. 0. 0. 0.
 0. 0. 0. 0.
 0. 0. 0. 0.
 0. 0. 0. 0.
 0. 0. 0. 0.
 0. 0. 0. 0.
 0. 0. 0. 0.
 0. 0. 0. 0.
 0. 0. 0. 0.
 0. 0. 0. 0.
 0. 0. 0. 0.
 0. 0. 0. 0.
 0. 0. 0. 0.
 0. 0. 0. 0.
 0. 0. 0. 0.
 0. 0. 0. 0.
 0. 0. 0. 0.
 0. 0. 0. 0.
 0. 0. 0. 0.
 0. 0. 0. 0.
 0. 0. 0. 0.
 0. 0. 0. 0.
 0. 0. 0. 0.
 0. 0. 0. 0.
 0. 0. 0. 0.
 0. 0. 0. 0.
 0. 0. 0. 0.
 0. 0. 0. 0.
 0. 0. 0. 0.
 0. 0. 0. 0.
 0. 0. 0. 0.
 0. 0. 0. 0.
 0. 0. 0. 0.
 0. 0. 0. 0.
 0. 0. 0. 0.
 0. 0. 0. 0.
 0. 0. 0. 0.
 0. 0. 0. 0.
 0. 0. 0. 0.
 0. 0. 0. 0.
 0. 0. 0. 0.
 0. 0. 0. 0.
 0. 0. 0. 0.
 0. 0. 0. 0.
 0. 0. 0. 0.
 0. 0. 0. 0.
 0. 0. 0. 0.
 0. 0. 0. 0.
 0. 0. 0. 0.
 0. 0. 0. 0.
 0. 0. 0. 0.
 0. 0. 0. 0.
 0. 0. 0. 0.
 0. 0. 0. 0.
 0. 0. 0. 0.
 0. 0. 0. 0.
 0. 0. 0. 0.
 0. 0. 0. 0.
 0. 0. 0. 0.
 0. 0. 0. 0.
 0. 0. 0. 0.
 0. 0. 0. 0.
   </PP_BETA.3>
   <PP_BETA.4
       type="real"
       size="1356"
       columns="4"
       index="4"
       angular_momentum="1"
       cutoff_radius_index=" 192"
       cutoff_radius="    1.9100000000E+00" >
   -2.4321437780E-09   -6.6694277215E-05   -2.7059195594E-04   -6.2313999624E-04
   -1.1434230466E-03   -1.8581671933E-03   -2.8017337763E-03   -4.0160923366E-03
   -5.5507593249E-03   -7.4626872654E-03   -9.8160877079E-03   -1.2682170579E-02
   -1.6138782518E-02   -2.0269927477E-02   -2.5165154286E-02   -3.0918798028E-02
   -3.7629064905E-02   -4.5396953740E-02   -5.4325011283E-02   -6.4515923024E-02
   -7.6070946056E-02   -8.9088195679E-02   -1.0366080269E-01   -1.1987496347E-01
   -1.3780791021E-01   -1.5752583308E-01   -1.7908179078E-01   -2.0251364945E-01
   -2.2784209292E-01   -2.5506874951E-01   -2.8417448186E-01   -3.1511788639E-01
   -3.4783404839E-01   -3.8223359639E-01   -4.1820209684E-01   -4.5559982568E-01
   -4.9426194812E-01   -5.3399913189E-01   -5.7459861175E-01   -6.1582571543E-01
   -6.5742585215E-01   -6.9912695602E-01   -7.4064236694E-01   -7.8167412224E-01
   -8.2191662226E-01   -8.6106062440E-01   -8.9879751076E-01   -9.3482376657E-01
   -9.6884559939E-01   -1.0005836227E+00   -1.0297775221E+00   -1.0561906204E+00
   -1.0796142520E+00   -1.0998718626E+00   -1.1168227439E+00   -1.1303653228E+00
   -1.1404399250E+00   -1.1470309413E+00   -1.1501683307E+00   -1.1499284077E+00
   -1.1464338689E+00   -1.1398530271E+00   -1.1303982354E+00   -1.1183234975E+00
   -1.1039212742E+00   -1.0875185134E+00   -1.0694719426E+00   -1.0501626825E+00
   -1.0299902502E+00   -1.0093660371E+00   -9.8870635793E-01   -9.6842517775E-01
   -9.4892663605E-01   -9.3059749095E-01   -9.1379961529E-01   -8.9886267809E-01
   -8.8607714677E-01   -8.7568774368E-01   -8.6788748713E-01   -8.6281244044E-01
   -8.6053728428E-01   -8.6107181605E-01   -8.6435846746E-01   -8.7027091563E-01
   -8.7861384663E-01   -8.8912391148E-01   -9.0147189507E-01   -9.1526609798E-01
   -9.3005690968E-01   -9.4534253072E-01   -9.6057578003E-01   -9.7517190310E-01
   -9.8851727720E-01   -9.9997889174E-01   -1.0089144649E+00   -1.0146830441E+00
   -1.0166559241E+00   -1.0142277092E+00   -1.0068273376E+00   -9.9392888165E-01
   -9.7506194070E-01   -9.4982144046E-01   -9.1787666377E-01   -8.7897934330E-01
   -8.3297066026E-01   -7.7978700784E-01   -7.1946439595E-01   -6.5214139391E-01
   -5.7806053029E-01   -4.9756809300E-01   -4.1111229860E-01   -3.1923982606E-01
   -2.2259073751E-01   -1.2189183572E-01   -1.7948534539E-02    8.8364655120E-02
    1.9611489682E-01    3.0432290784E-01    4.1197577563E-01    5.1804052274E-01
    6.2147821670E-01    7.2125840891E-01    8.1637367858E-01    9.0585405257E-01
    9.8878107131E-01    1.0643012735E+00    1.1316388795E+00    1.1901074627E+00
    1.2391204144E+00    1.2782000221E+00    1.3069850060E+00    1.3252363781E+00
    1.3328415167E+00    1.3298163773E+00    1.3163057898E+00    1.2925818234E+00
    1.2590402312E+00    1.2161950196E+00    1.1646712177E+00    1.1051959513E+00
    1.0385879560E+00    9.6574568937E-01    8.8763422692E-01    8.0527114658E-01
    7.1971162493E-01    6.3203298231E-01    5.4331892402E-01    4.5464373072E-01
    3.6705665343E-01    2.8156676553E-01    1.9912851802E-01    1.2062823088E-01
    4.6871759775E-02   -2.1426453149E-02   -8.3652938264E-02   -1.3930314005E-01
   -1.8798753891E-01   -2.2943585294E-01   -2.6349925675E-01   -2.9015058666E-01
   -3.0948253591E-01   -3.2170387673E-01   -3.2713377943E-01   -3.2619433060E-01
   -3.1940138291E-01   -3.0735389700E-01   -2.9072196177E-01   -2.7023370129E-01
   -2.4666129577E-01   -2.2080635830E-01   -1.9348492449E-01   -1.6551229934E-01
   -1.3768797961E-01   -1.1078138437E-01   -8.5518274816E-02   -6.2566555433E-02
   -4.2524299111E-02   -2.5909176880E-02   -1.3154194033E-02   -4.5418730043E-03
   -5.4973145264E-04    1.0770070613E-04   -3.7267614911E-05    6.1556587715E-06
    4.8830376519E-08    0.0000000000E+00    0.0000000000E+00    0.0000000000E+00
    0.0000000000E+00    0.0000000000E+00    0.0000000000E+00    0.0000000000E+00
 0. 0. 0. 0.
 0. 0. 0. 0.
 0. 0. 0. 0.
 0. 0. 0. 0.
 0. 0. 0. 0.
 0. 0. 0. 0.
 0. 0. 0. 0.
 0. 0. 0. 0.
 0. 0. 0. 0.
 0. 0. 0. 0.
 0. 0. 0. 0.
 0. 0. 0. 0.
 0. 0. 0. 0.
 0. 0. 0. 0.
 0. 0. 0. 0.
 0. 0. 0. 0.
 0. 0. 0. 0.
 0. 0. 0. 0.
 0. 0. 0. 0.
 0. 0. 0. 0.
 0. 0. 0. 0.
 0. 0. 0. 0.
 0. 0. 0. 0.
 0. 0. 0. 0.
 0. 0. 0. 0.
 0. 0. 0. 0.
 0. 0. 0. 0.
 0. 0. 0. 0.
 0. 0. 0. 0.
 0. 0. 0. 0.
 0. 0. 0. 0.
 0. 0. 0. 0.
 0. 0. 0. 0.
 0. 0. 0. 0.
 0. 0. 0. 0.
 0. 0. 0. 0.
 0. 0. 0. 0.
 0. 0. 0. 0.
 0. 0. 0. 0.
 0. 0. 0. 0.
 0. 0. 0. 0.
 0. 0. 0. 0.
 0. 0. 0. 0.
 0. 0. 0. 0.
 0. 0. 0. 0.
 0. 0. 0. 0.
 0. 0. 0. 0.
 0. 0. 0. 0.
 0. 0. 0. 0.
 0. 0. 0. 0.
 0. 0. 0. 0.
 0. 0. 0. 0.
 0. 0. 0. 0.
 0. 0. 0. 0.
 0. 0. 0. 0.
 0. 0. 0. 0.
 0. 0. 0. 0.
 0. 0. 0. 0.
 0. 0. 0. 0.
 0. 0. 0. 0.
 0. 0. 0. 0.
 0. 0. 0. 0.
 0. 0. 0. 0.
 0. 0. 0. 0.
 0. 0. 0. 0.
 0. 0. 0. 0.
 0. 0. 0. 0.
 0. 0. 0. 0.
 0. 0. 0. 0.
 0. 0. 0. 0.
 0. 0. 0. 0.
 0. 0. 0. 0.
 0. 0. 0. 0.
 0. 0. 0. 0.
 0. 0. 0. 0.
 0. 0. 0. 0.
 0. 0. 0. 0.
 0. 0. 0. 0.
 0. 0. 0. 0.
 0. 0. 0. 0.
 0. 0. 0. 0.
 0. 0. 0. 0.
 0. 0. 0. 0.
 0. 0. 0. 0.
 0. 0. 0. 0.
 0. 0. 0. 0.
 0. 0. 0. 0.
 0. 0. 0. 0.
 0. 0. 0. 0.
 0. 0. 0. 0.
 0. 0. 0. 0.
 0. 0. 0. 0.
 0. 0. 0. 0.
 0. 0. 0. 0.
 0. 0. 0. 0.
 0. 0. 0. 0.
 0. 0. 0. 0.
 0. 0. 0. 0.
 0. 0. 0. 0.
 0. 0. 0. 0.
 0. 0. 0. 0.
 0. 0. 0. 0.
 0. 0. 0. 0.
 0. 0. 0. 0.
 0. 0. 0. 0.
 0. 0. 0. 0.
 0. 0. 0. 0.
 0. 0. 0. 0.
 0. 0. 0. 0.
 0. 0. 0. 0.
 0. 0. 0. 0.
 0. 0. 0. 0.
 0. 0. 0. 0.
 0. 0. 0. 0.
 0. 0. 0. 0.
 0. 0. 0. 0.
 0. 0. 0. 0.
 0. 0. 0. 0.
 0. 0. 0. 0.
 0. 0. 0. 0.
 0. 0. 0. 0.
 0. 0. 0. 0.
 0. 0. 0. 0.
 0. 0. 0. 0.
 0. 0. 0. 0.
 0. 0. 0. 0.
 0. 0. 0. 0.
 0. 0. 0. 0.
 0. 0. 0. 0.
 0. 0. 0. 0.
 0. 0. 0. 0.
 0. 0. 0. 0.
 0. 0. 0. 0.
 0. 0. 0. 0.
 0. 0. 0. 0.
 0. 0. 0. 0.
 0. 0. 0. 0.
 0. 0. 0. 0.
 0. 0. 0. 0.
 0. 0. 0. 0.
 0. 0. 0. 0.
 0. 0. 0. 0.
 0. 0. 0. 0.
 0. 0. 0. 0.
 0. 0. 0. 0.
 0. 0. 0. 0.
 0. 0. 0. 0.
 0. 0. 0. 0.
 0. 0. 0. 0.
 0. 0. 0. 0.
 0. 0. 0. 0.
 0. 0. 0. 0.
 0. 0. 0. 0.
 0. 0. 0. 0.
 0. 0. 0. 0.
 0. 0. 0. 0.
 0. 0. 0. 0.
 0. 0. 0. 0.
 0. 0. 0. 0.
 0. 0. 0. 0.
 0. 0. 0. 0.
 0. 0. 0. 0.
 0. 0. 0. 0.
 0. 0. 0. 0.
 0. 0. 0. 0.
 0. 0. 0. 0.
 0. 0. 0. 0.
 0. 0. 0. 0.
 0. 0. 0. 0.
 0. 0. 0. 0.
 0. 0. 0. 0.
 0. 0. 0. 0.
 0. 0. 0. 0.
 0. 0. 0. 0.
 0. 0. 0. 0.
 0. 0. 0. 0.
 0. 0. 0. 0.
 0. 0. 0. 0.
 0. 0. 0. 0.
 0. 0. 0. 0.
 0. 0. 0. 0.
 0. 0. 0. 0.
 0. 0. 0. 0.
 0. 0. 0. 0.
 0. 0. 0. 0.
 0. 0. 0. 0.
 0. 0. 0. 0.
 0. 0. 0. 0.
 0. 0. 0. 0.
 0. 0. 0. 0.
 0. 0. 0. 0.
 0. 0. 0. 0.
 0. 0. 0. 0.
 0. 0. 0. 0.
 0. 0. 0. 0.
 0. 0. 0. 0.
 0. 0. 0. 0.
 0. 0. 0. 0.
 0. 0. 0. 0.
 0. 0. 0. 0.
 0. 0. 0. 0.
 0. 0. 0. 0.
 0. 0. 0. 0.
 0. 0. 0. 0.
 0. 0. 0. 0.
 0. 0. 0. 0.
 0. 0. 0. 0.
 0. 0. 0. 0.
 0. 0. 0. 0.
 0. 0. 0. 0.
 0. 0. 0. 0.
 0. 0. 0. 0.
 0. 0. 0. 0.
 0. 0. 0. 0.
 0. 0. 0. 0.
 0. 0. 0. 0.
 0. 0. 0. 0.
 0. 0. 0. 0.
 0. 0. 0. 0.
 0. 0. 0. 0.
 0. 0. 0. 0.
 0. 0. 0. 0.
 0. 0. 0. 0.
 0. 0. 0. 0.
 0. 0. 0. 0.
 0. 0. 0. 0.
 0. 0. 0. 0.
 0. 0. 0. 0.
 0. 0. 0. 0.
 0. 0. 0. 0.
 0. 0. 0. 0.
 0. 0. 0. 0.
 0. 0. 0. 0.
 0. 0. 0. 0.
 0. 0. 0. 0.
 0. 0. 0. 0.
 0. 0. 0. 0.
 0. 0. 0. 0.
 0. 0. 0. 0.
 0. 0. 0. 0.
 0. 0. 0. 0.
 0. 0. 0. 0.
 0. 0. 0. 0.
 0. 0. 0. 0.
 0. 0. 0. 0.
 0. 0. 0. 0.
 0. 0. 0. 0.
 0. 0. 0. 0.
 0. 0. 0. 0.
 0. 0. 0. 0.
 0. 0. 0. 0.
 0. 0. 0. 0.
 0. 0. 0. 0.
 0. 0. 0. 0.
 0. 0. 0. 0.
 0. 0. 0. 0.
 0. 0. 0. 0.
 0. 0. 0. 0.
 0. 0. 0. 0.
 0. 0. 0. 0.
 0. 0. 0. 0.
 0. 0. 0. 0.
 0. 0. 0. 0.
 0. 0. 0. 0.
 0. 0. 0. 0.
 0. 0. 0. 0.
 0. 0. 0. 0.
 0. 0. 0. 0.
 0. 0. 0. 0.
 0. 0. 0. 0.
 0. 0. 0. 0.
 0. 0. 0. 0.
 0. 0. 0. 0.
 0. 0. 0. 0.
 0. 0. 0. 0.
 0. 0. 0. 0.
 0. 0. 0. 0.
 0. 0. 0. 0.
 0. 0. 0. 0.
 0. 0. 0. 0.
 0. 0. 0. 0.
 0. 0. 0. 0.
 0. 0. 0. 0.
 0. 0. 0. 0.
 0. 0. 0. 0.
 0. 0. 0. 0.
 0. 0. 0. 0.
 0. 0. 0. 0.
 0. 0. 0. 0.
 0. 0. 0. 0.
 0. 0. 0. 0.
   </PP_BETA.4>
   <PP_BETA.5
       type="real"
       size="1356"
       columns="4"
       index="5"
       angular_momentum="1"
       cutoff_radius_index=" 192"
       cutoff_radius="    1.9100000000E+00" >
    2.9011172631E-10    9.2777405361E-04    3.7003627939E-03    8.2856634513E-03
    1.4630496526E-02    2.2661093915E-02    3.2283783076E-02    4.3385867687E-02
    5.5836704996E-02    6.9488979458E-02    8.4180171305E-02    9.9734217437E-02
    1.1596336027E-01    1.3267017811E-01    1.4964978820E-01    1.6669221057E-01
    1.8358487798E-01    2.0011527348E-01    2.1607367395E-01    2.3125597376E-01
    2.4546655970E-01    2.5852120410E-01    2.7024994006E-01    2.8049987968E-01
    2.8913793330E-01    2.9605338608E-01    3.0116028646E-01    3.0439960071E-01
    3.0574108777E-01    3.0518484957E-01    3.0276251432E-01    2.9853801300E-01
    2.9260791339E-01    2.8510128088E-01    2.7617904149E-01    2.6603282887E-01
    2.5488330533E-01    2.4297795464E-01    2.3058835386E-01    2.1800694034E-01
    2.0554330016E-01    1.9352001352E-01    1.8226810280E-01    1.7212213789E-01
    1.6341506263E-01    1.5647281424E-01    1.5160881505E-01    1.4911842201E-01
    1.4927342441E-01    1.5231668414E-01    1.5845701450E-01    1.6786439417E-01
    1.8066561175E-01    1.9694043286E-01    2.1671837703E-01    2.3997618491E-01
    2.6663604770E-01    2.9656466064E-01    3.2957315061E-01    3.6541791485E-01
    4.0380239347E-01    4.4437978315E-01    4.8675668324E-01    5.3049764927E-01
    5.7513061174E-01    6.2015310180E-01    6.6503920907E-01    7.0924718151E-01
    7.5222756256E-01    7.9343174808E-01    8.3232083376E-01    8.6837461432E-01
    9.0110058820E-01    9.3004281642E-01    9.5479048141E-01    9.7498599179E-01
    9.9033248162E-01    1.0006005580E+00    1.0056341589E+00    1.0053553944E+00
    9.9976825700E-01    9.8896110338E-01    9.7310782652E-01    9.5246765870E-01
    9.2738356571E-01    8.9827921620E-01    8.6565453368E-01    8.3007986257E-01
    7.9218880443E-01    7.5266980426E-01    7.1225659020E-01    6.7171759200E-01
    6.3184448436E-01    5.9344001977E-01    5.5730533170E-01    5.2422690275E-01
    4.9496340280E-01    4.7023260966E-01    4.5069862882E-01    4.3695962881E-01
    4.2953630602E-01    4.2886128509E-01    4.3526965099E-01    4.4899079426E-01
    4.7014173337E-01    4.9872205770E-01    5.3461061051E-01    5.7756400582E-01
    6.2721704430E-01    6.8308506380E-01    7.4456822891E-01    8.1095773220E-01
    8.8144384786E-01    9.5512574696E-01    1.0310229530E+00    1.1080882872E+00
    1.1852221258E+00    1.2612877674E+00    1.3351276857E+00    1.4055804261E+00
    1.4714978879E+00    1.5317627262E+00    1.5853055981E+00    1.6311219774E+00
    1.6682882659E+00    1.6959769337E+00    1.7134704357E+00    1.7201736646E+00
    1.7156247242E+00    1.6995038275E+00    1.6716401554E+00    1.6320165390E+00
    1.5807718644E+00    1.5182011341E+00    1.4447531538E+00    1.3610258560E+00
    1.2677593046E+00    1.1658264672E+00    1.0562218750E+00    9.4004833033E-01
    8.1850184844E-01    6.9285505745E-01    5.6443930220E-01    4.3462572362E-01
    3.0480560368E-01    1.7637027997E-01    5.0690944214E-02   -7.0901357140E-02
   -1.8713520224E-01   -2.9681744136E-01   -3.9885071140E-01   -4.9224953691E-01
   -5.7615471570E-01   -6.4984573848E-01   -7.1275137213E-01   -7.6445807102E-01
   -8.0471592278E-01   -8.3344202130E-01   -8.5072121014E-01   -8.5680418008E-01
   -8.5210294676E-01   -8.3718377604E-01   -8.1275766532E-01   -7.7966852897E-01
   -7.3887927257E-01   -6.9145597572E-01   -6.3855043376E-01   -5.8138133592E-01
   -5.2121438016E-01   -4.5934164350E-01   -3.9706053652E-01   -3.3565267814E-01
   -2.7636325735E-01   -2.2038132703E-01   -1.6881901070E-01   -1.2269375850E-01
   -8.2911924827E-02   -5.0254071418E-02   -2.5371387018E-02   -8.6658372075E-03
   -9.3520587789E-04    2.5979809632E-04   -8.3582404374E-05    1.4401876060E-05
   -1.5767084625E-07    0.0000000000E+00    0.0000000000E+00    0.0000000000E+00
    0.0000000000E+00    0.0000000000E+00    0.0000000000E+00    0.0000000000E+00
 0. 0. 0. 0.
 0. 0. 0. 0.
 0. 0. 0. 0.
 0. 0. 0. 0.
 0. 0. 0. 0.
 0. 0. 0. 0.
 0. 0. 0. 0.
 0. 0. 0. 0.
 0. 0. 0. 0.
 0. 0. 0. 0.
 0. 0. 0. 0.
 0. 0. 0. 0.
 0. 0. 0. 0.
 0. 0. 0. 0.
 0. 0. 0. 0.
 0. 0. 0. 0.
 0. 0. 0. 0.
 0. 0. 0. 0.
 0. 0. 0. 0.
 0. 0. 0. 0.
 0. 0. 0. 0.
 0. 0. 0. 0.
 0. 0. 0. 0.
 0. 0. 0. 0.
 0. 0. 0. 0.
 0. 0. 0. 0.
 0. 0. 0. 0.
 0. 0. 0. 0.
 0. 0. 0. 0.
 0. 0. 0. 0.
 0. 0. 0. 0.
 0. 0. 0. 0.
 0. 0. 0. 0.
 0. 0. 0. 0.
 0. 0. 0. 0.
 0. 0. 0. 0.
 0. 0. 0. 0.
 0. 0. 0. 0.
 0. 0. 0. 0.
 0. 0. 0. 0.
 0. 0. 0. 0.
 0. 0. 0. 0.
 0. 0. 0. 0.
 0. 0. 0. 0.
 0. 0. 0. 0.
 0. 0. 0. 0.
 0. 0. 0. 0.
 0. 0. 0. 0.
 0. 0. 0. 0.
 0. 0. 0. 0.
 0. 0. 0. 0.
 0. 0. 0. 0.
 0. 0. 0. 0.
 0. 0. 0. 0.
 0. 0. 0. 0.
 0. 0. 0. 0.
 0. 0. 0. 0.
 0. 0. 0. 0.
 0. 0. 0. 0.
 0. 0. 0. 0.
 0. 0. 0. 0.
 0. 0. 0. 0.
 0. 0. 0. 0.
 0. 0. 0. 0.
 0. 0. 0. 0.
 0. 0. 0. 0.
 0. 0. 0. 0.
 0. 0. 0. 0.
 0. 0. 0. 0.
 0. 0. 0. 0.
 0. 0. 0. 0.
 0. 0. 0. 0.
 0. 0. 0. 0.
 0. 0. 0. 0.
 0. 0. 0. 0.
 0. 0. 0. 0.
 0. 0. 0. 0.
 0. 0. 0. 0.
 0. 0. 0. 0.
 0. 0. 0. 0.
 0. 0. 0. 0.
 0. 0. 0. 0.
 0. 0. 0. 0.
 0. 0. 0. 0.
 0. 0. 0. 0.
 0. 0. 0. 0.
 0. 0. 0. 0.
 0. 0. 0. 0.
 0. 0. 0. 0.
 0. 0. 0. 0.
 0. 0. 0. 0.
 0. 0. 0. 0.
 0. 0. 0. 0.
 0. 0. 0. 0.
 0. 0. 0. 0.
 0. 0. 0. 0.
 0. 0. 0. 0.
 0. 0. 0. 0.
 0. 0. 0. 0.
 0. 0. 0. 0.
 0. 0. 0. 0.
 0. 0. 0. 0.
 0. 0. 0. 0.
 0. 0. 0. 0.
 0. 0. 0. 0.
 0. 0. 0. 0.
 0. 0. 0. 0.
 0. 0. 0. 0.
 0. 0. 0. 0.
 0. 0. 0. 0.
 0. 0. 0. 0.
 0. 0. 0. 0.
 0. 0. 0. 0.
 0. 0. 0. 0.
 0. 0. 0. 0.
 0. 0. 0. 0.
 0. 0. 0. 0.
 0. 0. 0. 0.
 0. 0. 0. 0.
 0. 0. 0. 0.
 0. 0. 0. 0.
 0. 0. 0. 0.
 0. 0. 0. 0.
 0. 0. 0. 0.
 0. 0. 0. 0.
 0. 0. 0. 0.
 0. 0. 0. 0.
 0. 0. 0. 0.
 0. 0. 0. 0.
 0. 0. 0. 0.
 0. 0. 0. 0.
 0. 0. 0. 0.
 0. 0. 0. 0.
 0. 0. 0. 0.
 0. 0. 0. 0.
 0. 0. 0. 0.
 0. 0. 0. 0.
 0. 0. 0. 0.
 0. 0. 0. 0.
 0. 0. 0. 0.
 0. 0. 0. 0.
 0. 0. 0. 0.
 0. 0. 0. 0.
 0. 0. 0. 0.
 0. 0. 0. 0.
 0. 0. 0. 0.
 0. 0. 0. 0.
 0. 0. 0. 0.
 0. 0. 0. 0.
 0. 0. 0. 0.
 0. 0. 0. 0.
 0. 0. 0. 0.
 0. 0. 0. 0.
 0. 0. 0. 0.
 0. 0. 0. 0.
 0. 0. 0. 0.
 0. 0. 0. 0.
 0. 0. 0. 0.
 0. 0. 0. 0.
 0. 0. 0. 0.
 0. 0. 0. 0.
 0. 0. 0. 0.
 0. 0. 0. 0.
 0. 0. 0. 0.
 0. 0. 0. 0.
 0. 0. 0. 0.
 0. 0. 0. 0.
 0. 0. 0. 0.
 0. 0. 0. 0.
 0. 0. 0. 0.
 0. 0. 0. 0.
 0. 0. 0. 0.
 0. 0. 0. 0.
 0. 0. 0. 0.
 0. 0. 0. 0.
 0. 0. 0. 0.
 0. 0. 0. 0.
 0. 0. 0. 0.
 0. 0. 0. 0.
 0. 0. 0. 0.
 0. 0. 0. 0.
 0. 0. 0. 0.
 0. 0. 0. 0.
 0. 0. 0. 0.
 0. 0. 0. 0.
 0. 0. 0. 0.
 0. 0. 0. 0.
 0. 0. 0. 0.
 0. 0. 0. 0.
 0. 0. 0. 0.
 0. 0. 0. 0.
 0. 0. 0. 0.
 0. 0. 0. 0.
 0. 0. 0. 0.
 0. 0. 0. 0.
 0. 0. 0. 0.
 0. 0. 0. 0.
 0. 0. 0. 0.
 0. 0. 0. 0.
 0. 0. 0. 0.
 0. 0. 0. 0.
 0. 0. 0. 0.
 0. 0. 0. 0.
 0. 0. 0. 0.
 0. 0. 0. 0.
 0. 0. 0. 0.
 0. 0. 0. 0.
 0. 0. 0. 0.
 0. 0. 0. 0.
 0. 0. 0. 0.
 0. 0. 0. 0.
 0. 0. 0. 0.
 0. 0. 0. 0.
 0. 0. 0. 0.
 0. 0. 0. 0.
 0. 0. 0. 0.
 0. 0. 0. 0.
 0. 0. 0. 0.
 0. 0. 0. 0.
 0. 0. 0. 0.
 0. 0. 0. 0.
 0. 0. 0. 0.
 0. 0. 0. 0.
 0. 0. 0. 0.
 0. 0. 0. 0.
 0. 0. 0. 0.
 0. 0. 0. 0.
 0. 0. 0. 0.
 0. 0. 0. 0.
 0. 0. 0. 0.
 0. 0. 0. 0.
 0. 0. 0. 0.
 0. 0. 0. 0.
 0. 0. 0. 0.
 0. 0. 0. 0.
 0. 0. 0. 0.
 0. 0. 0. 0.
 0. 0. 0. 0.
 0. 0. 0. 0.
 0. 0. 0. 0.
 0. 0. 0. 0.
 0. 0. 0. 0.
 0. 0. 0. 0.
 0. 0. 0. 0.
 0. 0. 0. 0.
 0. 0. 0. 0.
 0. 0. 0. 0.
 0. 0. 0. 0.
 0. 0. 0. 0.
 0. 0. 0. 0.
 0. 0. 0. 0.
 0. 0. 0. 0.
 0. 0. 0. 0.
 0. 0. 0. 0.
 0. 0. 0. 0.
 0. 0. 0. 0.
 0. 0. 0. 0.
 0. 0. 0. 0.
 0. 0. 0. 0.
 0. 0. 0. 0.
 0. 0. 0. 0.
 0. 0. 0. 0.
 0. 0. 0. 0.
 0. 0. 0. 0.
 0. 0. 0. 0.
 0. 0. 0. 0.
 0. 0. 0. 0.
 0. 0. 0. 0.
 0. 0. 0. 0.
 0. 0. 0. 0.
 0. 0. 0. 0.
 0. 0. 0. 0.
 0. 0. 0. 0.
 0. 0. 0. 0.
 0. 0. 0. 0.
 0. 0. 0. 0.
 0. 0. 0. 0.
 0. 0. 0. 0.
 0. 0. 0. 0.
 0. 0. 0. 0.
 0. 0. 0. 0.
 0. 0. 0. 0.
 0. 0. 0. 0.
 0. 0. 0. 0.
 0. 0. 0. 0.
 0. 0. 0. 0.
 0. 0. 0. 0.
 0. 0. 0. 0.
 0. 0. 0. 0.
 0. 0. 0. 0.
 0. 0. 0. 0.
   </PP_BETA.5>
   <PP_BETA.6
       type="real"
       size="1356"
       columns="4"
       index="6"
       angular_momentum="1"
       cutoff_radius_index=" 192"
       cutoff_radius="    1.9100000000E+00" >
    4.0129060075E-09    1.1706151636E-03    4.6662999236E-03    1.0438780591E-02
    1.8408293975E-02    2.8464619636E-02    4.0468510686E-02    5.4253508844E-02
    6.9628125423E-02    8.6378365983E-02    1.0427057253E-01    1.2305455336E-01
    1.4246696701E-01    1.6223492345E-01    1.8207976219E-01    2.0172096425E-01
    2.2088015212E-01    2.3928512946E-01    2.5667391059E-01    2.7279868815E-01
    2.8742968639E-01    3.0035884731E-01    3.1140329690E-01    3.2040853972E-01
    3.2725133160E-01    3.3184218253E-01    3.3412744479E-01    3.3409094524E-01
    3.3175512510E-01    3.2718165591E-01    3.2047150624E-01    3.1176444043E-01
    3.0123793769E-01    2.8910552783E-01    2.7561454804E-01    2.6104333334E-01
    2.4569786274E-01    2.2990789111E-01    2.1402260637E-01    1.9840585976E-01
    1.8343102514E-01    1.6947555166E-01    1.5691528047E-01    1.4611860324E-01
    1.3744054527E-01    1.3121686049E-01    1.2775822880E-01    1.2734464811E-01
    1.3022011395E-01    1.3658767847E-01    1.4660497820E-01    1.6038031603E-01
    1.7796937708E-01    1.9937265133E-01    2.2453362709E-01    2.5333780970E-01
    2.8561260856E-01    3.2112812333E-01    3.5959884697E-01    4.0068628904E-01
    4.4400250832E-01    4.8911452878E-01    5.3554959771E-01    5.8280123012E-01
    6.3033596892E-01    6.7760077642E-01    7.2403095993E-01    7.6905852227E-01
    8.1212081783E-01    8.5266938577E-01    8.9017882535E-01    9.2415557320E-01
    9.5414643972E-01    9.7974676132E-01    1.0006080268E+00    1.0164448407E+00
    1.0270410933E+00    1.0322552149E+00    1.0320244046E+00    1.0263677366E+00
    1.0153880612E+00    9.9927263858E-01    9.7829245667E-01    9.5280020946E-01
    9.2322693016E-01    8.9007729624E-01    8.5392364498E-01    8.1539876034E-01
    7.7518751309E-01    7.3401745694E-01    6.9264850289E-01    6.5186181191E-01
    6.1244806233E-01    5.7519526211E-01    5.4087628771E-01    5.1023634026E-01
    4.8398051525E-01    4.6276168519E-01    4.4716889407E-01    4.3771645877E-01
    4.3483396599E-01    4.3885734264E-01    4.5002116501E-01    4.6845235511E-01
    4.9416539429E-01    5.2705916220E-01    5.6691548572E-01    6.1339945701E-01
    6.6606155261E-01    7.2434155763E-01    7.8757427032E-01    8.5499693372E-01
    9.2575831218E-01    9.9892930353E-01    1.0735149506E+00    1.1484676918E+00
    1.2227016674E+00    1.2951078793E+00    1.3645699829E+00    1.4299804793E+00
    1.4902570628E+00    1.5443588747E+00    1.5913024099E+00    1.6301768263E+00
    1.6601584118E+00    1.6805239728E+00    1.6906629232E+00    1.6900878698E+00
    1.6784435087E+00    1.6555136765E+00    1.6212264214E+00    1.5756569927E+00
    1.5190286775E+00    1.4517114464E+00    1.3742184036E+00    1.2872000727E+00
    1.1914365827E+00    1.0878278524E+00    9.7738190546E-01    8.6120147751E-01
    7.4046910536E-01    6.1643091549E-01    4.9037935009E-01    3.6363508822E-01
    2.3752843485E-01    1.1338046105E-01   -7.5158152339E-03   -1.2391391658E-01
   -2.3463177345E-01   -3.3856869101E-01   -4.3472114668E-01   -5.2219717057E-01
   -6.0022904296E-01   -6.6818409140E-01   -7.2557371886E-01   -7.7206036816E-01
   -8.0746216839E-01   -8.3175518002E-01   -8.4507320162E-01   -8.4770513809E-01
   -8.4008996805E-01   -8.2280938601E-01   -7.9657823084E-01   -7.6223284741E-01
   -7.2071756091E-01   -6.7306947354E-01   -6.2040182044E-01   -5.6388614446E-01
   -5.0473356908E-01   -4.4417546561E-01   -3.8344381151E-01   -3.2375155651E-01
   -2.6627382759E-01   -2.1213014299E-01   -1.6236318275E-01   -1.1792381570E-01
   -7.9656271378E-02   -4.8284784596E-02   -2.4411018614E-02   -8.3973022338E-03
   -1.0050779509E-03    2.0268789083E-04   -6.9699697859E-05    1.1583183280E-05
    7.0263029122E-08    0.0000000000E+00    0.0000000000E+00    0.0000000000E+00
    0.0000000000E+00    0.0000000000E+00    0.0000000000E+00    0.0000000000E+00
 0. 0. 0. 0.
 0. 0. 0. 0.
 0. 0. 0. 0.
 0. 0. 0. 0.
 0. 0. 0. 0.
 0. 0. 0. 0.
 0. 0. 0. 0.
 0. 0. 0. 0.
 0. 0. 0. 0.
 0. 0. 0. 0.
 0. 0. 0. 0.
 0. 0. 0. 0.
 0. 0. 0. 0.
 0. 0. 0. 0.
 0. 0. 0. 0.
 0. 0. 0. 0.
 0. 0. 0. 0.
 0. 0. 0. 0.
 0. 0. 0. 0.
 0. 0. 0. 0.
 0. 0. 0. 0.
 0. 0. 0. 0.
 0. 0. 0. 0.
 0. 0. 0. 0.
 0. 0. 0. 0.
 0. 0. 0. 0.
 0. 0. 0. 0.
 0. 0. 0. 0.
 0. 0. 0. 0.
 0. 0. 0. 0.
 0. 0. 0. 0.
 0. 0. 0. 0.
 0. 0. 0. 0.
 0. 0. 0. 0.
 0. 0. 0. 0.
 0. 0. 0. 0.
 0. 0. 0. 0.
 0. 0. 0. 0.
 0. 0. 0. 0.
 0. 0. 0. 0.
 0. 0. 0. 0.
 0. 0. 0. 0.
 0. 0. 0. 0.
 0. 0. 0. 0.
 0. 0. 0. 0.
 0. 0. 0. 0.
 0. 0. 0. 0.
 0. 0. 0. 0.
 0. 0. 0. 0.
 0. 0. 0. 0.
 0. 0. 0. 0.
 0. 0. 0. 0.
 0. 0. 0. 0.
 0. 0. 0. 0.
 0. 0. 0. 0.
 0. 0. 0. 0.
 0. 0. 0. 0.
 0. 0. 0. 0.
 0. 0. 0. 0.
 0. 0. 0. 0.
 0. 0. 0. 0.
 0. 0. 0. 0.
 0. 0. 0. 0.
 0. 0. 0. 0.
 0. 0. 0. 0.
 0. 0. 0. 0.
 0. 0. 0. 0.
 0. 0. 0. 0.
 0. 0. 0. 0.
 0. 0. 0. 0.
 0. 0. 0. 0.
 0. 0. 0. 0.
 0. 0. 0. 0.
 0. 0. 0. 0.
 0. 0. 0. 0.
 0. 0. 0. 0.
 0. 0. 0. 0.
 0. 0. 0. 0.
 0. 0. 0. 0.
 0. 0. 0. 0.
 0. 0. 0. 0.
 0. 0. 0. 0.
 0. 0. 0. 0.
 0. 0. 0. 0.
 0. 0. 0. 0.
 0. 0. 0. 0.
 0. 0. 0. 0.
 0. 0. 0. 0.
 0. 0. 0. 0.
 0. 0. 0. 0.
 0. 0. 0. 0.
 0. 0. 0. 0.
 0. 0. 0. 0.
 0. 0. 0. 0.
 0. 0. 0. 0.
 0. 0. 0. 0.
 0. 0. 0. 0.
 0. 0. 0. 0.
 0. 0. 0. 0.
 0. 0. 0. 0.
 0. 0. 0. 0.
 0. 0. 0. 0.
 0. 0. 0. 0.
 0. 0. 0. 0.
 0. 0. 0. 0.
 0. 0. 0. 0.
 0. 0. 0. 0.
 0. 0. 0. 0.
 0. 0. 0. 0.
 0. 0. 0. 0.
 0. 0. 0. 0.
 0. 0. 0. 0.
 0. 0. 0. 0.
 0. 0. 0. 0.
 0. 0. 0. 0.
 0. 0. 0. 0.
 0. 0. 0. 0.
 0. 0. 0. 0.
 0. 0. 0. 0.
 0. 0. 0. 0.
 0. 0. 0. 0.
 0. 0. 0. 0.
 0. 0. 0. 0.
 0. 0. 0. 0.
 0. 0. 0. 0.
 0. 0. 0. 0.
 0. 0. 0. 0.
 0. 0. 0. 0.
 0. 0. 0. 0.
 0. 0. 0. 0.
 0. 0. 0. 0.
 0. 0. 0. 0.
 0. 0. 0. 0.
 0. 0. 0. 0.
 0. 0. 0. 0.
 0. 0. 0. 0.
 0. 0. 0. 0.
 0. 0. 0. 0.
 0. 0. 0. 0.
 0. 0. 0. 0.
 0. 0. 0. 0.
 0. 0. 0. 0.
 0. 0. 0. 0.
 0. 0. 0. 0.
 0. 0. 0. 0.
 0. 0. 0. 0.
 0. 0. 0. 0.
 0. 0. 0. 0.
 0. 0. 0. 0.
 0. 0. 0. 0.
 0. 0. 0. 0.
 0. 0. 0. 0.
 0. 0. 0. 0.
 0. 0. 0. 0.
 0. 0. 0. 0.
 0. 0. 0. 0.
 0. 0. 0. 0.
 0. 0. 0. 0.
 0. 0. 0. 0.
 0. 0. 0. 0.
 0. 0. 0. 0.
 0. 0. 0. 0.
 0. 0. 0. 0.
 0. 0. 0. 0.
 0. 0. 0. 0.
 0. 0. 0. 0.
 0. 0. 0. 0.
 0. 0. 0. 0.
 0. 0. 0. 0.
 0. 0. 0. 0.
 0. 0. 0. 0.
 0. 0. 0. 0.
 0. 0. 0. 0.
 0. 0. 0. 0.
 0. 0. 0. 0.
 0. 0. 0. 0.
 0. 0. 0. 0.
 0. 0. 0. 0.
 0. 0. 0. 0.
 0. 0. 0. 0.
 0. 0. 0. 0.
 0. 0. 0. 0.
 0. 0. 0. 0.
 0. 0. 0. 0.
 0. 0. 0. 0.
 0. 0. 0. 0.
 0. 0. 0. 0.
 0. 0. 0. 0.
 0. 0. 0. 0.
 0. 0. 0. 0.
 0. 0. 0. 0.
 0. 0. 0. 0.
 0. 0. 0. 0.
 0. 0. 0. 0.
 0. 0. 0. 0.
 0. 0. 0. 0.
 0. 0. 0. 0.
 0. 0. 0. 0.
 0. 0. 0. 0.
 0. 0. 0. 0.
 0. 0. 0. 0.
 0. 0. 0. 0.
 0. 0. 0. 0.
 0. 0. 0. 0.
 0. 0. 0. 0.
 0. 0. 0. 0.
 0. 0. 0. 0.
 0. 0. 0. 0.
 0. 0. 0. 0.
 0. 0. 0. 0.
 0. 0. 0. 0.
 0. 0. 0. 0.
 0. 0. 0. 0.
 0. 0. 0. 0.
 0. 0. 0. 0.
 0. 0. 0. 0.
 0. 0. 0. 0.
 0. 0. 0. 0.
 0. 0. 0. 0.
 0. 0. 0. 0.
 0. 0. 0. 0.
 0. 0. 0. 0.
 0. 0. 0. 0.
 0. 0. 0. 0.
 0. 0. 0. 0.
 0. 0. 0. 0.
 0. 0. 0. 0.
 0. 0. 0. 0.
 0. 0. 0. 0.
 0. 0. 0. 0.
 0. 0. 0. 0.
 0. 0. 0. 0.
 0. 0. 0. 0.
 0. 0. 0. 0.
 0. 0. 0. 0.
 0. 0. 0. 0.
 0. 0. 0. 0.
 0. 0. 0. 0.
 0. 0. 0. 0.
 0. 0. 0. 0.
 0. 0. 0. 0.
 0. 0. 0. 0.
 0. 0. 0. 0.
 0. 0. 0. 0.
 0. 0. 0. 0.
 0. 0. 0. 0.
 0. 0. 0. 0.
 0. 0. 0. 0.
 0. 0. 0. 0.
 0. 0. 0. 0.
 0. 0. 0. 0.
 0. 0. 0. 0.
 0. 0. 0. 0.
 0. 0. 0. 0.
 0. 0. 0. 0.
 0. 0. 0. 0.
 0. 0. 0. 0.
 0. 0. 0. 0.
 0. 0. 0. 0.
 0. 0. 0. 0.
 0. 0. 0. 0.
 0. 0. 0. 0.
 0. 0. 0. 0.
 0. 0. 0. 0.
 0. 0. 0. 0.
 0. 0. 0. 0.
 0. 0. 0. 0.
 0. 0. 0. 0.
 0. 0. 0. 0.
 0. 0. 0. 0.
 0. 0. 0. 0.
 0. 0. 0. 0.
 0. 0. 0. 0.
 0. 0. 0. 0.
 0. 0. 0. 0.
 0. 0. 0. 0.
 0. 0. 0. 0.
 0. 0. 0. 0.
 0. 0. 0. 0.
 0. 0. 0. 0.
 0. 0. 0. 0.
 0. 0. 0. 0.
 0. 0. 0. 0.
 0. 0. 0. 0.
 0. 0. 0. 0.
 0. 0. 0. 0.
 0. 0. 0. 0.
 0. 0. 0. 0.
 0. 0. 0. 0.
 0. 0. 0. 0.
 0. 0. 0. 0.
   </PP_BETA.6>
   <PP_DIJ type="real"  size="  36" columns="4">
   -1.2567983775E+01    0.0000000000E+00    0.0000000000E+00    0.0000000000E+00
    0.0000000000E+00    0.0000000000E+00    0.0000000000E+00   -4.6488978286E+00
    0.0000000000E+00    0.0000000000E+00    0.0000000000E+00    0.0000000000E+00
    0.0000000000E+00    0.0000000000E+00   -3.3379198425E+00    0.0000000000E+00
    0.0000000000E+00    0.0000000000E+00    0.0000000000E+00    0.0000000000E+00
    0.0000000000E+00   -3.3646431670E+00    0.0000000000E+00    0.0000000000E+00
    0.0000000000E+00    0.0000000000E+00    0.0000000000E+00    0.0000000000E+00
   -1.0890926558E+00    0.0000000000E+00    0.0000000000E+00    0.0000000000E+00
    0.0000000000E+00    0.0000000000E+00    0.0000000000E+00   -1.1457521500E+00
   </PP_DIJ>
 </PP_NONLOCAL>
 <PP_PSWFC>
   <PP_CHI.1
       type="real"
       size="1356"
       columns="4"
       index="1"
       occupation=" 2.000"
       pseudo_energy="   -0.7806438807E+01"
       label="1S"
       l="0" >
    6.7018612881E-12    4.0227887077E-02    8.0411316031E-02    1.2050590776E-01
    1.6046744099E-01    2.0025193073E-01    2.3981570617E-01    2.7911548784E-01
    3.1810846386E-01    3.5675236509E-01    3.9500553900E-01    4.3282702209E-01
    4.7017661076E-01    5.0701493035E-01    5.4330350225E-01    5.7900480898E-01
    6.1408235701E-01    6.4850073720E-01    6.8222568278E-01    7.1522412467E-01
    7.4746424409E-01    7.7891552227E-01    8.0954878723E-01    8.3933625748E-01
    8.6825158265E-01    8.9626988077E-01    9.2336777239E-01    9.4952341128E-01
    9.7471651171E-01    9.9892837236E-01    1.0221418967E+00    1.0443416098E+00
    1.0655136718E+00    1.0856458877E+00    1.1047277137E+00    1.1227502601E+00
    1.1397062905E+00    1.1555902176E+00    1.1703980960E+00    1.1841276111E+00
    1.1967780648E+00    1.2083503582E+00    1.2188469711E+00    1.2282719379E+00
    1.2366308214E+00    1.2439306826E+00    1.2501800488E+00    1.2553888782E+00
    1.2595685223E+00    1.2627316855E+00    1.2648923829E+00    1.2660658953E+00
    1.2662687226E+00    1.2655185349E+00    1.2638341218E+00    1.2612353408E+00
    1.2577430627E+00    1.2533791171E+00    1.2481662363E+00    1.2421279972E+00
    1.2352887638E+00    1.2276736277E+00    1.2193083488E+00    1.2102192951E+00
    1.2004333825E+00    1.1899780141E+00    1.1788810202E+00    1.1671705972E+00
    1.1548752485E+00    1.1420237243E+00    1.1286449628E+00    1.1147680320E+00
    1.1004220722E+00    1.0856362395E+00    1.0704396504E+00    1.0548613279E+00
    1.0389301482E+00    1.0226747899E+00    1.0061236834E+00    9.8930496320E-01
    9.7224642118E-01    9.5497546173E-01    9.3751905896E-01    9.1990371576E-01
    9.0215542480E-01    8.8429963168E-01    8.6636120013E-01    8.4836437943E-01
    8.3033277389E-01    8.1228931471E-01    7.9425623396E-01    7.7625504085E-01
    7.5830650033E-01    7.4043061380E-01    7.2264660232E-01    7.0497289181E-01
    6.8742710073E-01    6.7002602982E-01    6.5278565406E-01    6.3572111686E-01
    6.1884672628E-01    6.0217595335E-01    5.8572143243E-01    5.6949496351E-01
    5.5350751646E-01    5.3776923708E-01    5.2228945498E-01    5.0707669312E-01
    4.9213867902E-01    4.7748235753E-01    4.6311390506E-01    4.4903874521E-01
    4.3526156578E-01    4.2178633687E-01    4.0861633026E-01    3.9575413977E-01
    3.8320170260E-01    3.7096032152E-01    3.5903068790E-01    3.4741290538E-01
    3.3610651412E-01    3.2511051569E-01    3.1442339818E-01    3.0404316188E-01
    2.9396734500E-01    2.8419304975E-01    2.7471696831E-01    2.6553540902E-01
    2.5664432231E-01    2.4803932663E-01    2.3971573406E-01    2.3166857573E-01
    2.2389262680E-01    2.1638243113E-01    2.0913232540E-01    2.0213646272E-01
    1.9538883575E-01    1.8888329909E-01    1.8261359104E-01    1.7657335475E-01
    1.7075615847E-01    1.6515551517E-01    1.5976490133E-01    1.5457777485E-01
    1.4958759222E-01    1.4478782475E-01    1.4017197402E-01    1.3573358637E-01
    1.3146626663E-01    1.2736369082E-01    1.2341961816E-01    1.1962790204E-01
    1.1598250028E-01    1.1247748445E-01    1.0910704841E-01    1.0586551601E-01
    1.0274734806E-01    9.9747148445E-02    9.6859669593E-02    9.4079817162E-02
    9.1402654072E-02    8.8823403883E-02    8.6337453537E-02    8.3940355523E-02
    8.1627829474E-02    7.9395763243E-02    7.7240213494E-02    7.5157405829E-02
    7.3143734501E-02    7.1195761735E-02    6.9310216694E-02    6.7483994135E-02
    6.5714152757E-02    6.3997913308E-02    6.2332656458E-02    6.0715920467E-02
    5.9145398690E-02    5.7618936932E-02    5.6134530717E-02    5.4690322509E-02
    5.3284598804E-02    5.1915787005E-02    5.0582452290E-02    4.9283294502E-02
    4.8017144886E-02    4.6782963059E-02    4.5579833886E-02    4.4406953611E-02
    4.3263589278E-02    4.2149025855E-02    4.1062558020E-02    4.0003499713E-02
    3.8971182091E-02    3.7964950807E-02    3.6984167053E-02    3.6028206846E-02
    3.5096460769E-02    3.4188333658E-02    3.3303244296E-02    3.2440625112E-02
    3.1599921884E-02    3.0780593456E-02    2.9982111443E-02    2.9203959962E-02
    2.8445635353E-02    2.7706645911E-02    2.6986511621E-02    2.6284763902E-02
    2.5600945352E-02    2.4934609498E-02    2.4285320553E-02    2.3652653176E-02
    2.3036192240E-02    2.2435532598E-02    2.1850278861E-02    2.1280045176E-02
    2.0724455009E-02    2.0183140932E-02    1.9655744421E-02    1.9141915644E-02
    1.8641313268E-02    1.8153604263E-02    1.7678463708E-02    1.7215574607E-02
    1.6764627703E-02    1.6325321301E-02    1.5897361092E-02    1.5480459980E-02
    1.5074337915E-02    1.4678721726E-02    1.4293344965E-02    1.3917947744E-02
    1.3552276581E-02    1.3196084253E-02    1.2849129661E-02    1.2511177651E-02
    1.2181998888E-02    1.1861369734E-02    1.1549072102E-02    1.1244893320E-02
    1.0948626006E-02    1.0660067943E-02    1.0379021951E-02    1.0105295771E-02
    9.8387019413E-03    9.5790576885E-03    9.3261848103E-03    9.0799095669E-03
    8.8400625729E-03    8.6064786923E-03    8.3789969354E-03    8.1574603581E-03
    7.9417159641E-03    7.7316146087E-03    7.5270109047E-03    7.3277631313E-03
    7.1337331446E-03    6.9447862896E-03    6.7607913153E-03    6.5816202912E-03
    6.4071485258E-03    6.2372544869E-03    6.0718197241E-03    5.9107287928E-03
    5.7538691801E-03    5.6011312326E-03    5.4524080854E-03    5.3075955935E-03
    5.1665922642E-03    5.0292991914E-03    4.8956199916E-03    4.7654607409E-03
    4.6387299141E-03    4.5153383248E-03    4.3951990674E-03    4.2782274598E-03
    4.1643409882E-03    4.0534592528E-03    3.9455039151E-03    3.8403986459E-03
    3.7380690752E-03    3.6384427432E-03    3.5414490519E-03    3.4470192188E-03
    3.3550862309E-03    3.2655848003E-03    3.1784513207E-03    3.0936238252E-03
    3.0110419444E-03    2.9306468666E-03    2.8523812982E-03    2.7761894254E-03
    2.7020168766E-03    2.6298106858E-03    2.5595192572E-03    2.4910923304E-03
    2.4244809463E-03    2.3596374142E-03    2.2965152794E-03    2.2350692920E-03
    2.1752553759E-03    2.1170305992E-03    2.0603531448E-03    2.0051822820E-03
    1.9514783390E-03    1.8992026754E-03    1.8483176561E-03    1.7987866258E-03
    1.7505738834E-03    1.7036446580E-03    1.6579650848E-03    1.6135021820E-03
    1.5702238282E-03    1.5280987401E-03    1.4870964510E-03    1.4471872901E-03
    1.4083423618E-03    1.3705335256E-03    1.3337333769E-03    1.2979152280E-03
    1.2630530897E-03    1.2291216530E-03    1.1960962718E-03    1.1639529458E-03
    1.1326683035E-03    1.1022195866E-03    1.0725846332E-03    1.0437418633E-03
    1.0156702632E-03    9.8834937100E-04    9.6175926220E-04    9.3588053595E-04
    9.1069430133E-04    8.8618216415E-04    8.6232621410E-04    8.3910901211E-04
    8.1651357819E-04    7.9452337942E-04    7.7312231840E-04    7.5229472184E-04
    7.3202532960E-04    7.1229928387E-04    6.9310211873E-04    6.7441974991E-04
    6.5623846487E-04    6.3854491308E-04    6.2132609658E-04    6.0456936077E-04
    5.8826238546E-04    5.7239317614E-04    5.5695005543E-04    5.4192165483E-04
    5.2729690660E-04    5.1306503594E-04    4.9921555328E-04    4.8573824684E-04
    4.7262317532E-04    4.5986066084E-04    4.4744128204E-04    4.3535586731E-04
    4.2359548828E-04    4.1215145344E-04    4.0101530186E-04    3.9017879721E-04
    3.7963392182E-04    3.6937287094E-04    3.5938804712E-04    3.4967205482E-04
    3.4021769501E-04    3.3101796007E-04    3.2206602872E-04    3.1335526112E-04
    3.0487919408E-04    2.9663153641E-04    2.8860616439E-04    2.8079711735E-04
    2.7319859337E-04    2.6580494508E-04    2.5861067558E-04    2.5161043451E-04
    2.4479901411E-04    2.3817134550E-04    2.3172249499E-04    2.2544766051E-04
    2.1934216814E-04    2.1340146869E-04    2.0762113444E-04    2.0199685589E-04
    1.9652443864E-04    1.9119980034E-04    1.8601896774E-04    1.8097807377E-04
    1.7607335472E-04    1.7130114756E-04    1.6665788719E-04    1.6214010388E-04
    1.5774442075E-04    1.5346755127E-04    1.4930629691E-04    1.4525754474E-04
    1.4131826520E-04    1.3748550989E-04    1.3375640938E-04    1.3012817111E-04
    1.2659807738E-04    1.2316348333E-04    1.1982181502E-04    1.1657056751E-04
    1.1340730307E-04    1.1032964933E-04    1.0733529760E-04    1.0442200114E-04
    1.0158757350E-04    9.8829886943E-05    9.6146870854E-05    9.3536510227E-05
    9.0996844177E-05    8.8525964498E-05    8.6122014258E-05    8.3783186427E-05
    8.1507722545E-05    7.9293911426E-05    7.7140087893E-05    7.5044631550E-05
    7.3005965583E-05    7.1022555598E-05    6.9092908482E-05    6.7215571303E-05
    6.5389130231E-05    6.3612209496E-05    6.1883470365E-05    6.0201610154E-05
    5.8565361258E-05    5.6973490219E-05    5.5424796803E-05    5.3918113114E-05
    5.2452302728E-05    5.1026259848E-05    4.9638908481E-05    4.8289201644E-05
    4.6976120579E-05    4.5698674003E-05    4.4455897364E-05    4.3246852129E-05
    4.2070625083E-05    4.0926327650E-05    3.9813095230E-05    3.8730086557E-05
    3.7676483073E-05    3.6651488313E-05    3.5654327317E-05    3.4684246050E-05
    3.3740510837E-05    3.2822407821E-05    3.1929242423E-05    3.1060338832E-05
    3.0215039493E-05    2.9392704617E-05    2.8592711708E-05    2.7814455092E-05
    2.7057345467E-05    2.6320809460E-05    2.5604289202E-05    2.4907241906E-05
    2.4229139464E-05    2.3569468051E-05    2.2927727738E-05    2.2303432122E-05
    2.1696107955E-05    2.1105294797E-05    2.0530544665E-05    1.9971421698E-05
    1.9427501834E-05    1.8898372488E-05    1.8383632241E-05    1.7882890545E-05
    1.7395767424E-05    1.6921893190E-05    1.6460908168E-05    1.6012462423E-05
    1.5576215496E-05    1.5151836153E-05    1.4739002132E-05    1.4337399901E-05
    1.3946724423E-05    1.3566678927E-05    1.3196974684E-05    1.2837330791E-05
    1.2487473956E-05    1.2147138297E-05    1.1816065138E-05    1.1494002817E-05
    1.1180706495E-05    1.0875937971E-05    1.0579465503E-05    1.0291063634E-05
    1.0010513022E-05    9.7376002746E-06    9.4721177858E-06    9.2138635826E-06
    8.9626411711E-06    8.7182593884E-06    8.4805322584E-06    8.2492788513E-06
    8.0243231473E-06    7.8054939034E-06    7.5926245243E-06    7.3855529364E-06
    7.1841214654E-06    6.9881767174E-06    6.7975694625E-06    6.6121545226E-06
    6.4317906611E-06    6.2563404766E-06    6.0856702988E-06    5.9196500873E-06
    5.7581533333E-06    5.6010569640E-06    5.4482412496E-06    5.2995897122E-06
    5.1549890384E-06    5.0143289928E-06    4.8775023348E-06    4.7444047378E-06
    4.6149347096E-06    4.4889935158E-06    4.3664851053E-06    4.2473160370E-06
    4.1313954092E-06    4.0186347909E-06    3.9089481549E-06    3.8022518119E-06
    3.6984643478E-06    3.5975065618E-06    3.4993014059E-06    3.4037739272E-06
    3.3108512105E-06    3.2204623231E-06    3.1325382611E-06    3.0470118972E-06
    2.9638179295E-06    2.8828928317E-06    2.8041748058E-06    2.7276037340E-06
    2.6531211342E-06    2.5806701147E-06    2.5101953315E-06    2.4416429462E-06
    2.3749605850E-06    2.3100972990E-06    2.2470035254E-06    2.1856310500E-06
    2.1259329706E-06    2.0678636611E-06    2.0113787370E-06    1.9564350217E-06
    1.9029905136E-06    1.8510043543E-06    1.8004367972E-06    1.7512491779E-06
    1.7034038841E-06    1.6568643274E-06    1.6115949155E-06    1.5675610250E-06
    1.5247289750E-06    1.4830660015E-06    1.4425402328E-06    1.4031206647E-06
    1.3647771374E-06    1.3274803123E-06    1.2912016496E-06    1.2559133867E-06
    1.2215885172E-06    1.1882007701E-06    1.1557245899E-06    1.1241351171E-06
    1.0934081692E-06    1.0635202227E-06    1.0344483947E-06    1.0061704254E-06
    9.7866466175E-07    9.5191004040E-07    9.2588607187E-07    9.0057282491E-07
    8.7595091128E-07    8.5200147105E-07    8.2870615814E-07    8.0604712637E-07
    7.8400701590E-07    7.6256893992E-07    7.4171647182E-07    7.2143363267E-07
    7.0170487900E-07    6.8251509101E-07    6.6384956096E-07    6.4569398200E-07
    6.2803443727E-07    6.1085738924E-07    5.9414966941E-07    5.7789846828E-07
    5.6209132553E-07    5.4671612055E-07    5.3176106317E-07    5.1721468469E-07
    5.0306582909E-07    4.8930364452E-07    4.7591757507E-07    4.6289735265E-07
    4.5023298914E-07    4.3791476885E-07    4.2593324101E-07    4.1427921260E-07
    4.0294374132E-07    3.9191812876E-07    3.8119391376E-07    3.7076286595E-07
    3.6061697943E-07    3.5074846670E-07    3.4114975270E-07    3.3181346900E-07
    3.2273244817E-07    3.1389971833E-07    3.0530849782E-07    2.9695218999E-07
    2.8882437815E-07    2.8091882074E-07    2.7322944646E-07    2.6575034969E-07
    2.5847578597E-07    2.5140016758E-07    2.4451805931E-07    2.3782417424E-07
    2.3131336976E-07    2.2498064363E-07    2.1882113010E-07    2.1283009624E-07
    2.0700293831E-07    2.0133517823E-07    1.9582246013E-07    1.9046054709E-07
    1.8524531782E-07    1.8017276353E-07    1.7523898490E-07    1.7044018903E-07
    1.6577268661E-07    1.6123288904E-07    1.5681730568E-07    1.5252254123E-07
    1.4834529309E-07    1.4428234885E-07    1.4033058380E-07    1.3648695857E-07
    1.3274851680E-07    1.2911238286E-07    1.2557575964E-07    1.2213592646E-07
    1.1879023690E-07    1.1553611687E-07    1.1237106255E-07    1.0929263852E-07
    1.0629847591E-07    1.0338627053E-07    1.0055378115E-07    9.7798827747E-08
    9.5119289882E-08    9.2513105027E-08    8.9978267007E-08    8.7512824463E-08
    8.5114879351E-08    8.2782585483E-08    8.0514147120E-08    7.8307817593E-08
    7.6161897960E-08    7.4074735704E-08    7.2044723468E-08    7.0070297824E-08
    6.8149938069E-08    6.6282165060E-08    6.4465540079E-08    6.2698663735E-08
    6.0980174883E-08    5.9308749582E-08    5.7683100079E-08    5.6101973825E-08
    5.4564152508E-08    5.3068451122E-08    5.1613717051E-08    5.0198829197E-08
    4.8822697108E-08    4.7484260143E-08    4.6182486661E-08    4.4916373229E-08
    4.3684943850E-08    4.2487249212E-08    4.1322365960E-08    4.0189395992E-08
    3.9087465762E-08    3.8015725614E-08    3.6973349124E-08    3.5959532473E-08
    3.4973493824E-08    3.4014472723E-08    3.3081729514E-08    3.2174544770E-08
    3.1292218747E-08    3.0434070835E-08    2.9599439045E-08    2.8787679492E-08
    2.7998165909E-08    2.7230289160E-08    2.6483456771E-08    2.5757092476E-08
    2.5050635779E-08    2.4363541514E-08    2.3695279433E-08    2.3045333795E-08
    2.2413202970E-08    2.1798399054E-08    2.1200447496E-08    2.0618886724E-08
    2.0053267803E-08    1.9503154081E-08    1.8968120854E-08    1.8447755042E-08
    1.7941654869E-08    1.7449429556E-08    1.6970699020E-08    1.6505093578E-08
    1.6052253667E-08    1.5611829565E-08    1.5183481125E-08    1.4766877507E-08
    1.4361696929E-08    1.3967626418E-08    1.3584361567E-08    1.3211606305E-08
    1.2849072664E-08    1.2496480559E-08    1.2153557576E-08    1.1820038758E-08
    1.1495666401E-08    1.1180189859E-08    1.0873365347E-08    1.0574955757E-08
    1.0284730472E-08    1.0002465191E-08    9.7279417538E-09    9.4609479762E-09
    9.2012774838E-09    8.9487295537E-09    8.7031089595E-09    8.4642258229E-09
    8.2318954653E-09    8.0059382663E-09    7.7861795247E-09    7.5724493243E-09
    7.3645824040E-09    7.1624180289E-09    6.9657998667E-09    6.7745758670E-09
    6.5885981457E-09    6.4077228696E-09    6.2318101453E-09    6.0607239121E-09
    5.8943318363E-09    5.7325052107E-09    5.5751188540E-09    5.4220510144E-09
    5.2731832757E-09    5.1284004667E-09    4.9875905721E-09    4.8506446456E-09
    4.7174567261E-09    4.5879237558E-09    4.4619455017E-09    4.3394244773E-09
    4.2202658675E-09    4.1043774553E-09    3.9916695511E-09    3.8820549239E-09
    3.7754487329E-09    3.6717684626E-09    3.5709338589E-09    3.4728668677E-09
    3.3774915743E-09    3.2847341448E-09    3.1945227689E-09    3.1067876045E-09
    3.0214607247E-09    2.9384760643E-09    2.8577693691E-09    2.7792781462E-09
    2.7029416160E-09    2.6287006655E-09    2.5564978019E-09    2.4862771089E-09
    2.4179842028E-09    2.3515661914E-09    2.2869716327E-09    2.2241504951E-09
    2.1630541186E-09    2.1036351774E-09    2.0458476439E-09    1.9896467522E-09
    1.9349889642E-09    1.8818319355E-09    1.8301344827E-09    1.7798565523E-09
    1.7309591891E-09    1.6834045061E-09    1.6371556552E-09    1.5921767989E-09
    1.5484330830E-09    1.5058906089E-09    1.4645164080E-09    1.4242784155E-09
    1.3851454463E-09    1.3470871711E-09    1.3100740920E-09    1.2740775205E-09
    1.2390695548E-09    1.2050230587E-09    1.1719116404E-09    1.1397096320E-09
    1.1083920698E-09    1.0779346748E-09    1.0483138342E-09    1.0195065832E-09
    9.9149058672E-10    9.6424412263E-10    9.3774606460E-10    9.1197586609E-10
    8.8691354438E-10    8.6253966492E-10    8.3883532642E-10    8.1578214612E-10
    7.9336224579E-10    7.7155823787E-10    7.5035321181E-10    7.2973072110E-10
    7.0967477045E-10    6.9016980367E-10    6.7120069148E-10    6.5275271975E-10
    6.3481157814E-10    6.1736334895E-10    6.0039449657E-10    5.8389185693E-10
    5.6784262716E-10    5.5223435581E-10    5.3705493309E-10    5.2229258166E-10
    5.0793584752E-10    4.9397359098E-10    4.8039497812E-10    4.6718947236E-10
    4.5434682636E-10    4.4185707416E-10    4.2971052333E-10    4.1789774748E-10
    4.0640957894E-10    3.9523710174E-10    3.8437164476E-10    3.7380477487E-10
    3.6352829047E-10    3.5353421507E-10    3.4381479114E-10    3.3436247429E-10
    3.2516992717E-10    3.1623001389E-10    3.0753579446E-10    2.9908051938E-10
    2.9085762462E-10    2.8286072631E-10    2.7508361589E-10    2.6752025523E-10
    2.6016477196E-10    2.5301145508E-10    2.4605475036E-10    2.3928925610E-10
    2.3270971892E-10    2.2631102966E-10    2.2008821951E-10    2.1403645614E-10
    2.0815103992E-10    2.0242740025E-10    1.9686109205E-10    1.9144779230E-10
    1.8618329679E-10    1.8106351674E-10    1.7608447565E-10    1.7124230624E-10
    1.6653324740E-10    1.6195364142E-10    1.5749993101E-10    1.5316865659E-10
    1.4895645360E-10    1.4486004986E-10    1.4087626313E-10    1.3700199857E-10
    1.3323424636E-10    1.2957007932E-10    1.2600665071E-10    1.2254119194E-10
    1.1917101055E-10    1.1589348801E-10    1.1270607773E-10    1.0960630307E-10
    1.0659175540E-10    1.0366009232E-10    1.0080903575E-10    9.8036370219E-11
    9.5339941098E-11    9.2717652950E-11    9.0167467907E-11    8.7687404130E-11
    8.5275534210E-11    8.2929983692E-11    8.0648929619E-11    7.8430599099E-11
    7.6273268000E-11    7.4175259552E-11    7.2134943051E-11    7.0150732599E-11
    6.8221085867E-11    6.6344502903E-11    6.4519525008E-11    6.2744733545E-11
    6.1018748862E-11    5.9340229213E-11    5.7707869710E-11    5.6120401353E-11
    5.4576590014E-11    5.3075235471E-11    5.1615170487E-11    5.0195259893E-11
    4.8814399714E-11    4.7471516345E-11    4.6165565670E-11    4.4895532269E-11
    4.3660428628E-11    4.2459294360E-11    4.1291195491E-11    4.0155223724E-11
    3.9050495717E-11    3.7976152405E-11    3.6931358337E-11    3.5915301006E-11
    3.4927190271E-11    3.3966257698E-11    3.3031755972E-11    3.2122958319E-11
    3.1239157935E-11    3.0379667446E-11    2.9543818391E-11    2.8730960671E-11
    2.7940462059E-11    2.7171707706E-11    2.6424099657E-11    2.5697056403E-11
    2.4990012429E-11    2.4302417758E-11    2.3633737533E-11    2.2983451598E-11
    2.2351054089E-11    2.1736053065E-11    2.1137970108E-11    2.0556339947E-11
    1.9990710104E-11    1.9440640538E-11    1.8905703298E-11    1.8385482220E-11
    1.7879572572E-11    1.7387580748E-11    1.6909123965E-11    1.6443829960E-11
    1.5991336705E-11    1.5551292136E-11    1.5123353866E-11    1.4707188918E-11
    1.4302473473E-11    1.3908892609E-11    1.3526140069E-11    1.3153918021E-11
    1.2791936819E-11    1.2439914783E-11    1.2097577974E-11    1.1764659985E-11
    1.1440901738E-11    1.1126051283E-11    1.0819863594E-11    1.0522100385E-11
    1.0232529920E-11    9.9509268322E-12    9.6770719577E-12    9.4107521620E-12
    9.1517601690E-12    8.8998944022E-12    8.6549588284E-12    8.4167628016E-12
    8.1851209243E-12    7.9598528992E-12    7.7407833850E-12    7.5277418623E-12
    7.3205625010E-12    7.1190840286E-12    6.9231496126E-12    6.7326067353E-12
    6.5473070715E-12    6.3671063752E-12    6.1918643674E-12    6.0214446245E-12
    5.8557144791E-12    5.6945449141E-12    5.5378104589E-12    5.3853890939E-12
    5.2371621553E-12    5.0930142410E-12    4.9528331258E-12    4.8165096732E-12
    4.6839377468E-12    4.5550141293E-12    4.4296384426E-12    4.3077130676E-12
    4.1891430720E-12    4.0738361376E-12    3.9617024835E-12    3.8526547983E-12
    3.7466081723E-12    3.6434800303E-12    3.5431900684E-12    3.4456601956E-12
    3.3508144670E-12    3.2585790264E-12    3.1688820495E-12    3.0816536873E-12
    2.9968260104E-12    2.9143329634E-12    2.8341103051E-12    2.7560955620E-12
    2.6802279789E-12    2.6064484720E-12    2.5346995806E-12    2.4649254294E-12
    2.3970716785E-12    2.3310854828E-12    2.2669154508E-12    2.2045116050E-12
    2.1438253411E-12    2.0848093947E-12    2.0274178015E-12    1.9716058613E-12
    1.9173301037E-12    1.8645482539E-12    1.8132191999E-12    1.7633029607E-12
    1.7147606574E-12    1.6675544797E-12    1.6216476572E-12    1.5770044316E-12
    1.5335900278E-12    1.4913706266E-12    1.4503133423E-12    1.4103861926E-12
    1.3715580750E-12    1.3337987430E-12    1.2970787820E-12    1.2613695860E-12
    1.2266433376E-12    1.1928729849E-12    1.1600322198E-12    1.1280954582E-12
    1.0970378198E-12    1.0668351085E-12    1.0374637940E-12    1.0089009950E-12
    9.8112445893E-13    9.5411254545E-13    9.2784420974E-13    9.0229898603E-13
    8.7745697074E-13    8.5329880988E-13    8.2980568144E-13    8.0695928117E-13
    7.8474180852E-13    7.6313595274E-13    7.4212487903E-13    7.2169221611E-13
    7.0182204409E-13    6.8249888060E-13    6.6370766930E-13    6.4543376819E-13
    6.2766293817E-13    6.1038133125E-13    5.9357548203E-13    5.7723229512E-13
    5.6133903546E-13    5.4588331842E-13    5.3085310017E-13    5.1623666810E-13
    5.0202263195E-13    4.8819991572E-13    4.7475774779E-13    4.6168565295E-13
    4.4897344426E-13    4.3661121513E-13    4.2458933116E-13    4.1289842390E-13
    4.0152938266E-13    3.9047334732E-13    3.7972170158E-13    3.6926606630E-13
    3.5909829286E-13    3.4921045656E-13    3.3959485177E-13    3.3024398448E-13
    3.2115056693E-13    3.1230751192E-13    3.0370792733E-13    2.9534511048E-13
    2.8721254337E-13    2.7930388775E-13    2.7161297960E-13    2.6413382449E-13
    2.5686059302E-13    2.4978761622E-13    2.4290938083E-13    2.3622052588E-13
    2.2971583790E-13    2.2339024683E-13    2.1723882212E-13    2.1125676894E-13
    2.0543942445E-13    1.9978225378E-13    1.9428084763E-13    1.8893091773E-13
    1.8372829385E-13    1.7866892053E-13    1.7374885396E-13    1.6896425881E-13
    1.6431140517E-13    1.5978666630E-13    1.5538651506E-13    1.5110752136E-13
    1.4694634954E-13    1.4289975577E-13    1.3896458540E-13    1.3513777064E-13
    1.3141632843E-13    1.2779735765E-13    1.2427803704E-13    1.2085562301E-13
    1.1752744746E-13    1.1429091566E-13    1.1114350439E-13    1.0808276005E-13
    1.0510629647E-13    1.0221179315E-13    9.9396993478E-14    9.6659702950E-14
    9.3997787368E-14    9.1409171427E-14    8.8891837031E-14    8.6443821556E-14
    8.4063216403E-14    8.1748165511E-14    7.9496863913E-14    7.7307556228E-14
    7.5178535546E-14    7.3108141992E-14    7.1094761319E-14    6.9136823721E-14
    6.7232802603E-14    6.5381213393E-14    6.3580612305E-14    6.1829595424E-14
    6.0126797523E-14    5.8470890905E-14    5.6860584420E-14    5.5294622464E-14
    5.3771783999E-14    5.2290881532E-14    5.0850760352E-14    4.9450297591E-14
    4.8088401237E-14    4.6764009344E-14    4.5476089197E-14    4.4223636516E-14
    4.3005674614E-14    4.1821253748E-14    4.0669450389E-14    3.9549366383E-14
    3.8460128299E-14    3.7400886754E-14    3.6370815748E-14    3.5369111990E-14
    3.4394994313E-14    3.3447703150E-14    3.2526499792E-14    3.1630665865E-14
    3.0759502772E-14    2.9912331151E-14    2.9088490329E-14    2.8287337789E-14
    2.7508248824E-14    2.6750615867E-14    2.6013848075E-14    2.5297370877E-14
    2.4600625515E-14    2.3923068619E-14    2.3264171715E-14    2.2623421010E-14
    2.2000316802E-14    2.1394373144E-14    2.0805117469E-14    2.0232090220E-14
    1.9674844494E-14    1.9132945651E-14    1.8605971086E-14    1.8093509829E-14
    1.7595162205E-14    1.7110539548E-14    1.6639263888E-14    1.6180967665E-14
    1.5735293417E-14    1.5301893542E-14    1.4880430045E-14    1.4470574212E-14
    1.4072006380E-14    1.3684415686E-14    1.3307499828E-14    1.2940964821E-14
    1.2584524748E-14    1.2237901639E-14    1.1900825140E-14    1.1573032342E-14
    1.1254267577E-14    1.0944282213E-14    1.0642834467E-14    1.0349689187E-14
    1.0064617737E-14    9.7873977752E-15    9.5178130730E-15    9.2556533544E-15
    9.0007141335E-15    8.7527965547E-15    8.5117072301E-15    8.2772580920E-15
    8.0492662886E-15    7.8275539827E-15    7.6119482337E-15    7.4022808629E-15
    7.1983883224E-15    7.0001115674E-15    6.8072959135E-15    6.6197909710E-15
    6.4374504838E-15    6.2601322182E-15    6.0876978568E-15    5.9200128907E-15
    5.7569465149E-15    5.5983715205E-15    5.4441641983E-15    5.2942042720E-15
    5.1483747628E-15    5.0065619131E-15    4.8686550975E-15    4.7345467368E-15
    4.6041322141E-15    4.4773097810E-15    4.3539805117E-15    4.2340482036E-15
    4.1174192983E-15    4.0040028134E-15    3.8937102720E-15    3.7864556335E-15
    3.6821552250E-15    3.5807276676E-15    3.4820938498E-15    3.3861768261E-15
    3.2929017696E-15    3.2021959139E-15    3.1139884965E-15    3.0282107033E-15
    2.9447956096E-15    2.8636781385E-15    2.7847950143E-15    2.7080846973E-15
    2.6334873422E-15    2.5609447518E-15    2.4904003314E-15    2.4217990448E-15
    2.3550873635E-15    2.2902132469E-15    2.2271260856E-15    2.1657766613E-15
    2.1061171111E-15    2.0481008900E-15    1.9916827348E-15    1.9368186286E-15
    1.8834657584E-15    1.8315825078E-15    1.7811283987E-15    1.7320640675E-15
    1.6843512344E-15    1.6379526741E-15    1.5928321860E-15    1.5489545651E-15
    1.5062855734E-15    1.4647919262E-15    1.4244412501E-15    1.3852020631E-15
    1.3470437503E-15    1.3099365398E-15    1.2738514793E-15    1.2387604120E-15
    1.2046359569E-15    1.1714514935E-15    1.1391811304E-15    1.1077996893E-15
    1.0772826852E-15    1.0476063074E-15    1.0187474011E-15    9.9068344636E-16
    9.6339254610E-16    9.3685340957E-16    9.1104532974E-16    8.8594816983E-16
    8.6154234761E-16    8.3780882009E-16    8.1472906873E-16    7.9228508263E-16
    7.7045934978E-16    7.4923484245E-16    7.2859499990E-16    7.0852371747E-16
    6.8900533400E-16    6.7002461961E-16    6.5156676386E-16    6.3361736216E-16
    6.1616240922E-16    5.9918828692E-16    5.8268175064E-16    5.6662992049E-16
    5.5102027129E-16    5.3584062281E-16    5.2107913024E-16    5.0672427338E-16
    4.9276485121E-16    4.7918997266E-16    4.6598904523E-16    4.5315176813E-16
    4.4066812427E-16    4.2852837239E-16    4.1672303953E-16    4.0524291248E-16
   </PP_CHI.1>
   <PP_CHI.2
       type="real"
       size="1356"
       columns="4"
       index="2"
       occupation=" 2.000"
       pseudo_energy="   -0.4123022483E+00"
       label="2S"
       l="0" >
    4.1024406094E-12   -1.1647631292E-02   -2.3272919608E-02   -3.4853569093E-02
   -4.6367378030E-02   -5.7792285626E-02   -6.9106418445E-02   -8.0288136395E-02
   -9.1316078144E-02   -1.0216920585E-01   -1.1282684910E-01   -1.2326874795E-01
   -1.3347509498E-01   -1.4342657616E-01   -1.5310441062E-01   -1.6249038895E-01
   -1.7156691021E-01   -1.8031701737E-01   -1.8872443112E-01   -1.9677358203E-01
   -2.0444964087E-01   -2.1173854714E-01   -2.1862703558E-01   -2.2510266073E-01
   -2.3115381931E-01   -2.3676977061E-01   -2.4194065451E-01   -2.4665750738E-01
   -2.5091227557E-01   -2.5469782670E-01   -2.5800795847E-01   -2.6083740513E-01
   -2.6318184154E-01   -2.6503788484E-01   -2.6640309369E-01   -2.6727596511E-01
   -2.6765592890E-01   -2.6754333977E-01   -2.6693946707E-01   -2.6584648226E-01
   -2.6426744411E-01   -2.6220628176E-01   -2.5966777558E-01   -2.5665753605E-01
   -2.5318198063E-01   -2.4924830873E-01   -2.4486447490E-01   -2.4003916034E-01
   -2.3478174278E-01   -2.2910226488E-01   -2.2301140132E-01   -2.1652042455E-01
   -2.0964116951E-01   -2.0238599728E-01   -1.9476775791E-01   -1.8679975250E-01
   -1.7849569466E-01   -1.6986967155E-01   -1.6093610453E-01   -1.5170970967E-01
   -1.4220545815E-01   -1.3243853672E-01   -1.2242430841E-01   -1.1217827351E-01
   -1.0171603099E-01   -9.1053240510E-02   -8.0205585078E-02   -6.9188734497E-02
   -5.8018309692E-02   -4.6709848018E-02   -3.5278769634E-02   -2.3740345036E-02
   -1.2109663810E-02   -4.0160469186E-04    1.1369193015E-02    2.3188356607E-02
    3.5041805680E-02    4.6915776329E-02    5.8796843809E-02    7.0671943635E-02
    8.2528391096E-02    9.4353899183E-02    1.0613659491E-01    1.1786503406E-01
    1.2952821428E-01    1.4111558672E-01    1.5261706595E-01    1.6402303849E-01
    1.7532436977E-01    1.8651240958E-01    1.9757899616E-01    2.0851645883E-01
    2.1931761928E-01    2.2997579159E-01    2.4048478088E-01    2.5083888087E-01
    2.6103287018E-01    2.7106200755E-01    2.8092202602E-01    2.9060912604E-01
    3.0011996766E-01    3.0945166182E-01    3.1860176074E-01    3.2756824758E-01
    3.3634952524E-01    3.4494440458E-01    3.5335209187E-01    3.6157217569E-01
    3.6960461331E-01    3.7744971642E-01    3.8510813657E-01    3.9258085000E-01
    3.9986914225E-01    4.0697459234E-01    4.1389905661E-01    4.2064465246E-01
    4.2721374169E-01    4.3360891381E-01    4.3983296910E-01    4.4588890168E-01
    4.5177988245E-01    4.5750924206E-01    4.6308045386E-01    4.6849711698E-01
    4.7376293947E-01    4.7888172163E-01    4.8385733950E-01    4.8869372861E-01
    4.9339486800E-01    4.9796476456E-01    5.0240743778E-01    5.0672690483E-01
    5.1092716615E-01    5.1501219157E-01    5.1898590684E-01    5.2285218092E-01
    5.2661481370E-01    5.3027752458E-01    5.3384394155E-01    5.3731759116E-01
    5.4070188917E-01    5.4400013206E-01    5.4721548927E-01    5.5035099640E-01
    5.5340954925E-01    5.5639389869E-01    5.5930664652E-01    5.6215024219E-01
    5.6492698048E-01    5.6763900006E-01    5.7028828297E-01    5.7287665506E-01
    5.7540578724E-01    5.7787719767E-01    5.8029225474E-01    5.8265218092E-01
    5.8495805736E-01    5.8721082924E-01    5.8941131176E-01    5.9156019693E-01
    5.9365806074E-01    5.9570537104E-01    5.9770249581E-01    5.9964971187E-01
    6.0154721385E-01    6.0339512360E-01    6.0519349958E-01    6.0694234656E-01
    6.0864162530E-01    6.1029126214E-01    6.1189115861E-01    6.1344120082E-01
    6.1494126854E-01    6.1639124410E-01    6.1779102080E-01    6.1914051090E-01
    6.2043965317E-01    6.2168841976E-01    6.2288682259E-01    6.2403491899E-01
    6.2513281668E-01    6.2618067799E-01    6.2717872333E-01    6.2812723384E-01
    6.2902655328E-01    6.2987708907E-01    6.3067931265E-01    6.3143375214E-01
    6.3214096753E-01    6.3280151769E-01    6.3341595526E-01    6.3398483284E-01
    6.3450870179E-01    6.3498811066E-01    6.3542360597E-01    6.3581573186E-01
    6.3616503003E-01    6.3647203971E-01    6.3673729755E-01    6.3696133753E-01
    6.3714469092E-01    6.3728788619E-01    6.3739144898E-01    6.3745590197E-01
    6.3748176488E-01    6.3746955440E-01    6.3741978412E-01    6.3733296446E-01
    6.3720960269E-01    6.3705020280E-01    6.3685526551E-01    6.3662528821E-01
    6.3636076493E-01    6.3606218627E-01    6.3573003941E-01    6.3536480806E-01
    6.3496697240E-01    6.3453700911E-01    6.3407539129E-01    6.3358258847E-01
    6.3305906658E-01    6.3250528790E-01    6.3192171110E-01    6.3130879117E-01
    6.3066697944E-01    6.2999672355E-01    6.2929846743E-01    6.2857265131E-01
    6.2781971173E-01    6.2704008147E-01    6.2623418961E-01    6.2540246148E-01
    6.2454531869E-01    6.2366317913E-01    6.2275645692E-01    6.2182556248E-01
    6.2087090248E-01    6.1989287988E-01    6.1889189390E-01    6.1786834007E-01
    6.1682261019E-01    6.1575509236E-01    6.1466617099E-01    6.1355622681E-01
    6.1242563687E-01    6.1127477457E-01    6.1010400964E-01    6.0891370817E-01
    6.0770423264E-01    6.0647594192E-01    6.0522919125E-01    6.0396433232E-01
    6.0268171323E-01    6.0138167854E-01    6.0006456926E-01    5.9873072288E-01
    5.9738047340E-01    5.9601415132E-01    5.9463208367E-01    5.9323459404E-01
    5.9182200258E-01    5.9039462603E-01    5.8895277773E-01    5.8749676764E-01
    5.8602690237E-01    5.8454348520E-01    5.8304681607E-01    5.8153719164E-01
    5.8001490530E-01    5.7848024715E-01    5.7693350409E-01    5.7537495977E-01
    5.7380489467E-01    5.7222358608E-01    5.7063130813E-01    5.6902833183E-01
    5.6741492506E-01    5.6579135262E-01    5.6415787623E-01    5.6251475455E-01
    5.6086224323E-01    5.5920059489E-01    5.5753005916E-01    5.5585088272E-01
    5.5416330928E-01    5.5246757964E-01    5.5076393166E-01    5.4905260036E-01
    5.4733381786E-01    5.4560781345E-01    5.4387481357E-01    5.4213504189E-01
    5.4038871927E-01    5.3863606381E-01    5.3687729088E-01    5.3511261310E-01
    5.3334224040E-01    5.3156638003E-01    5.2978523657E-01    5.2799901195E-01
    5.2620790547E-01    5.2441211385E-01    5.2261183119E-01    5.2080724905E-01
    5.1899855643E-01    5.1718593981E-01    5.1536958314E-01    5.1354966791E-01
    5.1172637313E-01    5.0989987534E-01    5.0807034867E-01    5.0623796483E-01
    5.0440289313E-01    5.0256530052E-01    5.0072535157E-01    4.9888320853E-01
    4.9703903132E-01    4.9519297757E-01    4.9334520262E-01    4.9149585955E-01
    4.8964509919E-01    4.8779307013E-01    4.8593991879E-01    4.8408578937E-01
    4.8223082389E-01    4.8037516225E-01    4.7851894218E-01    4.7666229931E-01
    4.7480536717E-01    4.7294827721E-01    4.7109115880E-01    4.6923413930E-01
    4.6737734400E-01    4.6552089621E-01    4.6366491724E-01    4.6180952642E-01
    4.5995484115E-01    4.5810097685E-01    4.5624804706E-01    4.5439616339E-01
    4.5254543559E-01    4.5069597152E-01    4.4884787721E-01    4.4700125684E-01
    4.4515621279E-01    4.4331284565E-01    4.4147125422E-01    4.3963153553E-01
    4.3779378490E-01    4.3595809588E-01    4.3412456036E-01    4.3229326849E-01
    4.3046430879E-01    4.2863776811E-01    4.2681373163E-01    4.2499228296E-01
    4.2317350408E-01    4.2135747538E-01    4.1954427568E-01    4.1773398227E-01
    4.1592667087E-01    4.1412241572E-01    4.1232128953E-01    4.1052336354E-01
    4.0872870752E-01    4.0693738978E-01    4.0514947722E-01    4.0336503529E-01
    4.0158412808E-01    3.9980681826E-01    3.9803316716E-01    3.9626323475E-01
    3.9449707966E-01    3.9273475921E-01    3.9097632942E-01    3.8922184503E-01
    3.8747135950E-01    3.8572492504E-01    3.8398259264E-01    3.8224441204E-01
    3.8051043181E-01    3.7878069931E-01    3.7705526073E-01    3.7533416111E-01
    3.7361744434E-01    3.7190515318E-01    3.7019732930E-01    3.6849401326E-01
    3.6679524454E-01    3.6510106155E-01    3.6341150167E-01    3.6172660122E-01
    3.6004639552E-01    3.5837091887E-01    3.5670020458E-01    3.5503428500E-01
    3.5337319149E-01    3.5171695450E-01    3.5006560350E-01    3.4841916707E-01
    3.4677767289E-01    3.4514114772E-01    3.4350961747E-01    3.4188310716E-01
    3.4026164098E-01    3.3864524228E-01    3.3703393356E-01    3.3542773654E-01
    3.3382667213E-01    3.3223076045E-01    3.3064002084E-01    3.2905447191E-01
    3.2747413148E-01    3.2589901667E-01    3.2432914385E-01    3.2276452871E-01
    3.2120518621E-01    3.1965113064E-01    3.1810237561E-01    3.1655893406E-01
    3.1502081829E-01    3.1348803995E-01    3.1196061007E-01    3.1043853905E-01
    3.0892183669E-01    3.0741051219E-01    3.0590457416E-01    3.0440403065E-01
    3.0290888913E-01    3.0141915652E-01    2.9993483919E-01    2.9845594299E-01
    2.9698247325E-01    2.9551443475E-01    2.9405183181E-01    2.9259466822E-01
    2.9114294731E-01    2.8969667193E-01    2.8825584444E-01    2.8682046677E-01
    2.8539054039E-01    2.8396606633E-01    2.8254704519E-01    2.8113347716E-01
    2.7972536199E-01    2.7832269904E-01    2.7692548729E-01    2.7553372529E-01
    2.7414741125E-01    2.7276654298E-01    2.7139111793E-01    2.7002113322E-01
    2.6865658557E-01    2.6729747141E-01    2.6594378680E-01    2.6459552747E-01
    2.6325268886E-01    2.6191526608E-01    2.6058325392E-01    2.5925664688E-01
    2.5793543918E-01    2.5661962475E-01    2.5530919721E-01    2.5400414995E-01
    2.5270447606E-01    2.5141016839E-01    2.5012121951E-01    2.4883762178E-01
    2.4755936728E-01    2.4628644787E-01    2.4501885517E-01    2.4375658059E-01
    2.4249961530E-01    2.4124795026E-01    2.4000157623E-01    2.3876048376E-01
    2.3752466320E-01    2.3629410470E-01    2.3506879823E-01    2.3384873358E-01
    2.3263390033E-01    2.3142428792E-01    2.3021988560E-01    2.2902068247E-01
    2.2782666744E-01    2.2663782930E-01    2.2545415666E-01    2.2427563800E-01
    2.2310226162E-01    2.2193401573E-01    2.2077088836E-01    2.1961286744E-01
    2.1845994075E-01    2.1731209595E-01    2.1616932057E-01    2.1503160205E-01
    2.1389892770E-01    2.1277128469E-01    2.1164866014E-01    2.1053104101E-01
    2.0941841421E-01    2.0831076650E-01    2.0720808459E-01    2.0611035508E-01
    2.0501756448E-01    2.0392969921E-01    2.0284674562E-01    2.0176868998E-01
    2.0069551847E-01    1.9962721720E-01    1.9856377222E-01    1.9750516950E-01
    1.9645139494E-01    1.9540243439E-01    1.9435827363E-01    1.9331889838E-01
    1.9228429429E-01    1.9125444699E-01    1.9022934203E-01    1.8920896491E-01
    1.8819330110E-01    1.8718233600E-01    1.8617605499E-01    1.8517444339E-01
    1.8417748649E-01    1.8318516954E-01    1.8219747775E-01    1.8121439631E-01
    1.8023591034E-01    1.7926200498E-01    1.7829266530E-01    1.7732787637E-01
    1.7636762321E-01    1.7541189084E-01    1.7446066423E-01    1.7351392836E-01
    1.7257166817E-01    1.7163386859E-01    1.7070051451E-01    1.6977159085E-01
    1.6884708247E-01    1.6792697424E-01    1.6701125102E-01    1.6609989766E-01
    1.6519289898E-01    1.6429023983E-01    1.6339190501E-01    1.6249787934E-01
    1.6160814764E-01    1.6072269471E-01    1.5984150536E-01    1.5896456440E-01
    1.5809185662E-01    1.5722336683E-01    1.5635907983E-01    1.5549898045E-01
    1.5464305348E-01    1.5379128374E-01    1.5294365606E-01    1.5210015527E-01
    1.5126076619E-01    1.5042547367E-01    1.4959426257E-01    1.4876711774E-01
    1.4794402405E-01    1.4712496638E-01    1.4630992963E-01    1.4549889870E-01
    1.4469185851E-01    1.4388879398E-01    1.4308969007E-01    1.4229453173E-01
    1.4150330393E-01    1.4071599167E-01    1.3993257995E-01    1.3915305381E-01
    1.3837739827E-01    1.3760559840E-01    1.3683763928E-01    1.3607350600E-01
    1.3531318368E-01    1.3455665747E-01    1.3380391251E-01    1.3305493398E-01
    1.3230970709E-01    1.3156821706E-01    1.3083044913E-01    1.3009638858E-01
    1.2936602068E-01    1.2863933075E-01    1.2791630414E-01    1.2719692620E-01
    1.2648118232E-01    1.2576905792E-01    1.2506053842E-01    1.2435560930E-01
    1.2365425603E-01    1.2295646415E-01    1.2226221918E-01    1.2157150669E-01
    1.2088431229E-01    1.2020062160E-01    1.1952042026E-01    1.1884369396E-01
    1.1817042841E-01    1.1750060933E-01    1.1683422250E-01    1.1617125371E-01
    1.1551168879E-01    1.1485551358E-01    1.1420271397E-01    1.1355327587E-01
    1.1290718523E-01    1.1226442802E-01    1.1162499025E-01    1.1098885794E-01
    1.1035601717E-01    1.0972645404E-01    1.0910015467E-01    1.0847710522E-01
    1.0785729189E-01    1.0724070090E-01    1.0662731852E-01    1.0601713101E-01
    1.0541012472E-01    1.0480628599E-01    1.0420560122E-01    1.0360805681E-01
    1.0301363923E-01    1.0242233496E-01    1.0183413052E-01    1.0124901247E-01
    1.0066696739E-01    1.0008798190E-01    9.9512042663E-02    9.8939136360E-02
    9.8369249719E-02    9.7802369495E-02    9.7238482482E-02    9.6677575505E-02
    9.6119635426E-02    9.5564649141E-02    9.5012603581E-02    9.4463485712E-02
    9.3917282533E-02    9.3373981083E-02    9.2833568431E-02    9.2296031685E-02
    9.1761357986E-02    9.1229534513E-02    9.0700548478E-02    9.0174387131E-02
    8.9651037757E-02    8.9130487676E-02    8.8612724246E-02    8.8097734858E-02
    8.7585506941E-02    8.7076027961E-02    8.6569285420E-02    8.6065266853E-02
    8.5563959836E-02    8.5065351980E-02    8.4569430930E-02    8.4076184370E-02
    8.3585600022E-02    8.3097665641E-02    8.2612369021E-02    8.2129697994E-02
    8.1649640425E-02    8.1172184220E-02    8.0697317319E-02    8.0225027702E-02
    7.9755303383E-02    7.9288132414E-02    7.8823502886E-02    7.8361402925E-02
    7.7901820695E-02    7.7444744398E-02    7.6990162271E-02    7.6538062592E-02
    7.6088433673E-02    7.5641263866E-02    7.5196541558E-02    7.4754255175E-02
    7.4314393180E-02    7.3876944075E-02    7.3441896397E-02    7.3009238723E-02
    7.2578959666E-02    7.2151047877E-02    7.1725492045E-02    7.1302280897E-02
    7.0881403197E-02    7.0462847746E-02    7.0046603385E-02    6.9632658991E-02
    6.9221003479E-02    6.8811625802E-02    6.8404514950E-02    6.7999659953E-02
    6.7597049877E-02    6.7196673825E-02    6.6798520940E-02    6.6402580402E-02
    6.6008841427E-02    6.5617293271E-02    6.5227925229E-02    6.4840726629E-02
    6.4455686842E-02    6.4072795275E-02    6.3692041370E-02    6.3313414612E-02
    6.2936904519E-02    6.2562500650E-02    6.2190192601E-02    6.1819970004E-02
    6.1451822531E-02    6.1085739891E-02    6.0721711831E-02    6.0359728134E-02
    5.9999778623E-02    5.9641853158E-02    5.9285941636E-02    5.8932033993E-02
    5.8580120200E-02    5.8230190268E-02    5.7882234246E-02    5.7536242218E-02
    5.7192204307E-02    5.6850110675E-02    5.6509951518E-02    5.6171717073E-02
    5.5835397613E-02    5.5500983447E-02    5.5168464923E-02    5.4837832426E-02
    5.4509076378E-02    5.4182187240E-02    5.3857155507E-02    5.3533971713E-02
    5.3212626431E-02    5.2893110267E-02    5.2575413867E-02    5.2259527913E-02
    5.1945443126E-02    5.1633150260E-02    5.1322640110E-02    5.1013903504E-02
    5.0706931311E-02    5.0401714434E-02    5.0098243812E-02    4.9796510424E-02
    4.9496505283E-02    4.9198219438E-02    4.8901643978E-02    4.8606770025E-02
    4.8313588738E-02    4.8022091314E-02    4.7732268986E-02    4.7444113021E-02
    4.7157614725E-02    4.6872765439E-02    4.6589556540E-02    4.6307979441E-02
    4.6028025590E-02    4.5749686474E-02    4.5472953612E-02    4.5197818562E-02
    4.4924272916E-02    4.4652308303E-02    4.4381916384E-02    4.4113088861E-02
    4.3845817466E-02    4.3580093972E-02    4.3315910182E-02    4.3053257938E-02
    4.2792129115E-02    4.2532515625E-02    4.2274409413E-02    4.2017802461E-02
    4.1762686784E-02    4.1509054433E-02    4.1256897495E-02    4.1006208088E-02
    4.0756978368E-02    4.0509200525E-02    4.0262866782E-02    4.0017969398E-02
    3.9774500665E-02    3.9532452910E-02    3.9291818495E-02    3.9052589813E-02
    3.8814759296E-02    3.8578319405E-02    3.8343262637E-02    3.8109581524E-02
    3.7877268629E-02    3.7646316550E-02    3.7416717920E-02    3.7188465403E-02
    3.6961551696E-02    3.6735969533E-02    3.6511711677E-02    3.6288770926E-02
    3.6067140112E-02    3.5846812097E-02    3.5627779779E-02    3.5410036087E-02
    3.5193573982E-02    3.4978386461E-02    3.4764466549E-02    3.4551807306E-02
    3.4340401824E-02    3.4130243227E-02    3.3921324671E-02    3.3713639345E-02
    3.3507180468E-02    3.3301941292E-02    3.3097915102E-02    3.2895095213E-02
    3.2693474971E-02    3.2493047756E-02    3.2293806977E-02    3.2095746075E-02
    3.1898858524E-02    3.1703137825E-02    3.1508577515E-02    3.1315171158E-02
    3.1122912351E-02    3.0931794721E-02    3.0741811925E-02    3.0552957652E-02
    3.0365225621E-02    3.0178609580E-02    2.9993103309E-02    2.9808700617E-02
    2.9625395344E-02    2.9443181359E-02    2.9262052562E-02    2.9082002881E-02
    2.8903026276E-02    2.8725116735E-02    2.8548268275E-02    2.8372474945E-02
    2.8197730819E-02    2.8024030004E-02    2.7851366636E-02    2.7679734876E-02
    2.7509128918E-02    2.7339542984E-02    2.7170971323E-02    2.7003408214E-02
    2.6836847964E-02    2.6671284908E-02    2.6506713411E-02    2.6343127864E-02
    2.6180522687E-02    2.6018892329E-02    2.5858231264E-02    2.5698533997E-02
    2.5539795059E-02    2.5382009009E-02    2.5225170434E-02    2.5069273946E-02
    2.4914314187E-02    2.4760285826E-02    2.4607183557E-02    2.4455002102E-02
    2.4303736212E-02    2.4153380661E-02    2.4003930252E-02    2.3855379814E-02
    2.3707724203E-02    2.3560958300E-02    2.3415077015E-02    2.3270075280E-02
    2.3125948057E-02    2.2982690331E-02    2.2840297116E-02    2.2698763448E-02
    2.2558084392E-02    2.2418255036E-02    2.2279270495E-02    2.2141125910E-02
    2.2003816445E-02    2.1867337290E-02    2.1731683662E-02    2.1596850800E-02
    2.1462833969E-02    2.1329628459E-02    2.1197229586E-02    2.1065632687E-02
    2.0934833127E-02    2.0804826293E-02    2.0675607598E-02    2.0547172477E-02
    2.0419516392E-02    2.0292634825E-02    2.0166523286E-02    2.0041177306E-02
    1.9916592441E-02    1.9792764269E-02    1.9669688394E-02    1.9547360440E-02
    1.9425776057E-02    1.9304930917E-02    1.9184820715E-02    1.9065441169E-02
    1.8946788021E-02    1.8828857034E-02    1.8711643995E-02    1.8595144712E-02
    1.8479355017E-02    1.8364270764E-02    1.8249887829E-02    1.8136202109E-02
    1.8023209526E-02    1.7910906022E-02    1.7799287560E-02    1.7688350127E-02
    1.7578089730E-02    1.7468502398E-02    1.7359584182E-02    1.7251331154E-02
    1.7143739408E-02    1.7036805057E-02    1.6930524238E-02    1.6824893107E-02
    1.6719907841E-02    1.6615564639E-02    1.6511859721E-02    1.6408789326E-02
    1.6306349713E-02    1.6204537165E-02    1.6103347981E-02    1.6002778484E-02
    1.5902825014E-02    1.5803483933E-02    1.5704751624E-02    1.5606624486E-02
    1.5509098942E-02    1.5412171431E-02    1.5315838416E-02    1.5220096375E-02
    1.5124941809E-02    1.5030371235E-02    1.4936381193E-02    1.4842968238E-02
    1.4750128948E-02    1.4657859917E-02    1.4566157760E-02    1.4475019109E-02
    1.4384440616E-02    1.4294418952E-02    1.4204950804E-02    1.4116032881E-02
    1.4027661907E-02    1.3939834626E-02    1.3852547801E-02    1.3765798210E-02
    1.3679582653E-02    1.3593897945E-02    1.3508740919E-02    1.3424108428E-02
    1.3339997340E-02    1.3256404543E-02    1.3173326939E-02    1.3090761451E-02
    1.3008705017E-02    1.2927154595E-02    1.2846107155E-02    1.2765559690E-02
    1.2685509207E-02    1.2605952728E-02    1.2526887296E-02    1.2448309968E-02
    1.2370217817E-02    1.2292607936E-02    1.2215477431E-02    1.2138823426E-02
    1.2062643061E-02    1.1986933491E-02    1.1911691890E-02    1.1836915446E-02
    1.1762601363E-02    1.1688746862E-02    1.1615349177E-02    1.1542405563E-02
    1.1469913285E-02    1.1397869627E-02    1.1326271887E-02    1.1255117380E-02
    1.1184403435E-02    1.1114127396E-02    1.1044286624E-02    1.0974878493E-02
    1.0905900392E-02    1.0837349728E-02    1.0769223920E-02    1.0701520402E-02
    1.0634236623E-02    1.0567370049E-02    1.0500918156E-02    1.0434878439E-02
    1.0369248404E-02    1.0304025574E-02    1.0239207485E-02    1.0174791686E-02
    1.0110775743E-02    1.0047157233E-02    9.9839337500E-03    9.9211028995E-03
    9.8586623018E-03    9.7966095909E-03    9.7349424145E-03    9.6736584338E-03
    9.6127553237E-03    9.5522307725E-03    9.4920824819E-03    9.4323081669E-03
    9.3729055560E-03    9.3138723904E-03    9.2552064250E-03    9.1969054274E-03
    9.1389671783E-03    9.0813894712E-03    9.0241701126E-03    8.9673069218E-03
    8.9107977307E-03    8.8546403837E-03    8.7988327383E-03    8.7433726639E-03
    8.6882580427E-03    8.6334867691E-03    8.5790567501E-03    8.5249659046E-03
    8.4712121639E-03    8.4177934713E-03    8.3647077821E-03    8.3119530638E-03
    8.2595272957E-03    8.2074284689E-03    8.1556545862E-03    8.1042036625E-03
    8.0530737239E-03    8.0022628085E-03    7.9517689657E-03    7.9015902564E-03
    7.8517247529E-03    7.8021705390E-03    7.7529257097E-03    7.7039883711E-03
    7.6553566406E-03    7.6070286468E-03    7.5590025290E-03    7.5112764380E-03
    7.4638485350E-03    7.4167169923E-03    7.3698799932E-03    7.3233357313E-03
    7.2770824113E-03    7.2311182482E-03    7.1854414678E-03    7.1400503064E-03
    7.0949430106E-03    7.0501178375E-03    7.0055730545E-03    6.9613069393E-03
    6.9173177799E-03    6.8736038742E-03    6.8301635305E-03    6.7869950670E-03
    6.7440968121E-03    6.7014671038E-03    6.6591042902E-03    6.6170067293E-03
    6.5751727887E-03    6.5336008458E-03    6.4922892877E-03    6.4512365111E-03
    6.4104409223E-03    6.3699009369E-03    6.3296149802E-03    6.2895814869E-03
    6.2497989008E-03    6.2102656752E-03    6.1709802727E-03    6.1319411648E-03
    6.0931468325E-03    6.0545957657E-03    6.0162864633E-03    5.9782174332E-03
    5.9403871924E-03    5.9027942666E-03    5.8654371904E-03    5.8283145072E-03
    5.7914247691E-03    5.7547665370E-03    5.7183383802E-03    5.6821388768E-03
    5.6461666134E-03    5.6104201850E-03    5.5748981952E-03    5.5395992558E-03
    5.5045219872E-03    5.4696650178E-03    5.4350269844E-03    5.4006065321E-03
    5.3664023141E-03    5.3324129915E-03    5.2986372338E-03    5.2650737183E-03
    5.2317211303E-03    5.1985781632E-03    5.1656435181E-03    5.1329159039E-03
    5.1003940374E-03    5.0680766432E-03    5.0359624535E-03    5.0040502081E-03
    4.9723386547E-03    4.9408265482E-03    4.9095126514E-03    4.8783957342E-03
    4.8474745742E-03    4.8167479563E-03    4.7862146729E-03    4.7558735235E-03
    4.7257233150E-03    4.6957628615E-03    4.6659909843E-03    4.6364065119E-03
    4.6070082797E-03    4.5777951305E-03    4.5487659138E-03    4.5199194862E-03
    4.4912547114E-03    4.4627704596E-03    4.4344656084E-03    4.4063390418E-03
    4.3783896507E-03    4.3506163328E-03    4.3230179925E-03    4.2955935408E-03
    4.2683418954E-03    4.2412619805E-03    4.2143527269E-03    4.1876130719E-03
    4.1610419593E-03    4.1346383393E-03    4.1084011685E-03    4.0823294099E-03
    4.0564220328E-03    4.0306780127E-03    4.0050963315E-03    3.9796759772E-03
    3.9544159441E-03    3.9293152324E-03    3.9043728487E-03    3.8795878055E-03
    3.8549591213E-03    3.8304858207E-03    3.8061669342E-03    3.7820014983E-03
    3.7579885553E-03    3.7341271533E-03    3.7104163464E-03    3.6868551945E-03
    3.6634427630E-03    3.6401781232E-03    3.6170603521E-03    3.5940885324E-03
    3.5712617522E-03    3.5485791055E-03    3.5260396914E-03    3.5036426151E-03
    3.4813869868E-03    3.4592719224E-03    3.4372965432E-03    3.4154599758E-03
    3.3937613522E-03    3.3721998099E-03    3.3507744914E-03    3.3294845446E-03
    3.3083291226E-03    3.2873073839E-03    3.2664184920E-03    3.2456616154E-03
    3.2250359280E-03    3.2045406086E-03    3.1841748411E-03    3.1639378143E-03
    3.1438287224E-03    3.1238467639E-03    3.1039911429E-03    3.0842610679E-03
    3.0646557526E-03    3.0451744154E-03    3.0258162794E-03    3.0065805727E-03
    2.9874665281E-03    2.9684733830E-03    2.9496003797E-03    2.9308467650E-03
    2.9122117904E-03    2.8936947121E-03    2.8752947908E-03    2.8570112918E-03
    2.8388434849E-03    2.8207906443E-03    2.8028520490E-03    2.7850269821E-03
    2.7673147314E-03    2.7497145888E-03    2.7322258510E-03    2.7148478186E-03
    2.6975797968E-03    2.6804210951E-03    2.6633710270E-03    2.6464289106E-03
    2.6295940680E-03    2.6128658255E-03    2.5962435136E-03    2.5797264670E-03
    2.5633140245E-03    2.5470055289E-03    2.5308003271E-03    2.5146977702E-03
    2.4986972131E-03    2.4827980148E-03    2.4669995383E-03    2.4513011504E-03
    2.4357022221E-03    2.4202021280E-03    2.4048002467E-03    2.3894959608E-03
    2.3742886564E-03    2.3591777238E-03    2.3441625567E-03    2.3292425528E-03
    2.3144171135E-03    2.2996856439E-03    2.2850475527E-03    2.2705022524E-03
    2.2560491592E-03    2.2416876927E-03    2.2274172762E-03    2.2132373368E-03
    2.1991473048E-03    2.1851466142E-03    2.1712347027E-03    2.1574110112E-03
    2.1436749842E-03    2.1300260697E-03    2.1164637191E-03    2.1029873871E-03
    2.0895965320E-03    2.0762906153E-03    2.0630691020E-03    2.0499314602E-03
    2.0368771615E-03    2.0239056808E-03    2.0110164961E-03    1.9982090889E-03
    1.9854829436E-03    1.9728375482E-03    1.9602723935E-03    1.9477869738E-03
    1.9353807863E-03    1.9230533316E-03    1.9108041131E-03    1.8986326374E-03
    1.8865384144E-03    1.8745209568E-03    1.8625797805E-03    1.8507144041E-03
    1.8389243497E-03    1.8272091420E-03    1.8155683088E-03    1.8040013809E-03
    1.7925078918E-03    1.7810873782E-03    1.7697393795E-03    1.7584634381E-03
    1.7472590992E-03    1.7361259108E-03    1.7250634237E-03    1.7140711916E-03
    1.7031487710E-03    1.6922957211E-03    1.6815116039E-03    1.6707959841E-03
    1.6601484290E-03    1.6495685090E-03    1.6390557967E-03    1.6286098676E-03
    1.6182303000E-03    1.6079166746E-03    1.5976685747E-03    1.5874855865E-03
    1.5773672986E-03    1.5673133020E-03    1.5573231905E-03    1.5473965605E-03
    1.5375330107E-03    1.5277321424E-03    1.5179935594E-03    1.5083168681E-03
    1.4987016771E-03    1.4891475977E-03    1.4796542435E-03    1.4702212306E-03
    1.4608481775E-03    1.4515347049E-03    1.4422804362E-03    1.4330849968E-03
    1.4239480148E-03    1.4148691205E-03    1.4058479463E-03    1.3968841272E-03
    1.3879773003E-03    1.3791271052E-03    1.3703331835E-03    1.3615951791E-03
    1.3529127384E-03    1.3442855096E-03    1.3357131434E-03    1.3271952926E-03
    1.3187316121E-03    1.3103217592E-03    1.3019653932E-03    1.2936621754E-03
    1.2854117695E-03    1.2772138410E-03    1.2690680579E-03    1.2609740899E-03
    1.2529316090E-03    1.2449402892E-03    1.2369998064E-03    1.2291098389E-03
    1.2212700667E-03    1.2134801718E-03    1.2057398385E-03    1.1980487527E-03
    1.1904066026E-03    1.1828130782E-03    1.1752678713E-03    1.1677706761E-03
    1.1603211882E-03    1.1529191054E-03    1.1455641274E-03    1.1382559556E-03
    1.1309942936E-03    1.1237788465E-03    1.1166093215E-03    1.1094854275E-03
   </PP_CHI.2>
 </PP_PSWFC>
 <PP_RHOATOM type="real"  size="1356" columns="4">
    0.0000000000E+00    3.5079004268E-03    1.4015217066E-02    3.1472890167E-02
    5.5799466727E-02    8.6881568077E-02    1.2457453999E-01    1.6870328079E-01
    2.1906324182E-01    2.7542159325E-01    3.3751854743E-01    4.0506883054E-01
    4.7776329258E-01    5.5527064470E-01    6.3723931222E-01    7.2329939065E-01
    8.1306469174E-01    9.0613486580E-01    1.0020975863E+00    1.1005307822E+00
    1.2010049037E+00    1.3030852064E+00    1.4063340392E+00    1.5103131220E+00
    1.6145857979E+00    1.7187192469E+00    1.8222866468E+00    1.9248692690E+00
    2.0260584965E+00    2.1254577521E+00    2.2226843271E+00    2.3173710996E+00
    2.4091681329E+00    2.4977441477E+00    2.5827878597E+00    2.6640091764E+00
    2.7411402497E+00    2.8139363794E+00    2.8821767645E+00    2.9456651029E+00
    3.0042300367E+00    3.0577254448E+00    3.1060305852E+00    3.1490500886E+00
    3.1867138073E+00    3.2189765249E+00    3.2458175310E+00    3.2672400681E+00
    3.2832706582E+00    3.2939583147E+00    3.2993736509E+00    3.2996078911E+00
    3.2947717957E+00    3.2849945080E+00    3.2704223341E+00    3.2512174647E+00
    3.2275566493E+00    3.1996298332E+00    3.1676387664E+00    3.1317955951E+00
    3.0923214447E+00    3.0494450044E+00    3.0034011215E+00    2.9544294146E+00
    2.9027729136E+00    2.8486767335E+00    2.7923867912E+00    2.7341485679E+00
    2.6742059277E+00    2.6127999935E+00    2.5501680873E+00    2.4865427384E+00
    2.4221507619E+00    2.3572124115E+00    2.2919406075E+00    2.2265402419E+00
    2.1612075621E+00    2.0961296318E+00    2.0314838702E+00    1.9674376676E+00
    1.9041480777E+00    1.8417615816E+00    1.7804139254E+00    1.7202300250E+00
    1.6613239376E+00    1.6037988948E+00    1.5477473958E+00    1.4932513549E+00
    1.4403823001E+00    1.3892016194E+00    1.3397608498E+00    1.2921020041E+00
    1.2462579331E+00    1.2022527171E+00    1.1601020833E+00    1.1198138447E+00
    1.0813883563E+00    1.0448189851E+00    1.0100925897E+00    9.7719000513E-01
    9.4608653125E-01    9.1675241960E-01    8.8915335671E-01    8.6325094056E-01
    8.3900314781E-01    8.1636478921E-01    7.9528795123E-01    7.7572242189E-01
    7.5761609914E-01    7.4091538036E-01    7.2556553181E-01    7.1151103698E-01
    6.9869592315E-01    6.8706406555E-01    6.7655946884E-01    6.6712652558E-01
    6.5871025193E-01    6.5125650055E-01    6.4471215112E-01    6.3902527892E-01
    6.3414530205E-01    6.3002310796E-01    6.2661116014E-01    6.2386358580E-01
    6.2173624549E-01    6.2018678568E-01    6.1917467534E-01    6.1866122766E-01
    6.1860960789E-01    6.1898482860E-01    6.1975373339E-01    6.2088497011E-01
    6.2234895490E-01    6.2411782793E-01    6.2616540205E-01    6.2846710530E-01
    6.3099991829E-01    6.3374230749E-01    6.3667415512E-01    6.3977668674E-01
    6.4303239722E-01    6.4642497574E-01    6.4993923078E-01    6.5356101544E-01
    6.5727715389E-01    6.6107536939E-01    6.6494421427E-01    6.6887300253E-01
    6.7285174508E-01    6.7687108826E-01    6.8092225568E-01    6.8499699372E-01
    6.8908752073E-01    6.9318648018E-01    6.9728689784E-01    7.0138214282E-01
    7.0546589282E-01    7.0953210319E-01    7.1357498006E-01    7.1758895717E-01
    7.2156867650E-01    7.2550897232E-01    7.2940485877E-01    7.3325152045E-01
    7.3704430608E-01    7.4077872480E-01    7.4445044502E-01    7.4805529541E-01
    7.5158926789E-01    7.5504852226E-01    7.5842939225E-01    7.6172839265E-01
    7.6494222725E-01    7.6806779743E-01    7.7110221089E-01    7.7404279048E-01
    7.7688708282E-01    7.7963286631E-01    7.8227815859E-01    7.8482122299E-01
    7.8726057392E-01    7.8959498087E-01    7.9182347095E-01    7.9394533003E-01
    7.9596010185E-01    7.9786758594E-01    7.9966783334E-01    8.0136112175E-01
    8.0294788198E-01    8.0442860233E-01    8.0580381211E-01    8.0707409652E-01
    8.0824009136E-01    8.0930247635E-01    8.1026197528E-01    8.1111935313E-01
    8.1187541398E-01    8.1253099898E-01    8.1308698433E-01    8.1354427932E-01
    8.1390382445E-01    8.1416658964E-01    8.1433357247E-01    8.1440579646E-01
    8.1438430946E-01    8.1427018204E-01    8.1406450598E-01    8.1376839281E-01
    8.1338297232E-01    8.1290939127E-01    8.1234881200E-01    8.1170241119E-01
    8.1097137858E-01    8.1015691585E-01    8.0926023539E-01    8.0828255928E-01
    8.0722511815E-01    8.0608915021E-01    8.0487590026E-01    8.0358661870E-01
    8.0222256068E-01    8.0078498515E-01    7.9927515408E-01    7.9769433165E-01
    7.9604378340E-01    7.9432477559E-01    7.9253857439E-01    7.9068644524E-01
    7.8876965220E-01    7.8678945728E-01    7.8474711988E-01    7.8264389618E-01
    7.8048103861E-01    7.7825979528E-01    7.7598140953E-01    7.7364711943E-01
    7.7125815728E-01    7.6881574923E-01    7.6632111481E-01    7.6377546658E-01
    7.6118000971E-01    7.5853594163E-01    7.5584445171E-01    7.5310672092E-01
    7.5032392151E-01    7.4749721674E-01    7.4462776059E-01    7.4171669751E-01
    7.3876516216E-01    7.3577427920E-01    7.3274516306E-01    7.2967891775E-01
    7.2657663663E-01    7.2343940229E-01    7.2026828634E-01    7.1706434926E-01
    7.1382864029E-01    7.1056219725E-01    7.0726604646E-01    7.0394120259E-01
    7.0058866859E-01    6.9720943558E-01    6.9380448278E-01    6.9037477740E-01
    6.8692127463E-01    6.8344491751E-01    6.7994663697E-01    6.7642735167E-01
    6.7288796809E-01    6.6932938039E-01    6.6575247047E-01    6.6215810790E-01
    6.5854714993E-01    6.5492044149E-01    6.5127881519E-01    6.4762309131E-01
    6.4395407784E-01    6.4027257046E-01    6.3657935262E-01    6.3287519550E-01
    6.2916085808E-01    6.2543708718E-01    6.2170461746E-01    6.1796417153E-01
    6.1421645992E-01    6.1046218119E-01    6.0670202195E-01    6.0293665695E-01
    5.9916674910E-01    5.9539294957E-01    5.9161589783E-01    5.8783622175E-01
    5.8405453762E-01    5.8027145029E-01    5.7648755320E-01    5.7270342848E-01
    5.6891964701E-01    5.6513676854E-01    5.6135534174E-01    5.5757590430E-01
    5.5379898303E-01    5.5002509394E-01    5.4625474231E-01    5.4248842284E-01
    5.3872661969E-01    5.3496980661E-01    5.3121844701E-01    5.2747299410E-01
    5.2373389093E-01    5.2000157055E-01    5.1627645609E-01    5.1255896085E-01
    5.0884948841E-01    5.0514843274E-01    5.0145617832E-01    4.9777310021E-01
    4.9409956417E-01    4.9043592680E-01    4.8678253560E-01    4.8313972908E-01
    4.7950783692E-01    4.7588718002E-01    4.7227807065E-01    4.6868081251E-01
    4.6509570090E-01    4.6152302278E-01    4.5796305692E-01    4.5441607396E-01
    4.5088233656E-01    4.4736209950E-01    4.4385560977E-01    4.4036310671E-01
    4.3688482209E-01    4.3342098025E-01    4.2997179817E-01    4.2653748560E-01
    4.2311824518E-01    4.1971427252E-01    4.1632575633E-01    4.1295287851E-01
    4.0959581427E-01    4.0625473223E-01    4.0292979452E-01    3.9962115691E-01
    3.9632896887E-01    3.9305337372E-01    3.8979450869E-01    3.8655250508E-01
    3.8332748829E-01    3.8011957800E-01    3.7692888820E-01    3.7375552733E-01
    3.7059959838E-01    3.6746119896E-01    3.6434042145E-01    3.6123735304E-01
    3.5815207585E-01    3.5508466705E-01    3.5203519892E-01    3.4900373895E-01
    3.4599034996E-01    3.4299509015E-01    3.4001801323E-01    3.3705916851E-01
    3.3411860094E-01    3.3119635128E-01    3.2829245610E-01    3.2540694793E-01
    3.2253985534E-01    3.1969120300E-01    3.1686101177E-01    3.1404929881E-01
    3.1125607762E-01    3.0848135816E-01    3.0572514692E-01    3.0298744699E-01
    3.0026825814E-01    2.9756757690E-01    2.9488539666E-01    2.9222170769E-01
    2.8957649729E-01    2.8694974980E-01    2.8434144668E-01    2.8175156664E-01
    2.7918008565E-01    2.7662697701E-01    2.7409221146E-01    2.7157575722E-01
    2.6907758008E-01    2.6659764341E-01    2.6413590830E-01    2.6169233357E-01
    2.5926687586E-01    2.5685948967E-01    2.5447012745E-01    2.5209873963E-01
    2.4974527470E-01    2.4740967927E-01    2.4509189809E-01    2.4279187417E-01
    2.4050954877E-01    2.3824486150E-01    2.3599775037E-01    2.3376815179E-01
    2.3155600070E-01    2.2936123057E-01    2.2718377346E-01    2.2502356006E-01
    2.2288051978E-01    2.2075458072E-01    2.1864566981E-01    2.1655371277E-01
    2.1447863422E-01    2.1242035767E-01    2.1037880560E-01    2.0835389949E-01
    2.0634555986E-01    2.0435370631E-01    2.0237825757E-01    2.0041913150E-01
    1.9847624520E-01    1.9654951496E-01    1.9463885637E-01    1.9274418432E-01
    1.9086541303E-01    1.8900245610E-01    1.8715522653E-01    1.8532363679E-01
    1.8350759878E-01    1.8170702392E-01    1.7992182318E-01    1.7815190706E-01
    1.7639718569E-01    1.7465756878E-01    1.7293296572E-01    1.7122328556E-01
    1.6952843704E-01    1.6784832866E-01    1.6618286863E-01    1.6453196498E-01
    1.6289552550E-01    1.6127345783E-01    1.5966566945E-01    1.5807206770E-01
    1.5649255982E-01    1.5492705296E-01    1.5337545419E-01    1.5183767054E-01
    1.5031360902E-01    1.4880317662E-01    1.4730628033E-01    1.4582282717E-01
    1.4435272422E-01    1.4289587860E-01    1.4145219751E-01    1.4002158825E-01
    1.3860395821E-01    1.3719921494E-01    1.3580726608E-01    1.3442801945E-01
    1.3306138304E-01    1.3170726500E-01    1.3036557367E-01    1.2903621762E-01
    1.2771910562E-01    1.2641414665E-01    1.2512124995E-01    1.2384032502E-01
    1.2257128160E-01    1.2131402970E-01    1.2006847962E-01    1.1883454196E-01
    1.1761212759E-01    1.1640114772E-01    1.1520151386E-01    1.1401313785E-01
    1.1283593186E-01    1.1166980841E-01    1.1051468035E-01    1.0937046090E-01
    1.0823706365E-01    1.0711440253E-01    1.0600239188E-01    1.0490094640E-01
    1.0380998119E-01    1.0272941171E-01    1.0165915386E-01    1.0059912393E-01
    9.9549238594E-02    9.8509414971E-02    9.7479570578E-02    9.6459623357E-02
    9.5449491674E-02    9.4449094326E-02    9.3458350539E-02    9.2477179976E-02
    9.1505502739E-02    9.0543239369E-02    8.9590310855E-02    8.8646638630E-02
    8.7712144577E-02    8.6786751033E-02    8.5870380785E-02    8.4962957078E-02
    8.4064403616E-02    8.3174644560E-02    8.2293604533E-02    8.1421208619E-02
    8.0557382367E-02    7.9702051791E-02    7.8855143368E-02    7.8016584045E-02
    7.7186301232E-02    7.6364222812E-02    7.5550277131E-02    7.4744393008E-02
    7.3946499730E-02    7.3156527051E-02    7.2374405196E-02    7.1600064861E-02
    7.0833437208E-02    7.0074453871E-02    6.9323046950E-02    6.8579149015E-02
    6.7842693104E-02    6.7113612721E-02    6.6391841838E-02    6.5677314893E-02
    6.4969966788E-02    6.4269732890E-02    6.3576549031E-02    6.2890351503E-02
    6.2211077061E-02    6.1538662920E-02    6.0873046754E-02    6.0214166696E-02
    5.9561961334E-02    5.8916369713E-02    5.8277331330E-02    5.7644786136E-02
    5.7018674533E-02    5.6398937372E-02    5.5785515952E-02    5.5178352019E-02
    5.4577387763E-02    5.3982565817E-02    5.3393829255E-02    5.2811121592E-02
    5.2234386778E-02    5.1663569202E-02    5.1098613684E-02    5.0539465477E-02
    4.9986070266E-02    4.9438374161E-02    4.8896323701E-02    4.8359865847E-02
    4.7828947984E-02    4.7303517916E-02    4.6783523866E-02    4.6268914470E-02
    4.5759638783E-02    4.5255646266E-02    4.4756886793E-02    4.4263310646E-02
    4.3774868509E-02    4.3291511471E-02    4.2813191023E-02    4.2339859051E-02
    4.1871467841E-02    4.1407970071E-02    4.0949318811E-02    4.0495467521E-02
    4.0046370049E-02    3.9601980626E-02    3.9162253868E-02    3.8727144770E-02
    3.8296608705E-02    3.7870601423E-02    3.7449079047E-02    3.7031998071E-02
    3.6619315358E-02    3.6210988138E-02    3.5806974005E-02    3.5407230915E-02
    3.5011717184E-02    3.4620391483E-02    3.4233212843E-02    3.3850140642E-02
    3.3471134613E-02    3.3096154835E-02    3.2725161731E-02    3.2358116071E-02
    3.1994978965E-02    3.1635711860E-02    3.1280276541E-02    3.0928635128E-02
    3.0580750071E-02    3.0236584152E-02    2.9896100477E-02    2.9559262481E-02
    2.9226033919E-02    2.8896378867E-02    2.8570261720E-02    2.8247647190E-02
    2.7928500300E-02    2.7612786387E-02    2.7300471096E-02    2.6991520379E-02
    2.6685900493E-02    2.6383577998E-02    2.6084519756E-02    2.5788692923E-02
    2.5496064954E-02    2.5206603599E-02    2.4920276896E-02    2.4637053175E-02
    2.4356901053E-02    2.4079789432E-02    2.3805687497E-02    2.3534564715E-02
    2.3266390829E-02    2.3001135861E-02    2.2738770108E-02    2.2479264137E-02
    2.2222588788E-02    2.1968715168E-02    2.1717614650E-02    2.1469258873E-02
    2.1223619735E-02    2.0980669398E-02    2.0740380279E-02    2.0502725053E-02
    2.0267676647E-02    2.0035208243E-02    1.9805293270E-02    1.9577905408E-02
    1.9353018581E-02    1.9130606958E-02    1.8910644951E-02    1.8693107211E-02
    1.8477968629E-02    1.8265204331E-02    1.8054789679E-02    1.7846700266E-02
    1.7640911917E-02    1.7437400687E-02    1.7236142855E-02    1.7037114929E-02
    1.6840293639E-02    1.6645655935E-02    1.6453178988E-02    1.6262840189E-02
    1.6074617142E-02    1.5888487667E-02    1.5704429796E-02    1.5522421774E-02
    1.5342442052E-02    1.5164469291E-02    1.4988482356E-02    1.4814460317E-02
    1.4642382446E-02    1.4472228215E-02    1.4303977296E-02    1.4137609557E-02
    1.3973105062E-02    1.3810444070E-02    1.3649607031E-02    1.3490574585E-02
    1.3333327563E-02    1.3177846982E-02    1.3024114045E-02    1.2872110140E-02
    1.2721816835E-02    1.2573215883E-02    1.2426289214E-02    1.2281018937E-02
    1.2137387335E-02    1.1995376870E-02    1.1854970173E-02    1.1716150051E-02
    1.1578899478E-02    1.1443201598E-02    1.1309039724E-02    1.1176397333E-02
    1.1045258068E-02    1.0915605732E-02    1.0787424293E-02    1.0660697878E-02
    1.0535410772E-02    1.0411547419E-02    1.0289092418E-02    1.0168030522E-02
    1.0048346638E-02    9.9300258250E-03    9.8130532916E-03    9.6974143963E-03
    9.5830946452E-03    9.4700796910E-03    9.3583553312E-03    9.2479075076E-03
    9.1387223041E-03    9.0307859464E-03    8.9240847996E-03    8.8186053680E-03
    8.7143342930E-03    8.6112583525E-03    8.5093644593E-03    8.4086396596E-03
    8.3090711327E-03    8.2106461886E-03    8.1133522679E-03    8.0171769396E-03
    7.9221079009E-03    7.8281329752E-03    7.7352401114E-03    7.6434173826E-03
    7.5526529848E-03    7.4629352361E-03    7.3742525753E-03    7.2865935608E-03
    7.1999468697E-03    7.1143012963E-03    7.0296457514E-03    6.9459692610E-03
    6.8632609652E-03    6.7815101173E-03    6.7007060825E-03    6.6208383371E-03
    6.5418964670E-03    6.4638701675E-03    6.3867492412E-03    6.3105235980E-03
    6.2351832532E-03    6.1607183271E-03    6.0871190439E-03    6.0143757303E-03
    5.9424788153E-03    5.8714188282E-03    5.8011863986E-03    5.7317722548E-03
    5.6631672233E-03    5.5953622274E-03    5.5283482865E-03    5.4621165155E-03
    5.3966581230E-03    5.3319644115E-03    5.2680267756E-03    5.2048367015E-03
    5.1423857660E-03    5.0806656357E-03    5.0196680662E-03    4.9593849008E-03
    4.8998080704E-03    4.8409295918E-03    4.7827415675E-03    4.7252361845E-03
    4.6684057135E-03    4.6122425084E-03    4.5567390051E-03    4.5018877208E-03
    4.4476812532E-03    4.3941122799E-03    4.3411735572E-03    4.2888579197E-03
    4.2371582795E-03    4.1860676249E-03    4.1355790205E-03    4.0856856056E-03
    4.0363805942E-03    3.9876572735E-03    3.9395090039E-03    3.8919292176E-03
    3.8449114186E-03    3.7984491812E-03    3.7525361498E-03    3.7071660382E-03
    3.6623326285E-03    3.6180297708E-03    3.5742513825E-03    3.5309914473E-03
    3.4882440148E-03    3.4460031999E-03    3.4042631818E-03    3.3630182035E-03
    3.3222625714E-03    3.2819906543E-03    3.2421968830E-03    3.2028757494E-03
    3.1640218063E-03    3.1256296662E-03    3.0876940012E-03    3.0502095423E-03
    3.0131710784E-03    2.9765734562E-03    2.9404115793E-03    2.9046804078E-03
    2.8693749576E-03    2.8344902996E-03    2.8000215598E-03    2.7659639180E-03
    2.7323126076E-03    2.6990629150E-03    2.6662101791E-03    2.6337497907E-03
    2.6016771917E-03    2.5699878750E-03    2.5386773839E-03    2.5077413113E-03
    2.4771752993E-03    2.4469750388E-03    2.4171362688E-03    2.3876547762E-03
    2.3585263949E-03    2.3297470055E-03    2.3013125349E-03    2.2732189557E-03
    2.2454622858E-03    2.2180385877E-03    2.1909439682E-03    2.1641745781E-03
    2.1377266114E-03    2.1115963049E-03    2.0857799381E-03    2.0602738323E-03
    2.0350743502E-03    2.0101778959E-03    1.9855809140E-03    1.9612798893E-03
    1.9372713464E-03    1.9135518493E-03    1.8901180009E-03    1.8669664426E-03
    1.8440938540E-03    1.8214969524E-03    1.7991724922E-03    1.7771172649E-03
    1.7553280986E-03    1.7338018571E-03    1.7125354403E-03    1.6915257832E-03
    1.6707698559E-03    1.6502646629E-03    1.6300072430E-03    1.6099946690E-03
    1.5902240467E-03    1.5706925154E-03    1.5513972469E-03    1.5323354456E-03
    1.5135043477E-03    1.4949012211E-03    1.4765233653E-03    1.4583681103E-03
    1.4404328173E-03    1.4227148773E-03    1.4052117117E-03    1.3879207713E-03
    1.3708395363E-03    1.3539655160E-03    1.3372962482E-03    1.3208292992E-03
    1.3045622633E-03    1.2884927627E-03    1.2726184468E-03    1.2569369924E-03
    1.2414461028E-03    1.2261435084E-03    1.2110269652E-03    1.1960942557E-03
    1.1813431877E-03    1.1667715947E-03    1.1523773351E-03    1.1381582921E-03
    1.1241123738E-03    1.1102375121E-03    1.0965316632E-03    1.0829928071E-03
    1.0696189470E-03    1.0564081097E-03    1.0433583447E-03    1.0304677241E-03
    1.0177343428E-03    1.0051563177E-03    9.9273178762E-04    9.8045891313E-04
    9.6833587628E-04    9.5636088034E-04    9.4453214956E-04    9.3284792892E-04
    9.2130648394E-04    9.0990610042E-04    8.9864508421E-04    8.8752176101E-04
    8.7653447610E-04    8.6568159417E-04    8.5496149908E-04    8.4437259362E-04
    8.3391329934E-04    8.2358205631E-04    8.1337732292E-04    8.0329757566E-04
    7.9334130894E-04    7.8350703485E-04    7.7379328302E-04    7.6419860033E-04
    7.5472155082E-04    7.4536071540E-04    7.3611469172E-04    7.2698209396E-04
    7.1796155264E-04    7.0905171443E-04    7.0025124198E-04    6.9155881372E-04
    6.8297312370E-04    6.7449288139E-04    6.6611681152E-04    6.5784365391E-04
    6.4967216327E-04    6.4160110906E-04    6.3362927530E-04    6.2575546043E-04
    6.1797847710E-04    6.1029715206E-04    6.0271032596E-04    5.9521685319E-04
    5.8781560176E-04    5.8050545310E-04    5.7328530192E-04    5.6615405609E-04
    5.5911063642E-04    5.5215397658E-04    5.4528302290E-04    5.3849673426E-04
    5.3179408194E-04    5.2517404945E-04    5.1863563240E-04    5.1217783840E-04
    5.0579968685E-04    4.9950020886E-04    4.9327844712E-04    4.8713345569E-04
    4.8106429996E-04    4.7507005646E-04    4.6914981277E-04    4.6330266735E-04
    4.5752772944E-04    4.5182411893E-04    4.4619096626E-04    4.4062741223E-04
    4.3513260795E-04    4.2970571469E-04    4.2434590377E-04    4.1905235642E-04
    4.1382426370E-04    4.0866082635E-04    4.0356125471E-04    3.9852476859E-04
    3.9355059715E-04    3.8863797881E-04    3.8378616114E-04    3.7899440073E-04
    3.7426196312E-04    3.6958812267E-04    3.6497216246E-04    3.6041337419E-04
    3.5591105809E-04    3.5146452279E-04    3.4707308528E-04    3.4273607073E-04
    3.3845281246E-04    3.3422265183E-04    3.3004493810E-04    3.2591902842E-04
    3.2184428766E-04    3.1782008837E-04    3.1384581065E-04    3.0992084210E-04
    3.0604457770E-04    3.0221641974E-04    2.9843577774E-04    2.9470206833E-04
    2.9101471521E-04    2.8737314905E-04    2.8377680738E-04    2.8022513456E-04
    2.7671758166E-04    2.7325360639E-04    2.6983267303E-04    2.6645425235E-04
    2.6311782152E-04    2.5982286406E-04    2.5656886973E-04    2.5335533449E-04
    2.5018176040E-04    2.4704765556E-04    2.4395253406E-04    2.4089591585E-04
    2.3787732673E-04    2.3489629826E-04    2.3195236766E-04    2.2904507781E-04
    2.2617397712E-04    2.2333861948E-04    2.2053856424E-04    2.1777337606E-04
    2.1504262493E-04    2.1234588606E-04    2.0968273982E-04    2.0705277170E-04
    2.0445557224E-04    2.0189073694E-04    1.9935786625E-04    1.9685656548E-04
    1.9438644476E-04    1.9194711895E-04    1.8953820763E-04    1.8715933499E-04
    1.8481012983E-04    1.8249022546E-04    1.8019925969E-04    1.7793687471E-04
    1.7570271712E-04    1.7349643781E-04    1.7131769194E-04    1.6916613888E-04
    1.6704144217E-04    1.6494326945E-04    1.6287129244E-04    1.6082518686E-04
    1.5880463239E-04    1.5680931265E-04    1.5483891511E-04    1.5289313108E-04
    1.5097165563E-04    1.4907418759E-04    1.4720042944E-04    1.4535008735E-04
    1.4352287105E-04    1.4171849385E-04    1.3993667256E-04    1.3817712747E-04
    1.3643958230E-04    1.3472376414E-04    1.3302940346E-04    1.3135623401E-04
    1.2970399281E-04    1.2807242011E-04    1.2646125937E-04    1.2487025716E-04
    1.2329916319E-04    1.2174773024E-04    1.2021571412E-04    1.1870287364E-04
    1.1720897059E-04    1.1573376967E-04    1.1427703847E-04    1.1283854745E-04
    1.1141806991E-04    1.1001538189E-04    1.0863026223E-04    1.0726249247E-04
    1.0591185684E-04    1.0457814224E-04    1.0326113818E-04    1.0196063676E-04
    1.0067643265E-04    9.9408323046E-05    9.8156107644E-05    9.6919588607E-05
    9.5698570534E-05    9.4492860438E-05    9.3302267706E-05    9.2126604080E-05
    9.0965683621E-05    8.9819322685E-05    8.8687339895E-05    8.7569556110E-05
    8.6465794401E-05    8.5375880023E-05    8.4299640390E-05    8.3236905044E-05
    8.2187505635E-05    8.1151275891E-05    8.0128051595E-05    7.9117670559E-05
    7.8119972600E-05    7.7134799513E-05    7.6161995051E-05    7.5201404897E-05
    7.4252876645E-05    7.3316259771E-05    7.2391405616E-05    7.1478167357E-05
    7.0576399992E-05    6.9685960308E-05    6.8806706869E-05    6.7938499989E-05
    6.7081201712E-05    6.6234675790E-05    6.5398787660E-05    6.4573404430E-05
    6.3758394852E-05    6.2953629305E-05    6.2158979773E-05    6.1374319830E-05
    6.0599524614E-05    5.9834470813E-05    5.9079036643E-05    5.8333101829E-05
    5.7596547592E-05    5.6869256623E-05    5.6151113070E-05    5.5442002518E-05
    5.4741811971E-05    5.4050429838E-05    5.3367745911E-05    5.2693651352E-05
    5.2028038673E-05    5.1370801722E-05    5.0721835665E-05    5.0081036971E-05
    4.9448303394E-05    4.8823533959E-05    4.8206628947E-05    4.7597489878E-05
    4.6996019494E-05    4.6402121749E-05    4.5815701789E-05    4.5236665942E-05
    4.4664921699E-05    4.4100377702E-05    4.3542943731E-05    4.2992530687E-05
    4.2449050579E-05    4.1912416514E-05    4.1382542677E-05    4.0859344323E-05
    4.0342737764E-05    3.9832640351E-05    3.9328970464E-05    3.8831647502E-05
    3.8340591867E-05    3.7855724951E-05    3.7376969127E-05    3.6904247736E-05
    3.6437485072E-05    3.5976606374E-05    3.5521537813E-05    3.5072206479E-05
    3.4628540373E-05    3.4190468393E-05    3.3757920322E-05    3.3330826821E-05
    3.2909119415E-05    3.2492730484E-05    3.2081593249E-05    3.1675641767E-05
    3.1274810917E-05    3.0879036391E-05    3.0488254684E-05    3.0102403081E-05
    2.9721419654E-05    2.9345243245E-05    2.8973813462E-05    2.8607070666E-05
    2.8244955963E-05    2.7887411194E-05    2.7534378928E-05    2.7185802450E-05
    2.6841625755E-05    2.6501793537E-05    2.6166251182E-05    2.5834944757E-05
    2.5507821006E-05    2.5184827335E-05    2.4865911811E-05    2.4551023149E-05
    2.4240110704E-05    2.3933124466E-05    2.3630015052E-05    2.3330733692E-05
    2.3035232232E-05    2.2743463115E-05    2.2455379384E-05    2.2170934665E-05
    2.1890083167E-05    2.1612779673E-05    2.1338979529E-05    2.1068638643E-05
    2.0801713474E-05    2.0538161024E-05    2.0277938837E-05    2.0021004986E-05
    1.9767318071E-05    1.9516837209E-05    1.9269522030E-05    1.9025332670E-05
    1.8784229764E-05    1.8546174440E-05    1.8311128313E-05    1.8079053480E-05
    1.7849912512E-05    1.7623668451E-05    1.7400284800E-05    1.7179725519E-05
    1.6961955024E-05    1.6746938174E-05    1.6534640268E-05    1.6325027043E-05
    1.6118064663E-05    1.5913719718E-05    1.5711959217E-05    1.5512750582E-05
    1.5316061645E-05    1.5121860640E-05    1.4930116201E-05    1.4740797356E-05
    1.4553873521E-05    1.4369314494E-05    1.4187090455E-05    1.4007171958E-05
    1.3829529924E-05    1.3654135644E-05    1.3480960764E-05    1.3309977289E-05
    1.3141157576E-05    1.2974474328E-05    1.2809900591E-05    1.2647409751E-05
    1.2486975525E-05    1.2328571964E-05    1.2172173443E-05    1.2017754660E-05
    1.1865290629E-05    1.1714756680E-05    1.1566128453E-05    1.1419381893E-05
    1.1274493248E-05    1.1131439065E-05    1.0990196184E-05    1.0850741739E-05
    1.0713053150E-05    1.0577108121E-05    1.0442884636E-05    1.0310360956E-05
    1.0179515617E-05    1.0050327423E-05    9.9227754447E-06    9.7968390175E-06
    9.6724977359E-06    9.5497314511E-06    9.4285202682E-06    9.3088445423E-06
    9.1906848758E-06    9.0740221154E-06    8.9588373485E-06    8.8451119008E-06
    8.7328273332E-06    8.6219654386E-06    8.5125082390E-06    8.4044379828E-06
    8.2977371421E-06    8.1923884094E-06    8.0883746952E-06    7.9856791255E-06
    7.8842850387E-06    7.7841759828E-06    7.6853357135E-06    7.5877481906E-06
    7.4913975763E-06    7.3962682322E-06    7.3023447169E-06    7.2096117837E-06
    7.1180543781E-06    7.0276576351E-06    6.9384068771E-06    6.8502876113E-06
    6.7632855280E-06    6.6773864973E-06    6.5925765678E-06    6.5088419641E-06
    6.4261690841E-06    6.3445444973E-06    6.2639549428E-06    6.1843873264E-06
    6.1058287194E-06    6.0282663559E-06    5.9516876313E-06    5.8760800997E-06
    5.8014314724E-06    5.7277296155E-06    5.6549625482E-06    5.5831184408E-06
    5.5121856129E-06    5.4421525314E-06    5.3730078090E-06    5.3047402016E-06
    5.2373386075E-06    5.1707920645E-06    5.1050897494E-06    5.0402209749E-06
    4.9761751891E-06    4.9129419730E-06    4.8505110394E-06    4.7888722307E-06
    4.7280155177E-06    4.6679309976E-06    4.6086088927E-06    4.5500395489E-06
    4.4922134337E-06    4.4351211353E-06    4.3787533606E-06    4.3231009338E-06
    4.2681547951E-06    4.2139059990E-06    4.1603457130E-06    4.1074652162E-06
    4.0552558978E-06    4.0037092559E-06    3.9528168960E-06    3.9025705294E-06
    3.8529619723E-06    3.8039831445E-06    3.7556260674E-06    3.7078828637E-06
    3.6607457552E-06    3.6142070624E-06    3.5682592026E-06    3.5228946891E-06
    3.4781061296E-06    3.4338862254E-06    3.3902277701E-06    3.3471236482E-06
    3.3045668341E-06    3.2625503914E-06    3.2210674710E-06    3.1801113107E-06
    3.1396752336E-06    3.0997526471E-06    3.0603370423E-06    3.0214219922E-06
    2.9830011514E-06    2.9450682547E-06    2.9076171161E-06    2.8706416277E-06
    2.8341357589E-06    2.7980935556E-06    2.7625091388E-06    2.7273767038E-06
    2.6926905194E-06    2.6584449271E-06    2.6246343397E-06    2.5912532409E-06
    2.5582961841E-06    2.5257577915E-06    2.4936327535E-06    2.4619158277E-06
 </PP_RHOATOM>
 <PP_SPIN_ORB>
   <PP_RELBETA.1  index="1"  lll="0" jjj="0.5"/>
   <PP_RELBETA.2  index="2"  lll="0" jjj="0.5"/>
   <PP_RELBETA.3  index="3"  lll="1" jjj="0.5"/>
   <PP_RELBETA.4  index="4"  lll="1" jjj="1.5"/>
   <PP_RELBETA.5  index="5"  lll="1" jjj="0.5"/>
   <PP_RELBETA.6  index="6"  lll="1" jjj="1.5"/>
   <PP_RELWFC.1  index="1"  lchi="0" jchi="0.5" nn="1"/>
   <PP_RELWFC.2  index="2"  lchi="0" jchi="0.5" nn="2"/>
 </PP_SPIN_ORB>
</UPF>

