<UPF version="2.0.1">
  <PP_INFO>

 This pseudopotential file has been produced using the code
 ONCVPSP  (Optimized Norm-Conservinng Vanderbilt PSeudopotential)
 fully-relativistic version 4.0.1 06/20/2107 by D. R. Hamann
 The code is available through a link at URL www.mat-simresearch.com.
 Documentation with the package provides a full discription of the
 input data below.


 While it is not required under the terms of the GNU GPL, it is
 suggested that you cite D. R. Hamann, Phys. Rev. B 88, 085117 (2013)
 in any publication using these pseudopotentials.

    <PP_INPUTFILE>
# ATOM AND REFERENCE CONFIGURATION
# atsym  z   nc   nv     iexc    psfile
  Br 35.00    6    2       4      upf
#
#   n    l    f        energy (Ha)
    1    0    2.00
    2    0    2.00
    2    1    6.00
    3    0    2.00
    3    1    6.00
    3    2   10.00
    4    0    2.00
    4    1    5.00
#
# PSEUDOPOTENTIAL AND OPTIMIZATION
# lmax
    2
#
#   l,   rc,     ep,   ncon, nbas, qcut
    0   2.08816  -0.73993    4    8   5.35371
    1   2.09826  -0.28884    4    8   5.50000
    2   2.20000   0.10000    4    8   7.50000
#
# LOCAL POTENTIAL
# lloc, lpopt,  rc(5),   dvloc0
    4    5   1.83228      0.00000
#
# VANDERBILT-KLEINMAN-BYLANDER PROJECTORs
# l, nproj, debl
    0    2   3.20000
    1    2   4.00000
    2    2   2.00000
#
# MODEL CORE CHARGE
# icmod, fcfact, rcfact
    3   8.00000   1.21000
#
# LOG DERIVATIVE ANALYSIS
# epsh1, epsh2, depsh
  -12.00   12.00    0.02
#
# OUTPUT GRID
# rlmax, drl
    6.00    0.01
#
# TEST CONFIGURATIONS
# ncnf
    0
# nvcnf
#   n    l    f
    </PP_INPUTFILE>
  </PP_INFO>
  <!--                               -->
  <!-- END OF HUMAN READABLE SECTION -->
  <!--                               -->
    <PP_HEADER
       generated="Generated using ONCVPSP code by D. R. Hamann"
       author="anonymous"
       date="260612"
       comment=""
       element="Br"
       pseudo_type="NC"
       relativistic="full"
       is_ultrasoft="F"
       is_paw="F"
       is_coulomb="F"
       has_so="T"
       has_wfc="F"
       has_gipaw="F"
       core_correction="T"
       functional="PBE"
       z_valence="    7.00"
       total_psenergy="  -2.70228426582E+01"
       rho_cutoff="   1.10700000000E+01"
       l_max="2"
       l_local="-1"
       mesh_size="  1108"
       number_of_wfc="3"
       number_of_proj="10"/>
 <PP_MESH>
   <PP_R type="real"  size="1108" columns="8">
    0.0000    0.0100    0.0200    0.0300    0.0400    0.0500    0.0600    0.0700
    0.0800    0.0900    0.1000    0.1100    0.1200    0.1300    0.1400    0.1500
    0.1600    0.1700    0.1800    0.1900    0.2000    0.2100    0.2200    0.2300
    0.2400    0.2500    0.2600    0.2700    0.2800    0.2900    0.3000    0.3100
    0.3200    0.3300    0.3400    0.3500    0.3600    0.3700    0.3800    0.3900
    0.4000    0.4100    0.4200    0.4300    0.4400    0.4500    0.4600    0.4700
    0.4800    0.4900    0.5000    0.5100    0.5200    0.5300    0.5400    0.5500
    0.5600    0.5700    0.5800    0.5900    0.6000    0.6100    0.6200    0.6300
    0.6400    0.6500    0.6600    0.6700    0.6800    0.6900    0.7000    0.7100
    0.7200    0.7300    0.7400    0.7500    0.7600    0.7700    0.7800    0.7900
    0.8000    0.8100    0.8200    0.8300    0.8400    0.8500    0.8600    0.8700
    0.8800    0.8900    0.9000    0.9100    0.9200    0.9300    0.9400    0.9500
    0.9600    0.9700    0.9800    0.9900    1.0000    1.0100    1.0200    1.0300
    1.0400    1.0500    1.0600    1.0700    1.0800    1.0900    1.1000    1.1100
    1.1200    1.1300    1.1400    1.1500    1.1600    1.1700    1.1800    1.1900
    1.2000    1.2100    1.2200    1.2300    1.2400    1.2500    1.2600    1.2700
    1.2800    1.2900    1.3000    1.3100    1.3200    1.3300    1.3400    1.3500
    1.3600    1.3700    1.3800    1.3900    1.4000    1.4100    1.4200    1.4300
    1.4400    1.4500    1.4600    1.4700    1.4800    1.4900    1.5000    1.5100
    1.5200    1.5300    1.5400    1.5500    1.5600    1.5700    1.5800    1.5900
    1.6000    1.6100    1.6200    1.6300    1.6400    1.6500    1.6600    1.6700
    1.6800    1.6900    1.7000    1.7100    1.7200    1.7300    1.7400    1.7500
    1.7600    1.7700    1.7800    1.7900    1.8000    1.8100    1.8200    1.8300
    1.8400    1.8500    1.8600    1.8700    1.8800    1.8900    1.9000    1.9100
    1.9200    1.9300    1.9400    1.9500    1.9600    1.9700    1.9800    1.9900
    2.0000    2.0100    2.0200    2.0300    2.0400    2.0500    2.0600    2.0700
    2.0800    2.0900    2.1000    2.1100    2.1200    2.1300    2.1400    2.1500
    2.1600    2.1700    2.1800    2.1900    2.2000    2.2100    2.2200    2.2300
    2.2400    2.2500    2.2600    2.2700    2.2800    2.2900    2.3000    2.3100
    2.3200    2.3300    2.3400    2.3500    2.3600    2.3700    2.3800    2.3900
    2.4000    2.4100    2.4200    2.4300    2.4400    2.4500    2.4600    2.4700
    2.4800    2.4900    2.5000    2.5100    2.5200    2.5300    2.5400    2.5500
    2.5600    2.5700    2.5800    2.5900    2.6000    2.6100    2.6200    2.6300
    2.6400    2.6500    2.6600    2.6700    2.6800    2.6900    2.7000    2.7100
    2.7200    2.7300    2.7400    2.7500    2.7600    2.7700    2.7800    2.7900
    2.8000    2.8100    2.8200    2.8300    2.8400    2.8500    2.8600    2.8700
    2.8800    2.8900    2.9000    2.9100    2.9200    2.9300    2.9400    2.9500
    2.9600    2.9700    2.9800    2.9900    3.0000    3.0100    3.0200    3.0300
    3.0400    3.0500    3.0600    3.0700    3.0800    3.0900    3.1000    3.1100
    3.1200    3.1300    3.1400    3.1500    3.1600    3.1700    3.1800    3.1900
    3.2000    3.2100    3.2200    3.2300    3.2400    3.2500    3.2600    3.2700
    3.2800    3.2900    3.3000    3.3100    3.3200    3.3300    3.3400    3.3500
    3.3600    3.3700    3.3800    3.3900    3.4000    3.4100    3.4200    3.4300
    3.4400    3.4500    3.4600    3.4700    3.4800    3.4900    3.5000    3.5100
    3.5200    3.5300    3.5400    3.5500    3.5600    3.5700    3.5800    3.5900
    3.6000    3.6100    3.6200    3.6300    3.6400    3.6500    3.6600    3.6700
    3.6800    3.6900    3.7000    3.7100    3.7200    3.7300    3.7400    3.7500
    3.7600    3.7700    3.7800    3.7900    3.8000    3.8100    3.8200    3.8300
    3.8400    3.8500    3.8600    3.8700    3.8800    3.8900    3.9000    3.9100
    3.9200    3.9300    3.9400    3.9500    3.9600    3.9700    3.9800    3.9900
    4.0000    4.0100    4.0200    4.0300    4.0400    4.0500    4.0600    4.0700
    4.0800    4.0900    4.1000    4.1100    4.1200    4.1300    4.1400    4.1500
    4.1600    4.1700    4.1800    4.1900    4.2000    4.2100    4.2200    4.2300
    4.2400    4.2500    4.2600    4.2700    4.2800    4.2900    4.3000    4.3100
    4.3200    4.3300    4.3400    4.3500    4.3600    4.3700    4.3800    4.3900
    4.4000    4.4100    4.4200    4.4300    4.4400    4.4500    4.4600    4.4700
    4.4800    4.4900    4.5000    4.5100    4.5200    4.5300    4.5400    4.5500
    4.5600    4.5700    4.5800    4.5900    4.6000    4.6100    4.6200    4.6300
    4.6400    4.6500    4.6600    4.6700    4.6800    4.6900    4.7000    4.7100
    4.7200    4.7300    4.7400    4.7500    4.7600    4.7700    4.7800    4.7900
    4.8000    4.8100    4.8200    4.8300    4.8400    4.8500    4.8600    4.8700
    4.8800    4.8900    4.9000    4.9100    4.9200    4.9300    4.9400    4.9500
    4.9600    4.9700    4.9800    4.9900    5.0000    5.0100    5.0200    5.0300
    5.0400    5.0500    5.0600    5.0700    5.0800    5.0900    5.1000    5.1100
    5.1200    5.1300    5.1400    5.1500    5.1600    5.1700    5.1800    5.1900
    5.2000    5.2100    5.2200    5.2300    5.2400    5.2500    5.2600    5.2700
    5.2800    5.2900    5.3000    5.3100    5.3200    5.3300    5.3400    5.3500
    5.3600    5.3700    5.3800    5.3900    5.4000    5.4100    5.4200    5.4300
    5.4400    5.4500    5.4600    5.4700    5.4800    5.4900    5.5000    5.5100
    5.5200    5.5300    5.5400    5.5500    5.5600    5.5700    5.5800    5.5900
    5.6000    5.6100    5.6200    5.6300    5.6400    5.6500    5.6600    5.6700
    5.6800    5.6900    5.7000    5.7100    5.7200    5.7300    5.7400    5.7500
    5.7600    5.7700    5.7800    5.7900    5.8000    5.8100    5.8200    5.8300
    5.8400    5.8500    5.8600    5.8700    5.8800    5.8900    5.9000    5.9100
    5.9200    5.9300    5.9400    5.9500    5.9600    5.9700    5.9800    5.9900
    6.0000    6.0100    6.0200    6.0300    6.0400    6.0500    6.0600    6.0700
    6.0800    6.0900    6.1000    6.1100    6.1200    6.1300    6.1400    6.1500
    6.1600    6.1700    6.1800    6.1900    6.2000    6.2100    6.2200    6.2300
    6.2400    6.2500    6.2600    6.2700    6.2800    6.2900    6.3000    6.3100
    6.3200    6.3300    6.3400    6.3500    6.3600    6.3700    6.3800    6.3900
    6.4000    6.4100    6.4200    6.4300    6.4400    6.4500    6.4600    6.4700
    6.4800    6.4900    6.5000    6.5100    6.5200    6.5300    6.5400    6.5500
    6.5600    6.5700    6.5800    6.5900    6.6000    6.6100    6.6200    6.6300
    6.6400    6.6500    6.6600    6.6700    6.6800    6.6900    6.7000    6.7100
    6.7200    6.7300    6.7400    6.7500    6.7600    6.7700    6.7800    6.7900
    6.8000    6.8100    6.8200    6.8300    6.8400    6.8500    6.8600    6.8700
    6.8800    6.8900    6.9000    6.9100    6.9200    6.9300    6.9400    6.9500
    6.9600    6.9700    6.9800    6.9900    7.0000    7.0100    7.0200    7.0300
    7.0400    7.0500    7.0600    7.0700    7.0800    7.0900    7.1000    7.1100
    7.1200    7.1300    7.1400    7.1500    7.1600    7.1700    7.1800    7.1900
    7.2000    7.2100    7.2200    7.2300    7.2400    7.2500    7.2600    7.2700
    7.2800    7.2900    7.3000    7.3100    7.3200    7.3300    7.3400    7.3500
    7.3600    7.3700    7.3800    7.3900    7.4000    7.4100    7.4200    7.4300
    7.4400    7.4500    7.4600    7.4700    7.4800    7.4900    7.5000    7.5100
    7.5200    7.5300    7.5400    7.5500    7.5600    7.5700    7.5800    7.5900
    7.6000    7.6100    7.6200    7.6300    7.6400    7.6500    7.6600    7.6700
    7.6800    7.6900    7.7000    7.7100    7.7200    7.7300    7.7400    7.7500
    7.7600    7.7700    7.7800    7.7900    7.8000    7.8100    7.8200    7.8300
    7.8400    7.8500    7.8600    7.8700    7.8800    7.8900    7.9000    7.9100
    7.9200    7.9300    7.9400    7.9500    7.9600    7.9700    7.9800    7.9900
    8.0000    8.0100    8.0200    8.0300    8.0400    8.0500    8.0600    8.0700
    8.0800    8.0900    8.1000    8.1100    8.1200    8.1300    8.1400    8.1500
    8.1600    8.1700    8.1800    8.1900    8.2000    8.2100    8.2200    8.2300
    8.2400    8.2500    8.2600    8.2700    8.2800    8.2900    8.3000    8.3100
    8.3200    8.3300    8.3400    8.3500    8.3600    8.3700    8.3800    8.3900
    8.4000    8.4100    8.4200    8.4300    8.4400    8.4500    8.4600    8.4700
    8.4800    8.4900    8.5000    8.5100    8.5200    8.5300    8.5400    8.5500
    8.5600    8.5700    8.5800    8.5900    8.6000    8.6100    8.6200    8.6300
    8.6400    8.6500    8.6600    8.6700    8.6800    8.6900    8.7000    8.7100
    8.7200    8.7300    8.7400    8.7500    8.7600    8.7700    8.7800    8.7900
    8.8000    8.8100    8.8200    8.8300    8.8400    8.8500    8.8600    8.8700
    8.8800    8.8900    8.9000    8.9100    8.9200    8.9300    8.9400    8.9500
    8.9600    8.9700    8.9800    8.9900    9.0000    9.0100    9.0200    9.0300
    9.0400    9.0500    9.0600    9.0700    9.0800    9.0900    9.1000    9.1100
    9.1200    9.1300    9.1400    9.1500    9.1600    9.1700    9.1800    9.1900
    9.2000    9.2100    9.2200    9.2300    9.2400    9.2500    9.2600    9.2700
    9.2800    9.2900    9.3000    9.3100    9.3200    9.3300    9.3400    9.3500
    9.3600    9.3700    9.3800    9.3900    9.4000    9.4100    9.4200    9.4300
    9.4400    9.4500    9.4600    9.4700    9.4800    9.4900    9.5000    9.5100
    9.5200    9.5300    9.5400    9.5500    9.5600    9.5700    9.5800    9.5900
    9.6000    9.6100    9.6200    9.6300    9.6400    9.6500    9.6600    9.6700
    9.6800    9.6900    9.7000    9.7100    9.7200    9.7300    9.7400    9.7500
    9.7600    9.7700    9.7800    9.7900    9.8000    9.8100    9.8200    9.8300
    9.8400    9.8500    9.8600    9.8700    9.8800    9.8900    9.9000    9.9100
    9.9200    9.9300    9.9400    9.9500    9.9600    9.9700    9.9800    9.9900
   10.0000   10.0100   10.0200   10.0300   10.0400   10.0500   10.0600   10.0700
   10.0800   10.0900   10.1000   10.1100   10.1200   10.1300   10.1400   10.1500
   10.1600   10.1700   10.1800   10.1900   10.2000   10.2100   10.2200   10.2300
   10.2400   10.2500   10.2600   10.2700   10.2800   10.2900   10.3000   10.3100
   10.3200   10.3300   10.3400   10.3500   10.3600   10.3700   10.3800   10.3900
   10.4000   10.4100   10.4200   10.4300   10.4400   10.4500   10.4600   10.4700
   10.4800   10.4900   10.5000   10.5100   10.5200   10.5300   10.5400   10.5500
   10.5600   10.5700   10.5800   10.5900   10.6000   10.6100   10.6200   10.6300
   10.6400   10.6500   10.6600   10.6700   10.6800   10.6900   10.7000   10.7100
   10.7200   10.7300   10.7400   10.7500   10.7600   10.7700   10.7800   10.7900
   10.8000   10.8100   10.8200   10.8300   10.8400   10.8500   10.8600   10.8700
   10.8800   10.8900   10.9000   10.9100   10.9200   10.9300   10.9400   10.9500
   10.9600   10.9700   10.9800   10.9900   11.0000   11.0100   11.0200   11.0300
   11.0400   11.0500   11.0600   11.0700
   </PP_R>
   <PP_RAB type="real"  size="1108" columns="8">
    0.0100    0.0100    0.0100    0.0100    0.0100    0.0100    0.0100    0.0100
    0.0100    0.0100    0.0100    0.0100    0.0100    0.0100    0.0100    0.0100
    0.0100    0.0100    0.0100    0.0100    0.0100    0.0100    0.0100    0.0100
    0.0100    0.0100    0.0100    0.0100    0.0100    0.0100    0.0100    0.0100
    0.0100    0.0100    0.0100    0.0100    0.0100    0.0100    0.0100    0.0100
    0.0100    0.0100    0.0100    0.0100    0.0100    0.0100    0.0100    0.0100
    0.0100    0.0100    0.0100    0.0100    0.0100    0.0100    0.0100    0.0100
    0.0100    0.0100    0.0100    0.0100    0.0100    0.0100    0.0100    0.0100
    0.0100    0.0100    0.0100    0.0100    0.0100    0.0100    0.0100    0.0100
    0.0100    0.0100    0.0100    0.0100    0.0100    0.0100    0.0100    0.0100
    0.0100    0.0100    0.0100    0.0100    0.0100    0.0100    0.0100    0.0100
    0.0100    0.0100    0.0100    0.0100    0.0100    0.0100    0.0100    0.0100
    0.0100    0.0100    0.0100    0.0100    0.0100    0.0100    0.0100    0.0100
    0.0100    0.0100    0.0100    0.0100    0.0100    0.0100    0.0100    0.0100
    0.0100    0.0100    0.0100    0.0100    0.0100    0.0100    0.0100    0.0100
    0.0100    0.0100    0.0100    0.0100    0.0100    0.0100    0.0100    0.0100
    0.0100    0.0100    0.0100    0.0100    0.0100    0.0100    0.0100    0.0100
    0.0100    0.0100    0.0100    0.0100    0.0100    0.0100    0.0100    0.0100
    0.0100    0.0100    0.0100    0.0100    0.0100    0.0100    0.0100    0.0100
    0.0100    0.0100    0.0100    0.0100    0.0100    0.0100    0.0100    0.0100
    0.0100    0.0100    0.0100    0.0100    0.0100    0.0100    0.0100    0.0100
    0.0100    0.0100    0.0100    0.0100    0.0100    0.0100    0.0100    0.0100
    0.0100    0.0100    0.0100    0.0100    0.0100    0.0100    0.0100    0.0100
    0.0100    0.0100    0.0100    0.0100    0.0100    0.0100    0.0100    0.0100
    0.0100    0.0100    0.0100    0.0100    0.0100    0.0100    0.0100    0.0100
    0.0100    0.0100    0.0100    0.0100    0.0100    0.0100    0.0100    0.0100
    0.0100    0.0100    0.0100    0.0100    0.0100    0.0100    0.0100    0.0100
    0.0100    0.0100    0.0100    0.0100    0.0100    0.0100    0.0100    0.0100
    0.0100    0.0100    0.0100    0.0100    0.0100    0.0100    0.0100    0.0100
    0.0100    0.0100    0.0100    0.0100    0.0100    0.0100    0.0100    0.0100
    0.0100    0.0100    0.0100    0.0100    0.0100    0.0100    0.0100    0.0100
    0.0100    0.0100    0.0100    0.0100    0.0100    0.0100    0.0100    0.0100
    0.0100    0.0100    0.0100    0.0100    0.0100    0.0100    0.0100    0.0100
    0.0100    0.0100    0.0100    0.0100    0.0100    0.0100    0.0100    0.0100
    0.0100    0.0100    0.0100    0.0100    0.0100    0.0100    0.0100    0.0100
    0.0100    0.0100    0.0100    0.0100    0.0100    0.0100    0.0100    0.0100
    0.0100    0.0100    0.0100    0.0100    0.0100    0.0100    0.0100    0.0100
    0.0100    0.0100    0.0100    0.0100    0.0100    0.0100    0.0100    0.0100
    0.0100    0.0100    0.0100    0.0100    0.0100    0.0100    0.0100    0.0100
    0.0100    0.0100    0.0100    0.0100    0.0100    0.0100    0.0100    0.0100
    0.0100    0.0100    0.0100    0.0100    0.0100    0.0100    0.0100    0.0100
    0.0100    0.0100    0.0100    0.0100    0.0100    0.0100    0.0100    0.0100
    0.0100    0.0100    0.0100    0.0100    0.0100    0.0100    0.0100    0.0100
    0.0100    0.0100    0.0100    0.0100    0.0100    0.0100    0.0100    0.0100
    0.0100    0.0100    0.0100    0.0100    0.0100    0.0100    0.0100    0.0100
    0.0100    0.0100    0.0100    0.0100    0.0100    0.0100    0.0100    0.0100
    0.0100    0.0100    0.0100    0.0100    0.0100    0.0100    0.0100    0.0100
    0.0100    0.0100    0.0100    0.0100    0.0100    0.0100    0.0100    0.0100
    0.0100    0.0100    0.0100    0.0100    0.0100    0.0100    0.0100    0.0100
    0.0100    0.0100    0.0100    0.0100    0.0100    0.0100    0.0100    0.0100
    0.0100    0.0100    0.0100    0.0100    0.0100    0.0100    0.0100    0.0100
    0.0100    0.0100    0.0100    0.0100    0.0100    0.0100    0.0100    0.0100
    0.0100    0.0100    0.0100    0.0100    0.0100    0.0100    0.0100    0.0100
    0.0100    0.0100    0.0100    0.0100    0.0100    0.0100    0.0100    0.0100
    0.0100    0.0100    0.0100    0.0100    0.0100    0.0100    0.0100    0.0100
    0.0100    0.0100    0.0100    0.0100    0.0100    0.0100    0.0100    0.0100
    0.0100    0.0100    0.0100    0.0100    0.0100    0.0100    0.0100    0.0100
    0.0100    0.0100    0.0100    0.0100    0.0100    0.0100    0.0100    0.0100
    0.0100    0.0100    0.0100    0.0100    0.0100    0.0100    0.0100    0.0100
    0.0100    0.0100    0.0100    0.0100    0.0100    0.0100    0.0100    0.0100
    0.0100    0.0100    0.0100    0.0100    0.0100    0.0100    0.0100    0.0100
    0.0100    0.0100    0.0100    0.0100    0.0100    0.0100    0.0100    0.0100
    0.0100    0.0100    0.0100    0.0100    0.0100    0.0100    0.0100    0.0100
    0.0100    0.0100    0.0100    0.0100    0.0100    0.0100    0.0100    0.0100
    0.0100    0.0100    0.0100    0.0100    0.0100    0.0100    0.0100    0.0100
    0.0100    0.0100    0.0100    0.0100    0.0100    0.0100    0.0100    0.0100
    0.0100    0.0100    0.0100    0.0100    0.0100    0.0100    0.0100    0.0100
    0.0100    0.0100    0.0100    0.0100    0.0100    0.0100    0.0100    0.0100
    0.0100    0.0100    0.0100    0.0100    0.0100    0.0100    0.0100    0.0100
    0.0100    0.0100    0.0100    0.0100    0.0100    0.0100    0.0100    0.0100
    0.0100    0.0100    0.0100    0.0100    0.0100    0.0100    0.0100    0.0100
    0.0100    0.0100    0.0100    0.0100    0.0100    0.0100    0.0100    0.0100
    0.0100    0.0100    0.0100    0.0100    0.0100    0.0100    0.0100    0.0100
    0.0100    0.0100    0.0100    0.0100    0.0100    0.0100    0.0100    0.0100
    0.0100    0.0100    0.0100    0.0100    0.0100    0.0100    0.0100    0.0100
    0.0100    0.0100    0.0100    0.0100    0.0100    0.0100    0.0100    0.0100
    0.0100    0.0100    0.0100    0.0100    0.0100    0.0100    0.0100    0.0100
    0.0100    0.0100    0.0100    0.0100    0.0100    0.0100    0.0100    0.0100
    0.0100    0.0100    0.0100    0.0100    0.0100    0.0100    0.0100    0.0100
    0.0100    0.0100    0.0100    0.0100    0.0100    0.0100    0.0100    0.0100
    0.0100    0.0100    0.0100    0.0100    0.0100    0.0100    0.0100    0.0100
    0.0100    0.0100    0.0100    0.0100    0.0100    0.0100    0.0100    0.0100
    0.0100    0.0100    0.0100    0.0100    0.0100    0.0100    0.0100    0.0100
    0.0100    0.0100    0.0100    0.0100    0.0100    0.0100    0.0100    0.0100
    0.0100    0.0100    0.0100    0.0100    0.0100    0.0100    0.0100    0.0100
    0.0100    0.0100    0.0100    0.0100    0.0100    0.0100    0.0100    0.0100
    0.0100    0.0100    0.0100    0.0100    0.0100    0.0100    0.0100    0.0100
    0.0100    0.0100    0.0100    0.0100    0.0100    0.0100    0.0100    0.0100
    0.0100    0.0100    0.0100    0.0100    0.0100    0.0100    0.0100    0.0100
    0.0100    0.0100    0.0100    0.0100    0.0100    0.0100    0.0100    0.0100
    0.0100    0.0100    0.0100    0.0100    0.0100    0.0100    0.0100    0.0100
    0.0100    0.0100    0.0100    0.0100    0.0100    0.0100    0.0100    0.0100
    0.0100    0.0100    0.0100    0.0100    0.0100    0.0100    0.0100    0.0100
    0.0100    0.0100    0.0100    0.0100    0.0100    0.0100    0.0100    0.0100
    0.0100    0.0100    0.0100    0.0100    0.0100    0.0100    0.0100    0.0100
    0.0100    0.0100    0.0100    0.0100    0.0100    0.0100    0.0100    0.0100
    0.0100    0.0100    0.0100    0.0100    0.0100    0.0100    0.0100    0.0100
    0.0100    0.0100    0.0100    0.0100    0.0100    0.0100    0.0100    0.0100
    0.0100    0.0100    0.0100    0.0100    0.0100    0.0100    0.0100    0.0100
    0.0100    0.0100    0.0100    0.0100    0.0100    0.0100    0.0100    0.0100
    0.0100    0.0100    0.0100    0.0100    0.0100    0.0100    0.0100    0.0100
    0.0100    0.0100    0.0100    0.0100    0.0100    0.0100    0.0100    0.0100
    0.0100    0.0100    0.0100    0.0100    0.0100    0.0100    0.0100    0.0100
    0.0100    0.0100    0.0100    0.0100    0.0100    0.0100    0.0100    0.0100
    0.0100    0.0100    0.0100    0.0100    0.0100    0.0100    0.0100    0.0100
    0.0100    0.0100    0.0100    0.0100    0.0100    0.0100    0.0100    0.0100
    0.0100    0.0100    0.0100    0.0100    0.0100    0.0100    0.0100    0.0100
    0.0100    0.0100    0.0100    0.0100    0.0100    0.0100    0.0100    0.0100
    0.0100    0.0100    0.0100    0.0100    0.0100    0.0100    0.0100    0.0100
    0.0100    0.0100    0.0100    0.0100    0.0100    0.0100    0.0100    0.0100
    0.0100    0.0100    0.0100    0.0100    0.0100    0.0100    0.0100    0.0100
    0.0100    0.0100    0.0100    0.0100    0.0100    0.0100    0.0100    0.0100
    0.0100    0.0100    0.0100    0.0100    0.0100    0.0100    0.0100    0.0100
    0.0100    0.0100    0.0100    0.0100    0.0100    0.0100    0.0100    0.0100
    0.0100    0.0100    0.0100    0.0100    0.0100    0.0100    0.0100    0.0100
    0.0100    0.0100    0.0100    0.0100    0.0100    0.0100    0.0100    0.0100
    0.0100    0.0100    0.0100    0.0100    0.0100    0.0100    0.0100    0.0100
    0.0100    0.0100    0.0100    0.0100    0.0100    0.0100    0.0100    0.0100
    0.0100    0.0100    0.0100    0.0100    0.0100    0.0100    0.0100    0.0100
    0.0100    0.0100    0.0100    0.0100    0.0100    0.0100    0.0100    0.0100
    0.0100    0.0100    0.0100    0.0100    0.0100    0.0100    0.0100    0.0100
    0.0100    0.0100    0.0100    0.0100    0.0100    0.0100    0.0100    0.0100
    0.0100    0.0100    0.0100    0.0100    0.0100    0.0100    0.0100    0.0100
    0.0100    0.0100    0.0100    0.0100    0.0100    0.0100    0.0100    0.0100
    0.0100    0.0100    0.0100    0.0100    0.0100    0.0100    0.0100    0.0100
    0.0100    0.0100    0.0100    0.0100    0.0100    0.0100    0.0100    0.0100
    0.0100    0.0100    0.0100    0.0100    0.0100    0.0100    0.0100    0.0100
    0.0100    0.0100    0.0100    0.0100    0.0100    0.0100    0.0100    0.0100
    0.0100    0.0100    0.0100    0.0100    0.0100    0.0100    0.0100    0.0100
    0.0100    0.0100    0.0100    0.0100    0.0100    0.0100    0.0100    0.0100
    0.0100    0.0100    0.0100    0.0100    0.0100    0.0100    0.0100    0.0100
    0.0100    0.0100    0.0100    0.0100    0.0100    0.0100    0.0100    0.0100
    0.0100    0.0100    0.0100    0.0100    0.0100    0.0100    0.0100    0.0100
    0.0100    0.0100    0.0100    0.0100    0.0100    0.0100    0.0100    0.0100
    0.0100    0.0100    0.0100    0.0100    0.0100    0.0100    0.0100    0.0100
    0.0100    0.0100    0.0100    0.0100    0.0100    0.0100    0.0100    0.0100
    0.0100    0.0100    0.0100    0.0100    0.0100    0.0100    0.0100    0.0100
    0.0100    0.0100    0.0100    0.0100    0.0100    0.0100    0.0100    0.0100
    0.0100    0.0100    0.0100    0.0100
   </PP_RAB>
 </PP_MESH>
  <PP_LOCAL type="real"  size="1108" columns="4">
   -1.5522386679E+01   -1.5522024170E+01   -1.5520936706E+01   -1.5519124492E+01
   -1.5516587869E+01   -1.5513327311E+01   -1.5509343430E+01   -1.5504636970E+01
   -1.5499208810E+01   -1.5493059960E+01   -1.5486191564E+01   -1.5478604894E+01
   -1.5470301352E+01   -1.5461282467E+01   -1.5451549895E+01   -1.5441105413E+01
   -1.5429950924E+01   -1.5418088448E+01   -1.5405520124E+01   -1.5392248206E+01
   -1.5378275060E+01   -1.5363603163E+01   -1.5348235101E+01   -1.5332173561E+01
   -1.5315421335E+01   -1.5297981312E+01   -1.5279856476E+01   -1.5261049904E+01
   -1.5241564762E+01   -1.5221404301E+01   -1.5200571853E+01   -1.5179070829E+01
   -1.5156904716E+01   -1.5134077071E+01   -1.5110591520E+01   -1.5086451751E+01
   -1.5061661517E+01   -1.5036224624E+01   -1.5010144935E+01   -1.4983426363E+01
   -1.4956072866E+01   -1.4928088451E+01   -1.4899477162E+01   -1.4870243085E+01
   -1.4840390340E+01   -1.4809923081E+01   -1.4778845492E+01   -1.4747161788E+01
   -1.4714876210E+01   -1.4681993023E+01   -1.4648516518E+01   -1.4614451008E+01
   -1.4579800827E+01   -1.4544570329E+01   -1.4508763892E+01   -1.4472385912E+01
   -1.4435440803E+01   -1.4397933005E+01   -1.4359866975E+01   -1.4321247195E+01
   -1.4282078169E+01   -1.4242364425E+01   -1.4202110521E+01   -1.4161321040E+01
   -1.4120000599E+01   -1.4078153846E+01   -1.4035785466E+01   -1.3992900183E+01
   -1.3949502764E+01   -1.3905598021E+01   -1.3861190814E+01   -1.3816286058E+01
   -1.3770888724E+01   -1.3725003844E+01   -1.3678636514E+01   -1.3631791901E+01
   -1.3584475245E+01   -1.3536691865E+01   -1.3488447161E+01   -1.3439746622E+01
   -1.3390595830E+01   -1.3341000460E+01   -1.3290966293E+01   -1.3240499211E+01
   -1.3189605211E+01   -1.3138290402E+01   -1.3086561014E+01   -1.3034423400E+01
   -1.2981884042E+01   -1.2928949552E+01   -1.2875626683E+01   -1.2821922324E+01
   -1.2767843512E+01   -1.2713397430E+01   -1.2658591413E+01   -1.2603432954E+01
   -1.2547929702E+01   -1.2492089472E+01   -1.2435920242E+01   -1.2379430159E+01
   -1.2322627545E+01   -1.2265520895E+01   -1.2208118884E+01   -1.2150430366E+01
   -1.2092464382E+01   -1.2034230159E+01   -1.1975737114E+01   -1.1916994858E+01
   -1.1858013196E+01   -1.1798802132E+01   -1.1739371872E+01   -1.1679732823E+01
   -1.1619895601E+01   -1.1559871027E+01   -1.1499670134E+01   -1.1439304164E+01
   -1.1378784574E+01   -1.1318123034E+01   -1.1257331428E+01   -1.1196421852E+01
   -1.1135406617E+01   -1.1074298245E+01   -1.1013109467E+01   -1.0951853217E+01
   -1.0890542634E+01   -1.0829191051E+01   -1.0767811990E+01   -1.0706419155E+01
   -1.0645026423E+01   -1.0583647832E+01   -1.0522297574E+01   -1.0460989976E+01
   -1.0399739491E+01   -1.0338560682E+01   -1.0277468202E+01   -1.0216476781E+01
   -1.0155601206E+01   -1.0094856301E+01   -1.0034256908E+01   -9.9738178624E+00
   -9.9135539777E+00   -9.8534800191E+00   -9.7936106822E+00   -9.7339605711E+00
   -9.6745441753E+00   -9.6153758472E+00   -9.5564697796E+00   -9.4978399833E+00
   -9.4395002645E+00   -9.3814642034E+00   -9.3237451318E+00   -9.2663561124E+00
   -9.2093099169E+00   -9.1526190056E+00   -9.0962955063E+00   -9.0403511947E+00
   -8.9847974732E+00   -8.9296453514E+00   -8.8749054262E+00   -8.8205878617E+00
   -8.7667023696E+00   -8.7132581896E+00   -8.6602640693E+00   -8.6077282453E+00
   -8.5556584229E+00   -8.5040617572E+00   -8.4529448336E+00   -8.4023136483E+00
   -8.3521735902E+00   -8.3025294213E+00   -8.2533852593E+00   -8.2047445597E+00
   -8.1566100983E+00   -8.1089839551E+00   -8.0618674985E+00   -8.0152613708E+00
   -7.9691654735E+00   -7.9235789556E+00   -7.8785002008E+00   -7.8339268180E+00
   -7.7898556312E+00   -7.7462826721E+00   -7.7032031731E+00   -7.6606115622E+00
   -7.6185014601E+00   -7.5768656876E+00   -7.5356965914E+00   -7.4949864160E+00
   -7.4547273923E+00   -7.4149117263E+00   -7.3755316102E+00   -7.3365792296E+00
   -7.2980467727E+00   -7.2599264397E+00   -7.2222104542E+00   -7.1848910744E+00
   -7.1479606057E+00   -7.1114114132E+00   -7.0752359358E+00   -7.0394266984E+00
   -7.0039763210E+00   -6.9688775281E+00   -6.9341231812E+00   -6.8997063091E+00
   -6.8656201026E+00   -6.8318579098E+00   -6.7984132614E+00   -6.7652799452E+00
   -6.7324518158E+00   -6.6999226478E+00   -6.6676900573E+00   -6.6357609038E+00
   -6.6041508168E+00   -6.5728617440E+00   -6.5418857123E+00   -6.5112165621E+00
   -6.4808516738E+00   -6.4507865428E+00   -6.4210164625E+00   -6.3915371835E+00
   -6.3623442994E+00   -6.3334334471E+00   -6.3048002829E+00   -6.2764404867E+00
   -6.2483497667E+00   -6.2205238637E+00   -6.1929585551E+00   -6.1656496586E+00
   -6.1385930369E+00   -6.1117846010E+00   -6.0852203141E+00   -6.0588961956E+00
   -6.0328083239E+00   -6.0069528402E+00   -5.9813259515E+00   -5.9559239332E+00
   -5.9307431320E+00   -5.9057799680E+00   -5.8810309371E+00   -5.8564926129E+00
   -5.8321616478E+00   -5.8080347751E+00   -5.7841088093E+00   -5.7603806474E+00
   -5.7368472692E+00   -5.7135057375E+00   -5.6903531982E+00   -5.6673868800E+00
   -5.6446040938E+00   -5.6220022316E+00   -5.5995787663E+00   -5.5773312496E+00
   -5.5552573108E+00   -5.5333546554E+00   -5.5116210631E+00   -5.4900543855E+00
   -5.4686525442E+00   -5.4474135281E+00   -5.4263353917E+00   -5.4054162519E+00
   -5.3846542851E+00   -5.3640477249E+00   -5.3435948593E+00   -5.3232940274E+00
   -5.3031436169E+00   -5.2831420606E+00   -5.2632878343E+00   -5.2435794530E+00
   -5.2240154685E+00   -5.2045944663E+00   -5.1853150631E+00   -5.1661759036E+00
   -5.1471756582E+00   -5.1283130202E+00   -5.1095867037E+00   -5.0909954409E+00
   -5.0725379798E+00   -5.0542130828E+00   -5.0360195238E+00   -5.0179560873E+00
   -5.0000215664E+00   -4.9822147611E+00   -4.9645344776E+00   -4.9469795266E+00
   -4.9295487228E+00   -4.9122408837E+00   -4.8950548294E+00   -4.8779893818E+00
   -4.8610433644E+00   -4.8442156024E+00   -4.8275049222E+00   -4.8109101521E+00
   -4.7944301222E+00   -4.7780636649E+00   -4.7618096154E+00   -4.7456668123E+00
   -4.7296340984E+00   -4.7137103212E+00   -4.6978943340E+00   -4.6821849968E+00
   -4.6665811768E+00   -4.6510817500E+00   -4.6356856014E+00   -4.6203916268E+00
   -4.6051987330E+00   -4.5901058389E+00   -4.5751118769E+00   -4.5602157929E+00
   -4.5454165479E+00   -4.5307131180E+00   -4.5161044958E+00   -4.5015896901E+00
   -4.4871677273E+00   -4.4728376512E+00   -4.4585985234E+00   -4.4444494240E+00
   -4.4303894510E+00   -4.4164177210E+00   -4.4025333688E+00   -4.3887355474E+00
   -4.3750234277E+00   -4.3613961985E+00   -4.3478530656E+00   -4.3343932518E+00
   -4.3210159963E+00   -4.3077205539E+00   -4.2945061946E+00   -4.2813722031E+00
   -4.2683178776E+00   -4.2553425294E+00   -4.2424454820E+00   -4.2296260705E+00
   -4.2168836407E+00   -4.2042175482E+00   -4.1916271578E+00   -4.1791118425E+00
   -4.1666709831E+00   -4.1543039670E+00   -4.1420101881E+00   -4.1297890456E+00
   -4.1176399436E+00   -4.1055622905E+00   -4.0935554988E+00   -4.0816189839E+00
   -4.0697521645E+00   -4.0579544617E+00   -4.0462252988E+00   -4.0345641014E+00
   -4.0229702968E+00   -4.0114433140E+00   -3.9999825837E+00   -3.9885875385E+00
   -3.9772576124E+00   -3.9659922414E+00   -3.9547908634E+00   -3.9436529185E+00
   -3.9325778492E+00   -3.9215651004E+00   -3.9106141203E+00   -3.8997243601E+00
   -3.8888952747E+00   -3.8781263229E+00   -3.8674169680E+00   -3.8567666777E+00
   -3.8461749251E+00   -3.8356411887E+00   -3.8251649526E+00   -3.8147457075E+00
   -3.8043829502E+00   -3.7940761847E+00   -3.7838249220E+00   -3.7736286805E+00
   -3.7634869863E+00   -3.7533993734E+00   -3.7433653836E+00   -3.7333845672E+00
   -3.7234564824E+00   -3.7135806958E+00   -3.7037567824E+00   -3.6939843254E+00
   -3.6842629162E+00   -3.6745921542E+00   -3.6649716469E+00   -3.6554010094E+00
   -3.6458798646E+00   -3.6364078425E+00   -3.6269845802E+00   -3.6176097214E+00
   -3.6082829164E+00   -3.5990038215E+00   -3.5897720987E+00   -3.5805874152E+00
   -3.5714494433E+00   -3.5623578599E+00   -3.5533123458E+00   -3.5443125860E+00
   -3.5353582685E+00   -3.5264490845E+00   -3.5175847278E+00   -3.5087648946E+00
   -3.4999892829E+00   -3.4912575925E+00   -3.4825695245E+00   -3.4739247811E+00
   -3.4653230660E+00   -3.4567640814E+00   -3.4482475248E+00   -3.4397731083E+00
   -3.4313405564E+00   -3.4229495604E+00   -3.4145997962E+00   -3.4062911138E+00
   -3.3980229218E+00   -3.3897945129E+00   -3.3816054594E+00   -3.3734596284E+00
   -3.3653603007E+00   -3.3573042596E+00   -3.3492844602E+00   -3.3412948240E+00
   -3.3333386185E+00   -3.3254196303E+00   -3.3175391144E+00   -3.3096963126E+00
   -3.3018902831E+00   -3.2941210411E+00   -3.2863882805E+00   -3.2786917197E+00
   -3.2710311058E+00   -3.2634062241E+00   -3.2558168109E+00   -3.2482626182E+00
   -3.2407434002E+00   -3.2332589154E+00   -3.2258089236E+00   -3.2183931869E+00
   -3.2110114696E+00   -3.2036635380E+00   -3.1963491607E+00   -3.1890681084E+00
   -3.1818201538E+00   -3.1746050718E+00   -3.1674226391E+00   -3.1602726347E+00
   -3.1531548393E+00   -3.1460690359E+00   -3.1390150091E+00   -3.1319925457E+00
   -3.1250014343E+00   -3.1180414653E+00   -3.1111124312E+00   -3.1042141260E+00
   -3.0973463459E+00   -3.0905088885E+00   -3.0837015536E+00   -3.0769241425E+00
   -3.0701764582E+00   -3.0634583057E+00   -3.0567694913E+00   -3.0501098234E+00
   -3.0434791119E+00   -3.0368771682E+00   -3.0303038055E+00   -3.0237588386E+00
   -3.0172420839E+00   -3.0107533593E+00   -3.0042924845E+00   -2.9978592803E+00
   -2.9914535695E+00   -2.9850751761E+00   -2.9787239257E+00   -2.9723996455E+00
   -2.9661021639E+00   -2.9598313111E+00   -2.9535869184E+00   -2.9473688187E+00
   -2.9411768463E+00   -2.9350108368E+00   -2.9288706272E+00   -2.9227560560E+00
   -2.9166669628E+00   -2.9106031888E+00   -2.9045645764E+00   -2.8985509692E+00
   -2.8925622123E+00   -2.8865981519E+00   -2.8806586355E+00   -2.8747435119E+00
   -2.8688526312E+00   -2.8629858446E+00   -2.8571430046E+00   -2.8513239649E+00
   -2.8455285803E+00   -2.8397567068E+00   -2.8340082017E+00   -2.8282829233E+00
   -2.8225807312E+00   -2.8169014859E+00   -2.8112450492E+00   -2.8056112840E+00
   -2.8000000543E+00   -2.7944112250E+00   -2.7888446623E+00   -2.7833002334E+00
   -2.7777778065E+00   -2.7722772510E+00   -2.7667984371E+00   -2.7613412361E+00
   -2.7559055205E+00   -2.7504911636E+00   -2.7450980397E+00   -2.7397260242E+00
   -2.7343749934E+00   -2.7290448245E+00   -2.7237353959E+00   -2.7184465866E+00
   -2.7131782767E+00   -2.7079303474E+00   -2.7027026806E+00   -2.6974951591E+00
   -2.6923076668E+00   -2.6871400882E+00   -2.6819923089E+00   -2.6768642154E+00
   -2.6717556950E+00   -2.6666666357E+00   -2.6615969266E+00   -2.6565464576E+00
   -2.6515151192E+00   -2.6465028031E+00   -2.6415094015E+00   -2.6365348075E+00
   -2.6315789152E+00   -2.6266416192E+00   -2.6217228150E+00   -2.6168223990E+00
   -2.6119402683E+00   -2.6070763206E+00   -2.6022304547E+00   -2.5974025697E+00
   -2.5925925659E+00   -2.5878003441E+00   -2.5830258059E+00   -2.5782688535E+00
   -2.5735293900E+00   -2.5688073191E+00   -2.5641025452E+00   -2.5594149735E+00
   -2.5547445098E+00   -2.5500910605E+00   -2.5454545330E+00   -2.5408348350E+00
   -2.5362318751E+00   -2.5316455625E+00   -2.5270758071E+00   -2.5225225192E+00
   -2.5179856102E+00   -2.5134649917E+00   -2.5089605762E+00   -2.5044722767E+00
   -2.5000000068E+00   -2.4955436810E+00   -2.4911032140E+00   -2.4866785213E+00
   -2.4822695190E+00   -2.4778761239E+00   -2.4734982531E+00   -2.4691358246E+00
   -2.4647887568E+00   -2.4604569687E+00   -2.4561403799E+00   -2.4518389105E+00
   -2.4475524812E+00   -2.4432810133E+00   -2.4390244285E+00   -2.4347826493E+00
   -2.4305555985E+00   -2.4263431996E+00   -2.4221453764E+00   -2.4179620535E+00
   -2.4137931558E+00   -2.4096386089E+00   -2.4054983389E+00   -2.4013722721E+00
   -2.3972603358E+00   -2.3931624573E+00   -2.3890785648E+00   -2.3850085867E+00
   -2.3809524521E+00   -2.3769100905E+00   -2.3728814318E+00   -2.3688664064E+00
   -2.3648649454E+00   -2.3608769799E+00   -2.3569024420E+00   -2.3529412639E+00
   -2.3489933783E+00   -2.3450587184E+00   -2.3411372180E+00   -2.3372288110E+00
   -2.3333334320E+00   -2.3294510161E+00   -2.3255814985E+00   -2.3217248151E+00
   -2.3178809022E+00   -2.3140496965E+00   -2.3102311350E+00   -2.3064251552E+00
   -2.3026316951E+00   -2.2988506930E+00   -2.2950820876E+00   -2.2913258180E+00
   -2.2875818239E+00   -2.2838500450E+00   -2.2801304218E+00   -2.2764228949E+00
   -2.2727274054E+00   -2.2690438948E+00   -2.2653723049E+00   -2.2617125780E+00
   -2.2580646566E+00   -2.2544284838E+00   -2.2508040029E+00   -2.2471911575E+00
   -2.2435898917E+00   -2.2400001500E+00   -2.2364218770E+00   -2.2328550180E+00
   -2.2292995185E+00   -2.2257553241E+00   -2.2222223812E+00   -2.2187006361E+00
   -2.2151900359E+00   -2.2116905275E+00   -2.2082020586E+00   -2.2047245770E+00
   -2.2012580308E+00   -2.1978023686E+00   -2.1943575392E+00   -2.1909234917E+00
   -2.1875001756E+00   -2.1840875407E+00   -2.1806855370E+00   -2.1772941149E+00
   -2.1739132253E+00   -2.1705428189E+00   -2.1671828473E+00   -2.1638332619E+00
   -2.1604940148E+00   -2.1571650581E+00   -2.1538463443E+00   -2.1505378263E+00
   -2.1472394570E+00   -2.1439511900E+00   -2.1406729788E+00   -2.1374047773E+00
   -2.1341465400E+00   -2.1308982211E+00   -2.1276597755E+00   -2.1244311583E+00
   -2.1212123247E+00   -2.1180032304E+00   -2.1148038313E+00   -2.1116140834E+00
   -2.1084339431E+00   -2.1052633672E+00   -2.1021023126E+00   -2.0989507363E+00
   -2.0958085959E+00   -2.0926758490E+00   -2.0895524536E+00   -2.0864383678E+00
   -2.0833335501E+00   -2.0802379593E+00   -2.0771515541E+00   -2.0740742938E+00
   -2.0710061379E+00   -2.0679470459E+00   -2.0648969777E+00   -2.0618558936E+00
   -2.0588237538E+00   -2.0558005189E+00   -2.0527861498E+00   -2.0497806076E+00
   -2.0467838535E+00   -2.0437958490E+00   -2.0408165559E+00   -2.0378459361E+00
   -2.0348839518E+00   -2.0319305655E+00   -2.0289857396E+00   -2.0260494372E+00
   -2.0231216211E+00   -2.0202022547E+00   -2.0172913015E+00   -2.0143887250E+00
   -2.0114944894E+00   -2.0086085585E+00   -2.0057308968E+00   -2.0028614687E+00
   -2.0000002389E+00   -1.9971471725E+00   -1.9943022344E+00   -1.9914653900E+00
   -1.9886366048E+00   -1.9858158445E+00   -1.9830030750E+00   -1.9801982625E+00
   -1.9774013731E+00   -1.9746123734E+00   -1.9718312300E+00   -1.9690579098E+00
   -1.9662923798E+00   -1.9635346073E+00   -1.9607845595E+00   -1.9580422043E+00
   -1.9553075092E+00   -1.9525804422E+00   -1.9498609715E+00   -1.9471490654E+00
   -1.9444446923E+00   -1.9417478210E+00   -1.9390584202E+00   -1.9363764590E+00
   -1.9337019066E+00   -1.9310347322E+00   -1.9283749055E+00   -1.9257223960E+00
   -1.9230771735E+00   -1.9204392082E+00   -1.9178084701E+00   -1.9151849296E+00
   -1.9125685572E+00   -1.9099593236E+00   -1.9073571997E+00   -1.9047621564E+00
   -1.9021741649E+00   -1.8995931964E+00   -1.8970192223E+00   -1.8944522144E+00
   -1.8918921443E+00   -1.8893389840E+00   -1.8867927055E+00   -1.8842532810E+00
   -1.8817206829E+00   -1.8791948838E+00   -1.8766758562E+00   -1.8741635730E+00
   -1.8716580071E+00   -1.8691591316E+00   -1.8666669198E+00   -1.8641813451E+00
   -1.8617023809E+00   -1.8592300009E+00   -1.8567641789E+00   -1.8543048890E+00
   -1.8518521050E+00   -1.8494058014E+00   -1.8469659523E+00   -1.8445325324E+00
   -1.8421055162E+00   -1.8396848785E+00   -1.8372705941E+00   -1.8348626382E+00
   -1.8324609858E+00   -1.8300656122E+00   -1.8276764928E+00   -1.8252936032E+00
   -1.8229169191E+00   -1.8205464161E+00   -1.8181820704E+00   -1.8158238578E+00
   -1.8134717545E+00   -1.8111257369E+00   -1.8087857813E+00   -1.8064518644E+00
   -1.8041239627E+00   -1.8018020529E+00   -1.7994861122E+00   -1.7971761173E+00
   -1.7948720455E+00   -1.7925738740E+00   -1.7902815801E+00   -1.7879951415E+00
   -1.7857145355E+00   -1.7834397400E+00   -1.7811707328E+00   -1.7789074918E+00
   -1.7766499951E+00   -1.7743982208E+00   -1.7721521472E+00   -1.7699117526E+00
   -1.7676770156E+00   -1.7654479148E+00   -1.7632244288E+00   -1.7610065365E+00
   -1.7587942167E+00   -1.7565874486E+00   -1.7543862112E+00   -1.7521904838E+00
   -1.7500002457E+00   -1.7478154764E+00   -1.7456361554E+00   -1.7434622623E+00
   -1.7412937769E+00   -1.7391306790E+00   -1.7369729486E+00   -1.7348205657E+00
   -1.7326735106E+00   -1.7305317633E+00   -1.7283953043E+00   -1.7262641140E+00
   -1.7241381729E+00   -1.7220174617E+00   -1.7199019611E+00   -1.7177916519E+00
   -1.7156865150E+00   -1.7135865314E+00   -1.7114916823E+00   -1.7094019488E+00
   -1.7073173122E+00   -1.7052377538E+00   -1.7031632553E+00   -1.7010937980E+00
   -1.6990293637E+00   -1.6969699340E+00   -1.6949154909E+00   -1.6928660162E+00
   -1.6908214919E+00   -1.6887819001E+00   -1.6867472230E+00   -1.6847174428E+00
   -1.6826925419E+00   -1.6806725027E+00   -1.6786573077E+00   -1.6766469396E+00
   -1.6746413809E+00   -1.6726406144E+00   -1.6706446231E+00   -1.6686533898E+00
   -1.6666668975E+00   -1.6646851293E+00   -1.6627080684E+00   -1.6607356981E+00
   -1.6587680016E+00   -1.6568049623E+00   -1.6548465639E+00   -1.6528927897E+00
   -1.6509436235E+00   -1.6489990490E+00   -1.6470590499E+00   -1.6451236101E+00
   -1.6431927137E+00   -1.6412663445E+00   -1.6393444868E+00   -1.6374271246E+00
   -1.6355142423E+00   -1.6336058240E+00   -1.6317018543E+00   -1.6298023176E+00
   -1.6279071984E+00   -1.6260164813E+00   -1.6241301511E+00   -1.6222481924E+00
   -1.6203705901E+00   -1.6184973291E+00   -1.6166283943E+00   -1.6147637708E+00
   -1.6129034436E+00   -1.6110473980E+00   -1.6091956191E+00   -1.6073480923E+00
   -1.6055048030E+00   -1.6036657365E+00   -1.6018308784E+00   -1.6000002143E+00
   -1.5981737298E+00   -1.5963514106E+00   -1.5945332424E+00   -1.5927192112E+00
   -1.5909093027E+00   -1.5891035030E+00   -1.5873017981E+00   -1.5855041740E+00
   -1.5837106170E+00   -1.5819211132E+00   -1.5801356489E+00   -1.5783542105E+00
   -1.5765767843E+00   -1.5748033568E+00   -1.5730339146E+00   -1.5712684441E+00
   -1.5695069321E+00   -1.5677493653E+00   -1.5659957304E+00   -1.5642460142E+00
   -1.5625002036E+00   -1.5607582856E+00   -1.5590202471E+00   -1.5572860752E+00
   -1.5555557571E+00   -1.5538292798E+00   -1.5521066306E+00   -1.5503877969E+00
   -1.5486727658E+00   -1.5469615249E+00   -1.5452540615E+00   -1.5435503632E+00
   -1.5418504176E+00   -1.5401542122E+00   -1.5384617347E+00   -1.5367729729E+00
   -1.5350879145E+00   -1.5334065474E+00   -1.5317288594E+00   -1.5300548385E+00
   -1.5283844726E+00   -1.5267177499E+00   -1.5250546583E+00   -1.5233951861E+00
   -1.5217393215E+00   -1.5200870526E+00   -1.5184383678E+00   -1.5167932555E+00
   -1.5151517041E+00   -1.5135137019E+00   -1.5118792375E+00   -1.5102482995E+00
   -1.5086208765E+00   -1.5069969570E+00   -1.5053765298E+00   -1.5037595837E+00
   -1.5021461074E+00   -1.5005360898E+00   -1.4989295198E+00   -1.4973263863E+00
   -1.4957266783E+00   -1.4941303848E+00   -1.4925374950E+00   -1.4909479978E+00
   -1.4893618826E+00   -1.4877791385E+00   -1.4861997548E+00   -1.4846237208E+00
   -1.4830510258E+00   -1.4814816593E+00   -1.4799156107E+00   -1.4783528695E+00
   -1.4767934252E+00   -1.4752372674E+00   -1.4736843858E+00   -1.4721347699E+00
   -1.4705884095E+00   -1.4690452943E+00   -1.4675054142E+00   -1.4659687590E+00
   -1.4644353185E+00   -1.4629050828E+00   -1.4613780416E+00   -1.4598541851E+00
   -1.4583335034E+00   -1.4568159864E+00   -1.4553016243E+00   -1.4537904073E+00
   -1.4522823256E+00   -1.4507773695E+00   -1.4492755292E+00   -1.4477767952E+00
   -1.4462811576E+00   -1.4447886071E+00   -1.4432991339E+00   -1.4418127287E+00
   -1.4403293819E+00   -1.4388490842E+00   -1.4373718261E+00   -1.4358975982E+00
   -1.4344263913E+00   -1.4329581961E+00   -1.4314930033E+00   -1.4300308038E+00
   -1.4285715883E+00   -1.4271153478E+00   -1.4256620732E+00   -1.4242117554E+00
   -1.4227643854E+00   -1.4213199542E+00   -1.4198784529E+00   -1.4184398725E+00
   -1.4170042043E+00   -1.4155714394E+00   -1.4141415689E+00   -1.4127145841E+00
   -1.4112904763E+00   -1.4098692368E+00   -1.4084508570E+00   -1.4070353281E+00
   -1.4056226417E+00   -1.4042127892E+00   -1.4028057620E+00   -1.4014015517E+00
   -1.4000001498E+00   -1.3986015479E+00   -1.3972057376E+00   -1.3958127106E+00
   -1.3944224586E+00   -1.3930349732E+00   -1.3916502463E+00   -1.3902682695E+00
   -1.3888890348E+00   -1.3875125339E+00   -1.3861387588E+00   -1.3847677013E+00
   -1.3833993534E+00   -1.3820337071E+00   -1.3806707544E+00   -1.3793104873E+00
   -1.3779528979E+00   -1.3765979783E+00   -1.3752457207E+00   -1.3738961171E+00
   -1.3725491597E+00   -1.3712048409E+00   -1.3698631529E+00   -1.3685240879E+00
   -1.3671876383E+00   -1.3658537963E+00   -1.3645225545E+00   -1.3631939051E+00
   -1.3618678407E+00   -1.3605443536E+00   -1.3592234364E+00   -1.3579050816E+00
   -1.3565892818E+00   -1.3552760295E+00   -1.3539653174E+00   -1.3526571380E+00
   -1.3513514840E+00   -1.3500483482E+00   -1.3487477233E+00   -1.3474496020E+00
   -1.3461539770E+00   -1.3448608413E+00   -1.3435701875E+00   -1.3422820087E+00
   -1.3409962976E+00   -1.3397130473E+00   -1.3384322505E+00   -1.3371539004E+00
   -1.3358779899E+00   -1.3346045120E+00   -1.3333334597E+00   -1.3320648262E+00
   -1.3307986046E+00   -1.3295347879E+00   -1.3282733694E+00   -1.3270143422E+00
   -1.3257576995E+00   -1.3245034346E+00   -1.3232515406E+00   -1.3220020110E+00
   -1.3207548390E+00   -1.3195100179E+00   -1.3182675411E+00   -1.3170274020E+00
   -1.3157895940E+00   -1.3145541105E+00   -1.3133209449E+00   -1.3120900909E+00
   -1.3108615418E+00   -1.3096352912E+00   -1.3084113327E+00   -1.3071896598E+00
   -1.3059702661E+00   -1.3047531454E+00   -1.3035382911E+00   -1.3023256970E+00
   -1.3011153569E+00   -1.2999072643E+00   -1.2987014131E+00   -1.2974977970E+00
   -1.2962964099E+00   -1.2950972454E+00   -1.2939002976E+00   -1.2927055602E+00
   -1.2915130271E+00   -1.2903226922E+00   -1.2891345494E+00   -1.2879485928E+00
   -1.2867648162E+00   -1.2855832137E+00   -1.2844037792E+00   -1.2832265069E+00
   -1.2820513908E+00   -1.2808784249E+00   -1.2797076034E+00   -1.2785389203E+00
   -1.2773723699E+00   -1.2762079463E+00   -1.2750456437E+00   -1.2738854563E+00
   -1.2727273783E+00   -1.2715714040E+00   -1.2704175277E+00   -1.2692657436E+00
   -1.2681160461E+00   -1.2669684294E+00   -1.2658228881E+00   -1.2646794163E+00
  </PP_LOCAL>
 <PP_NONLOCAL>
   <PP_BETA.1
       type="real"
       size="1108"
       columns="4"
       index="1"
       angular_momentum="0"
       cutoff_radius_index=" 224"
       cutoff_radius="    2.2300000000E+00" >
    1.1787204546E-10    3.3999241683E-02    6.8000142920E-02    1.0200407135E-01
    1.3601181387E-01    1.7002329400E-01    2.0403729837E-01    2.3805121532E-01
    2.7206078835E-01    3.0605988718E-01    3.4004029872E-01    3.7399154041E-01
    4.0790069793E-01    4.4175228906E-01    4.7552815539E-01    5.0920738303E-01
    5.4276625349E-01    5.7617822527E-01    6.0941394683E-01    6.4244130077E-01
    6.7522547922E-01    7.0772908991E-01    7.3991229202E-01    7.7173296080E-01
    8.0314687953E-01    8.3410795721E-01    8.6456846999E-01    8.9447932422E-01
    9.2379033879E-01    9.5245054414E-01    9.8040849520E-01    1.0076125954E+00
    1.0340114288E+00    1.0595540971E+00    1.0841905585E+00    1.1078719654E+00
    1.1305509975E+00    1.1521821868E+00    1.1727222327E+00    1.1921303028E+00
    1.2103683176E+00    1.2274012154E+00    1.2431971956E+00    1.2577279388E+00
    1.2709687989E+00    1.2828989693E+00    1.2935016176E+00    1.3027639905E+00
    1.3106774867E+00    1.3172376970E+00    1.3224444109E+00    1.3263015916E+00
    1.3288173163E+00    1.3300036862E+00    1.3298767035E+00    1.3284561196E+00
    1.3257652538E+00    1.3218307854E+00    1.3166825212E+00    1.3103531398E+00
    1.3028779167E+00    1.2942944313E+00    1.2846422599E+00    1.2739626570E+00
    1.2622982283E+00    1.2496925987E+00    1.2361900787E+00    1.2218353315E+00
    1.2066730459E+00    1.1907476165E+00    1.1741028357E+00    1.1567815989E+00
    1.1388256283E+00    1.1202752155E+00    1.1011689871E+00    1.0815436951E+00
    1.0614340340E+00    1.0408724869E+00    1.0198892018E+00    9.9851189908E-01
    9.7676581167E-01    9.5467365814E-01    9.3225564882E-01    9.0952952509E-01
    8.8651063118E-01    8.6321201785E-01    8.3964457670E-01    8.1581720366E-01
    7.9173698995E-01    7.6740943834E-01    7.4283870240E-01    7.1802784618E-01
    6.9297912137E-01    6.6769425892E-01    6.4217477191E-01    6.1642226631E-01
    5.9043875604E-01    5.6422697882E-01    5.3779070922E-01    5.1113506522E-01
    4.8426680463E-01    4.5719460804E-01    4.2992934451E-01    4.0248431710E-01
    3.7487548476E-01    3.4712165787E-01    3.1924466453E-01    2.9126948541E-01
    2.6322435480E-01    2.3514082607E-01    2.0705380011E-01    1.7900151557E-01
    1.5102550006E-01    1.2317048200E-01    9.5484263058E-02    6.8017551594E-02
    4.0823757840E-02    1.3958752042E-02   -1.2519412925E-02   -3.8550812529E-02
   -6.4073992859E-02   -8.9026341587E-02   -1.1334448467E-01   -1.3696470556E-01
   -1.5982338341E-01   -1.8185744658E-01   -2.0300483741E-01   -2.2320498426E-01
   -2.4239927654E-01   -2.6053153834E-01   -2.7754849641E-01   -2.9340023800E-01
   -3.0804065420E-01   -3.2142786460E-01   -3.3352461899E-01   -3.4429867213E-01
   -3.5372312779E-01   -3.6177674842E-01   -3.6844422719E-01   -3.7371641932E-01
   -3.7759053006E-01   -3.8007025693E-01   -3.8116588436E-01   -3.8089432914E-01
   -3.7927913556E-01   -3.7635041961E-01   -3.7214476197E-01   -3.6670505005E-01
   -3.6008026982E-01   -3.5232524843E-01   -3.4350034937E-01   -3.3367112209E-01
   -3.2290790861E-01   -3.1128540990E-01   -2.9888221530E-01   -2.8578029857E-01
   -2.7206448452E-01   -2.5782189022E-01   -2.4314134558E-01   -2.2811279768E-01
   -2.1282670375E-01   -1.9737341791E-01   -1.8184257658E-01   -1.6632248769E-01
   -1.5089952889E-01   -1.3565755962E-01   -1.2067735220E-01   -1.0603604659E-01
   -9.1806633543E-02   -7.8057470478E-02   -6.4851834274E-02   -5.2247514766E-02
   -4.0296452432E-02   -2.9044423398E-02   -1.8530774443E-02   -8.7882103088E-03
    1.5736488759E-04    8.2869507592E-03    1.5588497407E-02    2.2056895444E-02
    2.7693909391E-02    3.2508055076E-02    3.6514422052E-02    3.9734442668E-02
    4.2195609461E-02    4.3931139220E-02    4.4979439400E-02    4.5383502229E-02
    4.5190391780E-02    4.4450745032E-02    4.3218235677E-02    4.1549016185E-02
    3.9501141277E-02    3.7133977765E-02    3.4507605979E-02    3.1682218060E-02
    2.8717524759E-02    2.5672116157E-02    2.2603014535E-02    1.9564941242E-02
    1.6608258025E-02    1.3774395286E-02    1.1108772696E-02    8.6559194511E-03
    6.4545881020E-03    4.5383585742E-03    2.9351624171E-03    1.6676533068E-03
    7.4639259486E-04    1.9826497414E-04    2.1486719238E-06   -6.9272819285E-06
    4.0251534609E-06   -6.9426281205E-07    1.9924377796E-11    1.1838277579E-11
    0.0000000000E+00    0.0000000000E+00    0.0000000000E+00    0.0000000000E+00
    0.0000000000E+00    0.0000000000E+00    0.0000000000E+00    0.0000000000E+00
 0. 0. 0. 0.
 0. 0. 0. 0.
 0. 0. 0. 0.
 0. 0. 0. 0.
 0. 0. 0. 0.
 0. 0. 0. 0.
 0. 0. 0. 0.
 0. 0. 0. 0.
 0. 0. 0. 0.
 0. 0. 0. 0.
 0. 0. 0. 0.
 0. 0. 0. 0.
 0. 0. 0. 0.
 0. 0. 0. 0.
 0. 0. 0. 0.
 0. 0. 0. 0.
 0. 0. 0. 0.
 0. 0. 0. 0.
 0. 0. 0. 0.
 0. 0. 0. 0.
 0. 0. 0. 0.
 0. 0. 0. 0.
 0. 0. 0. 0.
 0. 0. 0. 0.
 0. 0. 0. 0.
 0. 0. 0. 0.
 0. 0. 0. 0.
 0. 0. 0. 0.
 0. 0. 0. 0.
 0. 0. 0. 0.
 0. 0. 0. 0.
 0. 0. 0. 0.
 0. 0. 0. 0.
 0. 0. 0. 0.
 0. 0. 0. 0.
 0. 0. 0. 0.
 0. 0. 0. 0.
 0. 0. 0. 0.
 0. 0. 0. 0.
 0. 0. 0. 0.
 0. 0. 0. 0.
 0. 0. 0. 0.
 0. 0. 0. 0.
 0. 0. 0. 0.
 0. 0. 0. 0.
 0. 0. 0. 0.
 0. 0. 0. 0.
 0. 0. 0. 0.
 0. 0. 0. 0.
 0. 0. 0. 0.
 0. 0. 0. 0.
 0. 0. 0. 0.
 0. 0. 0. 0.
 0. 0. 0. 0.
 0. 0. 0. 0.
 0. 0. 0. 0.
 0. 0. 0. 0.
 0. 0. 0. 0.
 0. 0. 0. 0.
 0. 0. 0. 0.
 0. 0. 0. 0.
 0. 0. 0. 0.
 0. 0. 0. 0.
 0. 0. 0. 0.
 0. 0. 0. 0.
 0. 0. 0. 0.
 0. 0. 0. 0.
 0. 0. 0. 0.
 0. 0. 0. 0.
 0. 0. 0. 0.
 0. 0. 0. 0.
 0. 0. 0. 0.
 0. 0. 0. 0.
 0. 0. 0. 0.
 0. 0. 0. 0.
 0. 0. 0. 0.
 0. 0. 0. 0.
 0. 0. 0. 0.
 0. 0. 0. 0.
 0. 0. 0. 0.
 0. 0. 0. 0.
 0. 0. 0. 0.
 0. 0. 0. 0.
 0. 0. 0. 0.
 0. 0. 0. 0.
 0. 0. 0. 0.
 0. 0. 0. 0.
 0. 0. 0. 0.
 0. 0. 0. 0.
 0. 0. 0. 0.
 0. 0. 0. 0.
 0. 0. 0. 0.
 0. 0. 0. 0.
 0. 0. 0. 0.
 0. 0. 0. 0.
 0. 0. 0. 0.
 0. 0. 0. 0.
 0. 0. 0. 0.
 0. 0. 0. 0.
 0. 0. 0. 0.
 0. 0. 0. 0.
 0. 0. 0. 0.
 0. 0. 0. 0.
 0. 0. 0. 0.
 0. 0. 0. 0.
 0. 0. 0. 0.
 0. 0. 0. 0.
 0. 0. 0. 0.
 0. 0. 0. 0.
 0. 0. 0. 0.
 0. 0. 0. 0.
 0. 0. 0. 0.
 0. 0. 0. 0.
 0. 0. 0. 0.
 0. 0. 0. 0.
 0. 0. 0. 0.
 0. 0. 0. 0.
 0. 0. 0. 0.
 0. 0. 0. 0.
 0. 0. 0. 0.
 0. 0. 0. 0.
 0. 0. 0. 0.
 0. 0. 0. 0.
 0. 0. 0. 0.
 0. 0. 0. 0.
 0. 0. 0. 0.
 0. 0. 0. 0.
 0. 0. 0. 0.
 0. 0. 0. 0.
 0. 0. 0. 0.
 0. 0. 0. 0.
 0. 0. 0. 0.
 0. 0. 0. 0.
 0. 0. 0. 0.
 0. 0. 0. 0.
 0. 0. 0. 0.
 0. 0. 0. 0.
 0. 0. 0. 0.
 0. 0. 0. 0.
 0. 0. 0. 0.
 0. 0. 0. 0.
 0. 0. 0. 0.
 0. 0. 0. 0.
 0. 0. 0. 0.
 0. 0. 0. 0.
 0. 0. 0. 0.
 0. 0. 0. 0.
 0. 0. 0. 0.
 0. 0. 0. 0.
 0. 0. 0. 0.
 0. 0. 0. 0.
 0. 0. 0. 0.
 0. 0. 0. 0.
 0. 0. 0. 0.
 0. 0. 0. 0.
 0. 0. 0. 0.
 0. 0. 0. 0.
 0. 0. 0. 0.
 0. 0. 0. 0.
 0. 0. 0. 0.
 0. 0. 0. 0.
 0. 0. 0. 0.
 0. 0. 0. 0.
 0. 0. 0. 0.
 0. 0. 0. 0.
 0. 0. 0. 0.
 0. 0. 0. 0.
 0. 0. 0. 0.
 0. 0. 0. 0.
 0. 0. 0. 0.
 0. 0. 0. 0.
 0. 0. 0. 0.
 0. 0. 0. 0.
 0. 0. 0. 0.
 0. 0. 0. 0.
 0. 0. 0. 0.
 0. 0. 0. 0.
 0. 0. 0. 0.
 0. 0. 0. 0.
 0. 0. 0. 0.
 0. 0. 0. 0.
 0. 0. 0. 0.
 0. 0. 0. 0.
 0. 0. 0. 0.
 0. 0. 0. 0.
 0. 0. 0. 0.
 0. 0. 0. 0.
 0. 0. 0. 0.
 0. 0. 0. 0.
 0. 0. 0. 0.
 0. 0. 0. 0.
 0. 0. 0. 0.
 0. 0. 0. 0.
 0. 0. 0. 0.
 0. 0. 0. 0.
 0. 0. 0. 0.
 0. 0. 0. 0.
 0. 0. 0. 0.
 0. 0. 0. 0.
 0. 0. 0. 0.
 0. 0. 0. 0.
 0. 0. 0. 0.
 0. 0. 0. 0.
 0. 0. 0. 0.
 0. 0. 0. 0.
 0. 0. 0. 0.
 0. 0. 0. 0.
 0. 0. 0. 0.
 0. 0. 0. 0.
 0. 0. 0. 0.
 0. 0. 0. 0.
 0. 0. 0. 0.
 0. 0. 0. 0.
 0. 0. 0. 0.
 0. 0. 0. 0.
 0. 0. 0. 0.
 0. 0. 0. 0.
 0. 0. 0. 0.
 0. 0. 0. 0.
 0. 0. 0. 0.
 0. 0. 0. 0.
   </PP_BETA.1>
   <PP_BETA.2
       type="real"
       size="1108"
       columns="4"
       index="2"
       angular_momentum="0"
       cutoff_radius_index=" 224"
       cutoff_radius="    2.2300000000E+00" >
   -3.3374207564E-10   -3.3340442814E-03   -6.7278144488E-03   -1.0240202849E-02
   -1.3928443386E-02   -1.7847303810E-02   -2.2048303566E-02   -2.6578965347E-02
   -3.1482108137E-02   -3.6795189123E-02   -4.2549701383E-02   -4.8770633691E-02
   -5.5475998170E-02   -6.2676430846E-02   -7.0374869434E-02   -7.8566311927E-02
   -8.7237658731E-02   -9.6367640289E-02   -1.0592683125E-01   -1.1587775142E-01
   -1.2617505275E-01   -1.3676579102E-01   -1.4758977957E-01   -1.5858002213E-01
   -1.6966322065E-01   -1.8076035326E-01   -1.9178731711E-01   -2.0265562972E-01
   -2.1327318226E-01   -2.2354503736E-01   -2.3337426384E-01   -2.4266280000E-01
   -2.5131233729E-01   -2.5922521540E-01   -2.6630532015E-01   -2.7245897517E-01
   -2.7759581853E-01   -2.8162965563E-01   -2.8447927977E-01   -2.8606925209E-01
   -2.8633063317E-01   -2.8520165869E-01   -2.8262835236E-01   -2.7856506972E-01
   -2.7297496735E-01   -2.6583039231E-01   -2.5711318792E-01   -2.4681491236E-01
   -2.3493696771E-01   -2.2149063776E-01   -2.0649703399E-01   -1.8998694980E-01
   -1.7200062422E-01   -1.5258741708E-01   -1.3180539856E-01   -1.0972085693E-01
   -8.6407729041E-02   -6.1946959065E-02   -3.6425791511E-02   -9.9370054529E-03
    1.7421902651E-02    4.5549579520E-02    7.4341710546E-02    1.0369194136E-01
    1.3349281629E-01    1.6363672441E-01    1.9401684358E-01    2.2452807303E-01
    2.5506794505E-01    2.8553750638E-01    3.1584216040E-01    3.4589246132E-01
    3.7560485223E-01    4.0490233907E-01    4.3371509367E-01    4.6198097913E-01
    4.8964599203E-01    5.1666461640E-01    5.4300008561E-01    5.6862454879E-01
    5.9351913989E-01    6.1767394791E-01    6.4108788822E-01    6.6376847580E-01
    6.8573150207E-01    7.0700061820E-01    7.2760682866E-01    7.4758789970E-01
    7.6698768838E-01    7.8585539868E-01    8.0424477188E-01    8.2221321936E-01
    8.3982090635E-01    8.5712979607E-01    8.7420266380E-01    8.9110209130E-01
    9.0788945178E-01    9.2462389630E-01    9.4136135228E-01    9.5815354492E-01
    9.7504705211E-01    9.9208240336E-01    1.0092932329E+00    1.0267054963E+00
    1.0443367606E+00    1.0621955752E+00    1.0802809325E+00    1.0985818247E+00
    1.1170769036E+00    1.1357342471E+00    1.1545112382E+00    1.1733545595E+00
    1.1922003035E+00    1.2109742025E+00    1.2295919743E+00    1.2479597866E+00
    1.2659748328E+00    1.2835260198E+00    1.3004947597E+00    1.3167558615E+00
    1.3321785151E+00    1.3466273588E+00    1.3599636238E+00    1.3720463427E+00
    1.3827336141E+00    1.3918839113E+00    1.3993574225E+00    1.4050174119E+00
    1.4087315870E+00    1.4103734618E+00    1.4098237005E+00    1.4069714306E+00
    1.4017155113E+00    1.3939657451E+00    1.3836440212E+00    1.3706853773E+00
    1.3550389693E+00    1.3366689401E+00    1.3155551748E+00    1.2916939362E+00
    1.2650983719E+00    1.2357988864E+00    1.2038433722E+00    1.1692972975E+00
    1.1322436449E+00    1.0927827022E+00    1.0510317022E+00    1.0071243151E+00
    9.6120999435E-01    9.1345317985E-01    8.6403236402E-01    8.1313902683E-01
    7.6097644730E-01    7.0775840042E-01    6.5370774924E-01    5.9905494304E-01
    5.4403643351E-01    4.8889302162E-01    4.3386814841E-01    3.7920614407E-01
    3.2515044945E-01    2.7194182517E-01    2.1981656330E-01    1.6900471678E-01
    1.1972836192E-01    7.2199908692E-02    2.6620473713E-02   -1.6821669958E-02
   -5.7952552617E-02   -9.6613864309E-02   -1.3266419575E-01   -1.6598015259E-01
   -1.9645733296E-01   -2.2401115925E-01   -2.4857755634E-01   -2.7011347003E-01
   -2.8859722022E-01   -3.0402868557E-01   -3.1642931709E-01   -3.2584198004E-01
   -3.3233062494E-01   -3.3597978987E-01   -3.3689393746E-01   -3.3519663199E-01
   -3.3102956114E-01   -3.2455138940E-01   -3.1593571462E-01   -3.0536877788E-01
   -2.9304774011E-01   -2.7917910183E-01   -2.6397699451E-01   -2.4766141390E-01
   -2.3045640089E-01   -2.1258818499E-01   -1.9428330636E-01   -1.7576673236E-01
   -1.5726000233E-01   -1.3897925106E-01   -1.2113377003E-01   -1.0392378990E-01
   -8.7534604918E-02   -7.2123730118E-02   -5.7856463671E-02   -4.4892299367E-02
   -3.3371304855E-02   -2.3415661096E-02   -1.5128243288E-02   -8.5951305397E-03
   -3.8505977374E-03   -1.0249397749E-03   -1.1172079394E-05    3.5915702659E-05
   -2.0824303679E-05    3.5864050834E-06   -7.0503424793E-11   -4.1890347669E-11
    0.0000000000E+00    0.0000000000E+00    0.0000000000E+00    0.0000000000E+00
    0.0000000000E+00    0.0000000000E+00    0.0000000000E+00    0.0000000000E+00
 0. 0. 0. 0.
 0. 0. 0. 0.
 0. 0. 0. 0.
 0. 0. 0. 0.
 0. 0. 0. 0.
 0. 0. 0. 0.
 0. 0. 0. 0.
 0. 0. 0. 0.
 0. 0. 0. 0.
 0. 0. 0. 0.
 0. 0. 0. 0.
 0. 0. 0. 0.
 0. 0. 0. 0.
 0. 0. 0. 0.
 0. 0. 0. 0.
 0. 0. 0. 0.
 0. 0. 0. 0.
 0. 0. 0. 0.
 0. 0. 0. 0.
 0. 0. 0. 0.
 0. 0. 0. 0.
 0. 0. 0. 0.
 0. 0. 0. 0.
 0. 0. 0. 0.
 0. 0. 0. 0.
 0. 0. 0. 0.
 0. 0. 0. 0.
 0. 0. 0. 0.
 0. 0. 0. 0.
 0. 0. 0. 0.
 0. 0. 0. 0.
 0. 0. 0. 0.
 0. 0. 0. 0.
 0. 0. 0. 0.
 0. 0. 0. 0.
 0. 0. 0. 0.
 0. 0. 0. 0.
 0. 0. 0. 0.
 0. 0. 0. 0.
 0. 0. 0. 0.
 0. 0. 0. 0.
 0. 0. 0. 0.
 0. 0. 0. 0.
 0. 0. 0. 0.
 0. 0. 0. 0.
 0. 0. 0. 0.
 0. 0. 0. 0.
 0. 0. 0. 0.
 0. 0. 0. 0.
 0. 0. 0. 0.
 0. 0. 0. 0.
 0. 0. 0. 0.
 0. 0. 0. 0.
 0. 0. 0. 0.
 0. 0. 0. 0.
 0. 0. 0. 0.
 0. 0. 0. 0.
 0. 0. 0. 0.
 0. 0. 0. 0.
 0. 0. 0. 0.
 0. 0. 0. 0.
 0. 0. 0. 0.
 0. 0. 0. 0.
 0. 0. 0. 0.
 0. 0. 0. 0.
 0. 0. 0. 0.
 0. 0. 0. 0.
 0. 0. 0. 0.
 0. 0. 0. 0.
 0. 0. 0. 0.
 0. 0. 0. 0.
 0. 0. 0. 0.
 0. 0. 0. 0.
 0. 0. 0. 0.
 0. 0. 0. 0.
 0. 0. 0. 0.
 0. 0. 0. 0.
 0. 0. 0. 0.
 0. 0. 0. 0.
 0. 0. 0. 0.
 0. 0. 0. 0.
 0. 0. 0. 0.
 0. 0. 0. 0.
 0. 0. 0. 0.
 0. 0. 0. 0.
 0. 0. 0. 0.
 0. 0. 0. 0.
 0. 0. 0. 0.
 0. 0. 0. 0.
 0. 0. 0. 0.
 0. 0. 0. 0.
 0. 0. 0. 0.
 0. 0. 0. 0.
 0. 0. 0. 0.
 0. 0. 0. 0.
 0. 0. 0. 0.
 0. 0. 0. 0.
 0. 0. 0. 0.
 0. 0. 0. 0.
 0. 0. 0. 0.
 0. 0. 0. 0.
 0. 0. 0. 0.
 0. 0. 0. 0.
 0. 0. 0. 0.
 0. 0. 0. 0.
 0. 0. 0. 0.
 0. 0. 0. 0.
 0. 0. 0. 0.
 0. 0. 0. 0.
 0. 0. 0. 0.
 0. 0. 0. 0.
 0. 0. 0. 0.
 0. 0. 0. 0.
 0. 0. 0. 0.
 0. 0. 0. 0.
 0. 0. 0. 0.
 0. 0. 0. 0.
 0. 0. 0. 0.
 0. 0. 0. 0.
 0. 0. 0. 0.
 0. 0. 0. 0.
 0. 0. 0. 0.
 0. 0. 0. 0.
 0. 0. 0. 0.
 0. 0. 0. 0.
 0. 0. 0. 0.
 0. 0. 0. 0.
 0. 0. 0. 0.
 0. 0. 0. 0.
 0. 0. 0. 0.
 0. 0. 0. 0.
 0. 0. 0. 0.
 0. 0. 0. 0.
 0. 0. 0. 0.
 0. 0. 0. 0.
 0. 0. 0. 0.
 0. 0. 0. 0.
 0. 0. 0. 0.
 0. 0. 0. 0.
 0. 0. 0. 0.
 0. 0. 0. 0.
 0. 0. 0. 0.
 0. 0. 0. 0.
 0. 0. 0. 0.
 0. 0. 0. 0.
 0. 0. 0. 0.
 0. 0. 0. 0.
 0. 0. 0. 0.
 0. 0. 0. 0.
 0. 0. 0. 0.
 0. 0. 0. 0.
 0. 0. 0. 0.
 0. 0. 0. 0.
 0. 0. 0. 0.
 0. 0. 0. 0.
 0. 0. 0. 0.
 0. 0. 0. 0.
 0. 0. 0. 0.
 0. 0. 0. 0.
 0. 0. 0. 0.
 0. 0. 0. 0.
 0. 0. 0. 0.
 0. 0. 0. 0.
 0. 0. 0. 0.
 0. 0. 0. 0.
 0. 0. 0. 0.
 0. 0. 0. 0.
 0. 0. 0. 0.
 0. 0. 0. 0.
 0. 0. 0. 0.
 0. 0. 0. 0.
 0. 0. 0. 0.
 0. 0. 0. 0.
 0. 0. 0. 0.
 0. 0. 0. 0.
 0. 0. 0. 0.
 0. 0. 0. 0.
 0. 0. 0. 0.
 0. 0. 0. 0.
 0. 0. 0. 0.
 0. 0. 0. 0.
 0. 0. 0. 0.
 0. 0. 0. 0.
 0. 0. 0. 0.
 0. 0. 0. 0.
 0. 0. 0. 0.
 0. 0. 0. 0.
 0. 0. 0. 0.
 0. 0. 0. 0.
 0. 0. 0. 0.
 0. 0. 0. 0.
 0. 0. 0. 0.
 0. 0. 0. 0.
 0. 0. 0. 0.
 0. 0. 0. 0.
 0. 0. 0. 0.
 0. 0. 0. 0.
 0. 0. 0. 0.
 0. 0. 0. 0.
 0. 0. 0. 0.
 0. 0. 0. 0.
 0. 0. 0. 0.
 0. 0. 0. 0.
 0. 0. 0. 0.
 0. 0. 0. 0.
 0. 0. 0. 0.
 0. 0. 0. 0.
 0. 0. 0. 0.
 0. 0. 0. 0.
 0. 0. 0. 0.
 0. 0. 0. 0.
 0. 0. 0. 0.
 0. 0. 0. 0.
 0. 0. 0. 0.
 0. 0. 0. 0.
 0. 0. 0. 0.
 0. 0. 0. 0.
 0. 0. 0. 0.
 0. 0. 0. 0.
 0. 0. 0. 0.
 0. 0. 0. 0.
   </PP_BETA.2>
   <PP_BETA.3
       type="real"
       size="1108"
       columns="4"
       index="3"
       angular_momentum="1"
       cutoff_radius_index=" 224"
       cutoff_radius="    2.2300000000E+00" >
   -8.1427459567E-10    4.5582488269E-04    1.8250385138E-03    4.1128221883E-03
    7.3276929981E-03    1.1481327796E-02    1.6588319855E-02    2.2665871278E-02
    2.9733425059E-02    3.7812241409E-02    4.6924923750E-02    5.7094900358E-02
    6.8345868276E-02    8.0701206595E-02    9.4183366631E-02    1.0881324686E-01
    1.2460956071E-01    1.4158820552E-01    1.5976164083E-01    1.7913828447E-01
    1.9972193437E-01    2.2151122407E-01    2.4449911944E-01    2.6867246375E-01
    2.9401157759E-01    3.2048991988E-01    3.4807381499E-01    3.7672225095E-01
    4.0638675229E-01    4.3701133060E-01    4.6853251504E-01    5.0087946378E-01
    5.3397415685E-01    5.6773166958E-01    6.0206052517E-01    6.3686312374E-01
    6.7203624453E-01    7.0747161688E-01    7.4305655499E-01    7.7867465033E-01
    8.1420651544E-01    8.4953057151E-01    8.8452387222E-01    9.1906295534E-01
    9.5302471363E-01    9.8628727580E-01    1.0187308886E+00    1.0502387908E+00
    1.0806980694E+00    1.1100004896E+00    1.1380432894E+00    1.1647299296E+00
    1.1899707920E+00    1.2136838179E+00    1.2357950790E+00    1.2562392762E+00
    1.2749601585E+00    1.2919108586E+00    1.3070541418E+00    1.3203625630E+00
    1.3318185334E+00    1.3414142920E+00    1.3491517852E+00    1.3550424536E+00
    1.3591069297E+00    1.3613746478E+00    1.3618833720E+00    1.3606786462E+00
    1.3578131724E+00    1.3533461248E+00    1.3473424049E+00    1.3398718492E+00
    1.3310083953E+00    1.3208292172E+00    1.3094138389E+00    1.2968432368E+00
    1.2831989399E+00    1.2685621400E+00    1.2530128188E+00    1.2366289060E+00
    1.2194854739E+00    1.2016539808E+00    1.1832015711E+00    1.1641904390E+00
    1.1446772655E+00    1.1247127337E+00    1.1043411289E+00    1.0836000282E+00
    1.0625200838E+00    1.0411249023E+00    1.0194310223E+00    9.9744799036E-01
    9.7517853503E-01    9.5261883775E-01    9.2975889698E-01    9.0658298221E-01
    8.8307017276E-01    8.5919497532E-01    8.3492801333E-01    8.1023678031E-01
    7.8508644847E-01    7.5944072325E-01    7.3326273371E-01    7.0651594828E-01
    6.7916510501E-01    6.5117714500E-01    6.2252213767E-01    5.9317418656E-01
    5.6311230429E-01    5.3232124562E-01    5.0079228790E-01    4.6852394863E-01
    4.3552263062E-01    4.0180318561E-01    3.6738938836E-01    3.3231431398E-01
    2.9662061229E-01    2.6036067407E-01    2.2359668527E-01    1.8640056637E-01
    1.4885379539E-01    1.1104711443E-01    7.3080120559E-02    3.5060743672E-02
   -2.8953852014E-03   -4.0665670189E-02   -7.8121385345E-02   -1.1512860063E-01
   -1.5154919075E-01   -1.8724191738E-01   -2.2206357463E-01   -2.5587018650E-01
   -2.8851824444E-01   -3.1986597288E-01   -3.4977460951E-01   -3.7810968735E-01
   -4.0474230523E-01   -4.2955037313E-01   -4.5241981929E-01   -4.7324574578E-01
   -4.9193352016E-01   -5.0839979086E-01   -5.2257341494E-01   -5.3439628755E-01
   -5.4382406330E-01   -5.5082676086E-01   -5.5538924313E-01   -5.5751156673E-01
   -5.5720919552E-01   -5.5451307467E-01   -5.4946956279E-01   -5.4214022136E-01
   -5.3260146202E-01   -5.2094405381E-01   -5.0727249395E-01   -4.9170424701E-01
   -4.7436885904E-01   -4.5540695412E-01   -4.3496912252E-01   -4.1321471046E-01
   -3.9031052273E-01   -3.6642945049E-01   -3.4174903700E-01   -3.1644999537E-01
   -2.9071469239E-01   -2.6472561334E-01   -2.3866382279E-01   -2.1270743644E-01
   -1.8703011936E-01   -1.6179962522E-01   -1.3717639143E-01   -1.1331220404E-01
   -9.0348945815E-02   -6.8417440357E-02   -4.7636403641E-02   -2.8111513871E-02
   -9.9346090157E-03    6.8169797432E-03    2.2080951784E-02    3.5810412640E-02
    4.7974097494E-02    5.8556440208E-02    6.7557486981E-02    7.4992655492E-02
    8.0892341372E-02    8.5301370782E-02    8.8278121711E-02    8.9893473872E-02
    9.0229796300E-02    8.9379878580E-02    8.7445747271E-02    8.4537393010E-02
    8.0771419079E-02    7.6269625082E-02    7.1157540242E-02    6.5562921334E-02
    5.9614244858E-02    5.3439074579E-02    4.7162845714E-02    4.0906984103E-02
    3.4784062414E-02    2.8887438815E-02    2.3319954919E-02    1.8182595165E-02
    1.3563236247E-02    9.5378144203E-03    6.1690585528E-03    3.5070682899E-03
    1.5745999446E-03    4.2799879398E-04    1.8036444737E-05   -1.1615598014E-05
    7.1213752870E-06   -1.1638678423E-06   -1.5852348366E-08   -9.4188386786E-09
    0.0000000000E+00    0.0000000000E+00    0.0000000000E+00    0.0000000000E+00
    0.0000000000E+00    0.0000000000E+00    0.0000000000E+00    0.0000000000E+00
 0. 0. 0. 0.
 0. 0. 0. 0.
 0. 0. 0. 0.
 0. 0. 0. 0.
 0. 0. 0. 0.
 0. 0. 0. 0.
 0. 0. 0. 0.
 0. 0. 0. 0.
 0. 0. 0. 0.
 0. 0. 0. 0.
 0. 0. 0. 0.
 0. 0. 0. 0.
 0. 0. 0. 0.
 0. 0. 0. 0.
 0. 0. 0. 0.
 0. 0. 0. 0.
 0. 0. 0. 0.
 0. 0. 0. 0.
 0. 0. 0. 0.
 0. 0. 0. 0.
 0. 0. 0. 0.
 0. 0. 0. 0.
 0. 0. 0. 0.
 0. 0. 0. 0.
 0. 0. 0. 0.
 0. 0. 0. 0.
 0. 0. 0. 0.
 0. 0. 0. 0.
 0. 0. 0. 0.
 0. 0. 0. 0.
 0. 0. 0. 0.
 0. 0. 0. 0.
 0. 0. 0. 0.
 0. 0. 0. 0.
 0. 0. 0. 0.
 0. 0. 0. 0.
 0. 0. 0. 0.
 0. 0. 0. 0.
 0. 0. 0. 0.
 0. 0. 0. 0.
 0. 0. 0. 0.
 0. 0. 0. 0.
 0. 0. 0. 0.
 0. 0. 0. 0.
 0. 0. 0. 0.
 0. 0. 0. 0.
 0. 0. 0. 0.
 0. 0. 0. 0.
 0. 0. 0. 0.
 0. 0. 0. 0.
 0. 0. 0. 0.
 0. 0. 0. 0.
 0. 0. 0. 0.
 0. 0. 0. 0.
 0. 0. 0. 0.
 0. 0. 0. 0.
 0. 0. 0. 0.
 0. 0. 0. 0.
 0. 0. 0. 0.
 0. 0. 0. 0.
 0. 0. 0. 0.
 0. 0. 0. 0.
 0. 0. 0. 0.
 0. 0. 0. 0.
 0. 0. 0. 0.
 0. 0. 0. 0.
 0. 0. 0. 0.
 0. 0. 0. 0.
 0. 0. 0. 0.
 0. 0. 0. 0.
 0. 0. 0. 0.
 0. 0. 0. 0.
 0. 0. 0. 0.
 0. 0. 0. 0.
 0. 0. 0. 0.
 0. 0. 0. 0.
 0. 0. 0. 0.
 0. 0. 0. 0.
 0. 0. 0. 0.
 0. 0. 0. 0.
 0. 0. 0. 0.
 0. 0. 0. 0.
 0. 0. 0. 0.
 0. 0. 0. 0.
 0. 0. 0. 0.
 0. 0. 0. 0.
 0. 0. 0. 0.
 0. 0. 0. 0.
 0. 0. 0. 0.
 0. 0. 0. 0.
 0. 0. 0. 0.
 0. 0. 0. 0.
 0. 0. 0. 0.
 0. 0. 0. 0.
 0. 0. 0. 0.
 0. 0. 0. 0.
 0. 0. 0. 0.
 0. 0. 0. 0.
 0. 0. 0. 0.
 0. 0. 0. 0.
 0. 0. 0. 0.
 0. 0. 0. 0.
 0. 0. 0. 0.
 0. 0. 0. 0.
 0. 0. 0. 0.
 0. 0. 0. 0.
 0. 0. 0. 0.
 0. 0. 0. 0.
 0. 0. 0. 0.
 0. 0. 0. 0.
 0. 0. 0. 0.
 0. 0. 0. 0.
 0. 0. 0. 0.
 0. 0. 0. 0.
 0. 0. 0. 0.
 0. 0. 0. 0.
 0. 0. 0. 0.
 0. 0. 0. 0.
 0. 0. 0. 0.
 0. 0. 0. 0.
 0. 0. 0. 0.
 0. 0. 0. 0.
 0. 0. 0. 0.
 0. 0. 0. 0.
 0. 0. 0. 0.
 0. 0. 0. 0.
 0. 0. 0. 0.
 0. 0. 0. 0.
 0. 0. 0. 0.
 0. 0. 0. 0.
 0. 0. 0. 0.
 0. 0. 0. 0.
 0. 0. 0. 0.
 0. 0. 0. 0.
 0. 0. 0. 0.
 0. 0. 0. 0.
 0. 0. 0. 0.
 0. 0. 0. 0.
 0. 0. 0. 0.
 0. 0. 0. 0.
 0. 0. 0. 0.
 0. 0. 0. 0.
 0. 0. 0. 0.
 0. 0. 0. 0.
 0. 0. 0. 0.
 0. 0. 0. 0.
 0. 0. 0. 0.
 0. 0. 0. 0.
 0. 0. 0. 0.
 0. 0. 0. 0.
 0. 0. 0. 0.
 0. 0. 0. 0.
 0. 0. 0. 0.
 0. 0. 0. 0.
 0. 0. 0. 0.
 0. 0. 0. 0.
 0. 0. 0. 0.
 0. 0. 0. 0.
 0. 0. 0. 0.
 0. 0. 0. 0.
 0. 0. 0. 0.
 0. 0. 0. 0.
 0. 0. 0. 0.
 0. 0. 0. 0.
 0. 0. 0. 0.
 0. 0. 0. 0.
 0. 0. 0. 0.
 0. 0. 0. 0.
 0. 0. 0. 0.
 0. 0. 0. 0.
 0. 0. 0. 0.
 0. 0. 0. 0.
 0. 0. 0. 0.
 0. 0. 0. 0.
 0. 0. 0. 0.
 0. 0. 0. 0.
 0. 0. 0. 0.
 0. 0. 0. 0.
 0. 0. 0. 0.
 0. 0. 0. 0.
 0. 0. 0. 0.
 0. 0. 0. 0.
 0. 0. 0. 0.
 0. 0. 0. 0.
 0. 0. 0. 0.
 0. 0. 0. 0.
 0. 0. 0. 0.
 0. 0. 0. 0.
 0. 0. 0. 0.
 0. 0. 0. 0.
 0. 0. 0. 0.
 0. 0. 0. 0.
 0. 0. 0. 0.
 0. 0. 0. 0.
 0. 0. 0. 0.
 0. 0. 0. 0.
 0. 0. 0. 0.
 0. 0. 0. 0.
 0. 0. 0. 0.
 0. 0. 0. 0.
 0. 0. 0. 0.
 0. 0. 0. 0.
 0. 0. 0. 0.
 0. 0. 0. 0.
 0. 0. 0. 0.
 0. 0. 0. 0.
 0. 0. 0. 0.
 0. 0. 0. 0.
 0. 0. 0. 0.
 0. 0. 0. 0.
 0. 0. 0. 0.
 0. 0. 0. 0.
 0. 0. 0. 0.
 0. 0. 0. 0.
 0. 0. 0. 0.
 0. 0. 0. 0.
 0. 0. 0. 0.
 0. 0. 0. 0.
 0. 0. 0. 0.
 0. 0. 0. 0.
 0. 0. 0. 0.
   </PP_BETA.3>
   <PP_BETA.4
       type="real"
       size="1108"
       columns="4"
       index="4"
       angular_momentum="1"
       cutoff_radius_index=" 224"
       cutoff_radius="    2.2300000000E+00" >
   -7.8987804839E-10    4.4867078064E-04    1.7963849684E-03    4.0482134292E-03
    7.2124924687E-03    1.1300652642E-02    1.6326982104E-02    2.2308327468E-02
    2.9263735941E-02    3.7214043248E-02    4.6181412529E-02    5.6188830077E-02
    6.7259564291E-02    7.9416594754E-02    9.2682018739E-02    1.0707644276E-01
    1.2261836707E-01    1.3932357106E-01    1.5720450769E-01    1.7626971492E-01
    1.9652325202E-01    2.1796416845E-01    2.4058601259E-01    2.6437638723E-01
    2.8931655825E-01    3.1538112242E-01    3.4253773929E-01    3.7074693197E-01
    3.9996196026E-01    4.3012876925E-01    4.6118601535E-01    4.9306517089E-01
    5.2569070781E-01    5.5898035946E-01    5.9284545935E-01    6.2719135414E-01
    6.6191788773E-01    6.9691995225E-01    7.3208810102E-01    7.6730921773E-01
    8.0246723557E-01    8.3744389918E-01    8.7211956191E-01    9.0637401044E-01
    9.4008730822E-01    9.7314064912E-01    1.0054172125E+00    1.0368030104E+00
    1.0671877188E+00    1.0964654824E+00    1.1245356862E+00    1.1513036845E+00
    1.1766814796E+00    1.2005883425E+00    1.2229513692E+00    1.2437059670E+00
    1.2627962634E+00    1.2801754352E+00    1.2958059525E+00    1.3096597361E+00
    1.3217182244E+00    1.3319723514E+00    1.3404224333E+00    1.3470779672E+00
    1.3519573414E+00    1.3550874628E+00    1.3565033036E+00    1.3562473727E+00
    1.3543691182E+00    1.3509242659E+00    1.3459741034E+00    1.3395847150E+00
    1.3318261786E+00    1.3227717310E+00    1.3124969131E+00    1.3010787035E+00
    1.2885946500E+00    1.2751220099E+00    1.2607369080E+00    1.2455135224E+00
    1.2295233072E+00    1.2128342617E+00    1.1955102533E+00    1.1776104034E+00
    1.1591885433E+00    1.1402927455E+00    1.1209649379E+00    1.1012406034E+00
    1.0811485713E+00    1.0607109003E+00    1.0399428579E+00    1.0188529941E+00
    9.9744331069E-01    9.7570952355E-01    9.5364141601E-01    9.3122327889E-01
    9.0843443277E-01    8.8524982661E-01    8.6164070597E-01    8.3757534332E-01
    8.1301982193E-01    7.8793886436E-01    7.6229669586E-01    7.3605793240E-01
    7.0918848286E-01    6.8165645445E-01    6.5343305040E-01    6.2449344883E-01
    5.9481765194E-01    5.6439129459E-01    5.3320640222E-01    5.0126208771E-01
    4.6856517827E-01    4.3513076338E-01    4.0098265593E-01    3.6615375969E-01
    3.3068633691E-01    2.9463217114E-01    2.5805262137E-01    2.2101856475E-01
    1.8361022645E-01    1.4591689634E-01    1.0803653350E-01    7.0075260796E-02
    3.2146753021E-02   -5.6284766541E-03   -4.3123886116E-02   -8.0207802542E-02
   -1.1674440138E-01   -1.5259475701E-01   -1.8761795516E-01   -2.2167225622E-01
   -2.5461629821E-01   -2.8631032714E-01   -3.1661744253E-01   -3.4540484519E-01
   -3.7254507436E-01   -3.9791722116E-01   -4.2140810553E-01   -4.4291340395E-01
   -4.6233871564E-01   -4.7960055550E-01   -4.9462726261E-01   -5.0735981395E-01
   -5.1775253379E-01   -5.2577369034E-01   -5.3140597208E-01   -5.3464683777E-01
   -5.3550873484E-01   -5.3401918283E-01   -5.3022071923E-01   -5.2417070713E-01
   -5.1594100492E-01   -5.0561750014E-01   -4.9329951075E-01   -4.7909905865E-01
   -4.6314002135E-01   -4.4555716943E-01   -4.2649509817E-01   -4.0610706320E-01
   -3.8455373101E-01   -3.6200185595E-01   -3.3862289639E-01   -3.1459158323E-01
   -2.9008445461E-01   -2.6527837113E-01   -2.4034902593E-01   -2.1546946453E-01
   -1.9080862880E-01   -1.6652993971E-01   -1.4278993279E-01   -1.1973696012E-01
   -9.7509971713E-02   -7.6237388597E-02   -5.6036078985E-02   -3.7010447847E-02
   -1.9251649115E-02   -2.8369285405E-03    1.2170896116E-02    2.5723812237E-02
    3.7788842985E-02    4.8348129045E-02    5.7398860521E-02    6.4953059710E-02
    7.1037216467E-02    7.5691774914E-02    7.8970301564E-02    8.0938486858E-02
    8.1673180638E-02    8.1261372100E-02    7.9799058487E-02    7.7390026929E-02
    7.4144559801E-02    7.0178076741E-02    6.5609727301E-02    6.0560948684E-02
    5.5154017222E-02    4.9510478030E-02    4.3749977857E-02    3.7988453603E-02
    3.2333435884E-02    2.6873957386E-02    2.1708461241E-02    1.6933833961E-02
    1.2634495162E-02    8.8835258103E-03    5.7414384290E-03    3.2566456707E-03
    1.4522111536E-03    3.7998413314E-04   -2.2566908765E-06   -1.4802026529E-05
    8.4456490894E-06   -1.4904619923E-06    7.5797949509E-09    4.5036144936E-09
    0.0000000000E+00    0.0000000000E+00    0.0000000000E+00    0.0000000000E+00
    0.0000000000E+00    0.0000000000E+00    0.0000000000E+00    0.0000000000E+00
 0. 0. 0. 0.
 0. 0. 0. 0.
 0. 0. 0. 0.
 0. 0. 0. 0.
 0. 0. 0. 0.
 0. 0. 0. 0.
 0. 0. 0. 0.
 0. 0. 0. 0.
 0. 0. 0. 0.
 0. 0. 0. 0.
 0. 0. 0. 0.
 0. 0. 0. 0.
 0. 0. 0. 0.
 0. 0. 0. 0.
 0. 0. 0. 0.
 0. 0. 0. 0.
 0. 0. 0. 0.
 0. 0. 0. 0.
 0. 0. 0. 0.
 0. 0. 0. 0.
 0. 0. 0. 0.
 0. 0. 0. 0.
 0. 0. 0. 0.
 0. 0. 0. 0.
 0. 0. 0. 0.
 0. 0. 0. 0.
 0. 0. 0. 0.
 0. 0. 0. 0.
 0. 0. 0. 0.
 0. 0. 0. 0.
 0. 0. 0. 0.
 0. 0. 0. 0.
 0. 0. 0. 0.
 0. 0. 0. 0.
 0. 0. 0. 0.
 0. 0. 0. 0.
 0. 0. 0. 0.
 0. 0. 0. 0.
 0. 0. 0. 0.
 0. 0. 0. 0.
 0. 0. 0. 0.
 0. 0. 0. 0.
 0. 0. 0. 0.
 0. 0. 0. 0.
 0. 0. 0. 0.
 0. 0. 0. 0.
 0. 0. 0. 0.
 0. 0. 0. 0.
 0. 0. 0. 0.
 0. 0. 0. 0.
 0. 0. 0. 0.
 0. 0. 0. 0.
 0. 0. 0. 0.
 0. 0. 0. 0.
 0. 0. 0. 0.
 0. 0. 0. 0.
 0. 0. 0. 0.
 0. 0. 0. 0.
 0. 0. 0. 0.
 0. 0. 0. 0.
 0. 0. 0. 0.
 0. 0. 0. 0.
 0. 0. 0. 0.
 0. 0. 0. 0.
 0. 0. 0. 0.
 0. 0. 0. 0.
 0. 0. 0. 0.
 0. 0. 0. 0.
 0. 0. 0. 0.
 0. 0. 0. 0.
 0. 0. 0. 0.
 0. 0. 0. 0.
 0. 0. 0. 0.
 0. 0. 0. 0.
 0. 0. 0. 0.
 0. 0. 0. 0.
 0. 0. 0. 0.
 0. 0. 0. 0.
 0. 0. 0. 0.
 0. 0. 0. 0.
 0. 0. 0. 0.
 0. 0. 0. 0.
 0. 0. 0. 0.
 0. 0. 0. 0.
 0. 0. 0. 0.
 0. 0. 0. 0.
 0. 0. 0. 0.
 0. 0. 0. 0.
 0. 0. 0. 0.
 0. 0. 0. 0.
 0. 0. 0. 0.
 0. 0. 0. 0.
 0. 0. 0. 0.
 0. 0. 0. 0.
 0. 0. 0. 0.
 0. 0. 0. 0.
 0. 0. 0. 0.
 0. 0. 0. 0.
 0. 0. 0. 0.
 0. 0. 0. 0.
 0. 0. 0. 0.
 0. 0. 0. 0.
 0. 0. 0. 0.
 0. 0. 0. 0.
 0. 0. 0. 0.
 0. 0. 0. 0.
 0. 0. 0. 0.
 0. 0. 0. 0.
 0. 0. 0. 0.
 0. 0. 0. 0.
 0. 0. 0. 0.
 0. 0. 0. 0.
 0. 0. 0. 0.
 0. 0. 0. 0.
 0. 0. 0. 0.
 0. 0. 0. 0.
 0. 0. 0. 0.
 0. 0. 0. 0.
 0. 0. 0. 0.
 0. 0. 0. 0.
 0. 0. 0. 0.
 0. 0. 0. 0.
 0. 0. 0. 0.
 0. 0. 0. 0.
 0. 0. 0. 0.
 0. 0. 0. 0.
 0. 0. 0. 0.
 0. 0. 0. 0.
 0. 0. 0. 0.
 0. 0. 0. 0.
 0. 0. 0. 0.
 0. 0. 0. 0.
 0. 0. 0. 0.
 0. 0. 0. 0.
 0. 0. 0. 0.
 0. 0. 0. 0.
 0. 0. 0. 0.
 0. 0. 0. 0.
 0. 0. 0. 0.
 0. 0. 0. 0.
 0. 0. 0. 0.
 0. 0. 0. 0.
 0. 0. 0. 0.
 0. 0. 0. 0.
 0. 0. 0. 0.
 0. 0. 0. 0.
 0. 0. 0. 0.
 0. 0. 0. 0.
 0. 0. 0. 0.
 0. 0. 0. 0.
 0. 0. 0. 0.
 0. 0. 0. 0.
 0. 0. 0. 0.
 0. 0. 0. 0.
 0. 0. 0. 0.
 0. 0. 0. 0.
 0. 0. 0. 0.
 0. 0. 0. 0.
 0. 0. 0. 0.
 0. 0. 0. 0.
 0. 0. 0. 0.
 0. 0. 0. 0.
 0. 0. 0. 0.
 0. 0. 0. 0.
 0. 0. 0. 0.
 0. 0. 0. 0.
 0. 0. 0. 0.
 0. 0. 0. 0.
 0. 0. 0. 0.
 0. 0. 0. 0.
 0. 0. 0. 0.
 0. 0. 0. 0.
 0. 0. 0. 0.
 0. 0. 0. 0.
 0. 0. 0. 0.
 0. 0. 0. 0.
 0. 0. 0. 0.
 0. 0. 0. 0.
 0. 0. 0. 0.
 0. 0. 0. 0.
 0. 0. 0. 0.
 0. 0. 0. 0.
 0. 0. 0. 0.
 0. 0. 0. 0.
 0. 0. 0. 0.
 0. 0. 0. 0.
 0. 0. 0. 0.
 0. 0. 0. 0.
 0. 0. 0. 0.
 0. 0. 0. 0.
 0. 0. 0. 0.
 0. 0. 0. 0.
 0. 0. 0. 0.
 0. 0. 0. 0.
 0. 0. 0. 0.
 0. 0. 0. 0.
 0. 0. 0. 0.
 0. 0. 0. 0.
 0. 0. 0. 0.
 0. 0. 0. 0.
 0. 0. 0. 0.
 0. 0. 0. 0.
 0. 0. 0. 0.
 0. 0. 0. 0.
 0. 0. 0. 0.
 0. 0. 0. 0.
 0. 0. 0. 0.
 0. 0. 0. 0.
 0. 0. 0. 0.
 0. 0. 0. 0.
 0. 0. 0. 0.
 0. 0. 0. 0.
 0. 0. 0. 0.
 0. 0. 0. 0.
 0. 0. 0. 0.
 0. 0. 0. 0.
 0. 0. 0. 0.
 0. 0. 0. 0.
 0. 0. 0. 0.
 0. 0. 0. 0.
 0. 0. 0. 0.
   </PP_BETA.4>
   <PP_BETA.5
       type="real"
       size="1108"
       columns="4"
       index="5"
       angular_momentum="1"
       cutoff_radius_index=" 224"
       cutoff_radius="    2.2300000000E+00" >
    1.3779159272E-09    8.8786635488E-05    3.5118941133E-04    7.7539758203E-04
    1.3419279671E-03    2.0239243956E-03    2.7875716631E-03    3.5926188111E-03
    4.3930051589E-03    5.1375812208E-03    5.7709154290E-03    6.2341764859E-03
    6.4660801867E-03    6.4038887024E-03    5.9844496090E-03    5.1452613914E-03
    3.8255517486E-03    1.9673547940E-03   -4.8342682837E-04   -3.5759887941E-03
   -7.3536345355E-03   -1.1852840458E-02   -1.7102389543E-02   -2.3122585202E-02
   -2.9924556375E-02   -3.7509663815E-02   -4.5869016401E-02   -5.4983105029E-02
   -6.4821560286E-02   -7.5343038694E-02   -8.6495240798E-02   -9.8215062811E-02
   -1.1042888198E-01   -1.2305297422E-01   -1.3599406097E-01   -1.4914998074E-01
   -1.6241047912E-01   -1.7565810982E-01   -1.8876923769E-01   -2.0161513352E-01
   -2.1406314920E-01   -2.2597796080E-01   -2.3722286609E-01   -2.4766112250E-01
   -2.5715731060E-01   -2.6557870801E-01   -2.7279665819E-01   -2.7868791856E-01
   -2.8313597246E-01   -2.8603228973E-01   -2.8727752109E-01   -2.8678261224E-01
   -2.8446982409E-01   -2.8027364695E-01   -2.7414159712E-01   -2.6603488576E-01
   -2.5592895148E-01   -2.4381384909E-01   -2.2969448902E-01   -2.1359072314E-01
   -1.9553727476E-01   -1.7558351211E-01   -1.5379306645E-01   -1.3024329774E-01
   -1.0502461251E-01   -7.8239640387E-02   -5.0002277231E-02   -2.0436604564E-02
    1.0324303625E-02    4.2139674215E-02    7.4862414706E-02    1.0834056459E-01
    1.4241880256E-01    1.7693999307E-01    2.1174675514E-01    2.4668303582E-01
    2.8159567077E-01    3.1633591410E-01    3.5076092005E-01    3.8473515931E-01
    4.1813175358E-01    4.5083371255E-01    4.8273505859E-01    5.1374182550E-01
    5.4377291907E-01    5.7276082863E-01    6.0065218030E-01    6.2740812451E-01
    6.5300455202E-01    6.7743213477E-01    7.0069618962E-01    7.2281636528E-01
    7.4382615452E-01    7.6377223597E-01    7.8271365170E-01    8.0072082866E-01
    8.1787445412E-01    8.3426421669E-01    8.4998742658E-01    8.6514752985E-01
    8.7985253313E-01    8.9421335617E-01    9.0834213092E-01    9.2235046634E-01
    9.3634769897E-01    9.5043914955E-01    9.6472440630E-01    9.7929565513E-01
    9.9423607713E-01    1.0096183328E+00    1.0255031520E+00    1.0419380476E+00
    1.0589561692E+00    1.0765753132E+00    1.0947971017E+00    1.1136063435E+00
    1.1329705868E+00    1.1528398721E+00    1.1731466908E+00    1.1938061539E+00
    1.2147163726E+00    1.2357590485E+00    1.2568002725E+00    1.2776915248E+00
    1.2982708699E+00    1.3183643353E+00    1.3377874627E+00    1.3563470165E+00
    1.3738428344E+00    1.3900698017E+00    1.4048199295E+00    1.4178845167E+00
    1.4290563727E+00    1.4381320786E+00    1.4449142631E+00    1.4492138679E+00
    1.4508523798E+00    1.4496640030E+00    1.4454977503E+00    1.4382194264E+00
    1.4277134836E+00    1.4138847267E+00    1.3966598471E+00    1.3759887676E+00
    1.3518457808E+00    1.3242304666E+00    1.2931683752E+00    1.2587114660E+00
    1.2209382929E+00    1.1799539330E+00    1.1358896523E+00    1.0889023123E+00
    1.0391735155E+00    9.8690849959E-01    9.3233478408E-01    8.7570058311E-01
    8.1727299536E-01    7.5733598759E-01    6.9618818917E-01    6.3414051747E-01
    5.7151365586E-01    5.0863540792E-01    4.4583795247E-01    3.8345502600E-01
    3.2181905917E-01    2.6125829563E-01    2.0209392100E-01    1.4463723058E-01
    8.9186863847E-02    3.6026133503E-02   -1.4579524136E-02   -6.2384951356E-02
   -1.0716749938E-01   -1.4872906380E-01   -1.8689790388E-01   -2.2153022662E-01
   -2.5251151873E-01   -2.7975761192E-01   -3.0321546982E-01   -3.2286368728E-01
   -3.3871269581E-01   -3.5080467195E-01   -3.5921314750E-01   -3.6404232484E-01
   -3.6542610041E-01   -3.6352678266E-01   -3.5853272636E-01   -3.5065558564E-01
   -3.4012805954E-01   -3.2720168037E-01   -3.1214436086E-01   -2.9523778326E-01
   -2.7677464593E-01   -2.5705579340E-01   -2.3638725819E-01   -2.1507724313E-01
   -1.9343309886E-01   -1.7175808971E-01   -1.5034890333E-01   -1.2949200027E-01
   -1.0945477102E-01   -9.0467035476E-02   -7.2771218926E-02   -5.6602094745E-02
   -4.2166738254E-02   -2.9646373151E-02   -1.9193952542E-02   -1.0936973621E-02
   -4.9312523136E-03   -1.3558027089E-03   -6.9620486013E-05    3.4016832036E-05
   -2.1175537561E-05    3.3719067051E-06    6.4916493369E-08    3.8570813895E-08
    0.0000000000E+00    0.0000000000E+00    0.0000000000E+00    0.0000000000E+00
    0.0000000000E+00    0.0000000000E+00    0.0000000000E+00    0.0000000000E+00
 0. 0. 0. 0.
 0. 0. 0. 0.
 0. 0. 0. 0.
 0. 0. 0. 0.
 0. 0. 0. 0.
 0. 0. 0. 0.
 0. 0. 0. 0.
 0. 0. 0. 0.
 0. 0. 0. 0.
 0. 0. 0. 0.
 0. 0. 0. 0.
 0. 0. 0. 0.
 0. 0. 0. 0.
 0. 0. 0. 0.
 0. 0. 0. 0.
 0. 0. 0. 0.
 0. 0. 0. 0.
 0. 0. 0. 0.
 0. 0. 0. 0.
 0. 0. 0. 0.
 0. 0. 0. 0.
 0. 0. 0. 0.
 0. 0. 0. 0.
 0. 0. 0. 0.
 0. 0. 0. 0.
 0. 0. 0. 0.
 0. 0. 0. 0.
 0. 0. 0. 0.
 0. 0. 0. 0.
 0. 0. 0. 0.
 0. 0. 0. 0.
 0. 0. 0. 0.
 0. 0. 0. 0.
 0. 0. 0. 0.
 0. 0. 0. 0.
 0. 0. 0. 0.
 0. 0. 0. 0.
 0. 0. 0. 0.
 0. 0. 0. 0.
 0. 0. 0. 0.
 0. 0. 0. 0.
 0. 0. 0. 0.
 0. 0. 0. 0.
 0. 0. 0. 0.
 0. 0. 0. 0.
 0. 0. 0. 0.
 0. 0. 0. 0.
 0. 0. 0. 0.
 0. 0. 0. 0.
 0. 0. 0. 0.
 0. 0. 0. 0.
 0. 0. 0. 0.
 0. 0. 0. 0.
 0. 0. 0. 0.
 0. 0. 0. 0.
 0. 0. 0. 0.
 0. 0. 0. 0.
 0. 0. 0. 0.
 0. 0. 0. 0.
 0. 0. 0. 0.
 0. 0. 0. 0.
 0. 0. 0. 0.
 0. 0. 0. 0.
 0. 0. 0. 0.
 0. 0. 0. 0.
 0. 0. 0. 0.
 0. 0. 0. 0.
 0. 0. 0. 0.
 0. 0. 0. 0.
 0. 0. 0. 0.
 0. 0. 0. 0.
 0. 0. 0. 0.
 0. 0. 0. 0.
 0. 0. 0. 0.
 0. 0. 0. 0.
 0. 0. 0. 0.
 0. 0. 0. 0.
 0. 0. 0. 0.
 0. 0. 0. 0.
 0. 0. 0. 0.
 0. 0. 0. 0.
 0. 0. 0. 0.
 0. 0. 0. 0.
 0. 0. 0. 0.
 0. 0. 0. 0.
 0. 0. 0. 0.
 0. 0. 0. 0.
 0. 0. 0. 0.
 0. 0. 0. 0.
 0. 0. 0. 0.
 0. 0. 0. 0.
 0. 0. 0. 0.
 0. 0. 0. 0.
 0. 0. 0. 0.
 0. 0. 0. 0.
 0. 0. 0. 0.
 0. 0. 0. 0.
 0. 0. 0. 0.
 0. 0. 0. 0.
 0. 0. 0. 0.
 0. 0. 0. 0.
 0. 0. 0. 0.
 0. 0. 0. 0.
 0. 0. 0. 0.
 0. 0. 0. 0.
 0. 0. 0. 0.
 0. 0. 0. 0.
 0. 0. 0. 0.
 0. 0. 0. 0.
 0. 0. 0. 0.
 0. 0. 0. 0.
 0. 0. 0. 0.
 0. 0. 0. 0.
 0. 0. 0. 0.
 0. 0. 0. 0.
 0. 0. 0. 0.
 0. 0. 0. 0.
 0. 0. 0. 0.
 0. 0. 0. 0.
 0. 0. 0. 0.
 0. 0. 0. 0.
 0. 0. 0. 0.
 0. 0. 0. 0.
 0. 0. 0. 0.
 0. 0. 0. 0.
 0. 0. 0. 0.
 0. 0. 0. 0.
 0. 0. 0. 0.
 0. 0. 0. 0.
 0. 0. 0. 0.
 0. 0. 0. 0.
 0. 0. 0. 0.
 0. 0. 0. 0.
 0. 0. 0. 0.
 0. 0. 0. 0.
 0. 0. 0. 0.
 0. 0. 0. 0.
 0. 0. 0. 0.
 0. 0. 0. 0.
 0. 0. 0. 0.
 0. 0. 0. 0.
 0. 0. 0. 0.
 0. 0. 0. 0.
 0. 0. 0. 0.
 0. 0. 0. 0.
 0. 0. 0. 0.
 0. 0. 0. 0.
 0. 0. 0. 0.
 0. 0. 0. 0.
 0. 0. 0. 0.
 0. 0. 0. 0.
 0. 0. 0. 0.
 0. 0. 0. 0.
 0. 0. 0. 0.
 0. 0. 0. 0.
 0. 0. 0. 0.
 0. 0. 0. 0.
 0. 0. 0. 0.
 0. 0. 0. 0.
 0. 0. 0. 0.
 0. 0. 0. 0.
 0. 0. 0. 0.
 0. 0. 0. 0.
 0. 0. 0. 0.
 0. 0. 0. 0.
 0. 0. 0. 0.
 0. 0. 0. 0.
 0. 0. 0. 0.
 0. 0. 0. 0.
 0. 0. 0. 0.
 0. 0. 0. 0.
 0. 0. 0. 0.
 0. 0. 0. 0.
 0. 0. 0. 0.
 0. 0. 0. 0.
 0. 0. 0. 0.
 0. 0. 0. 0.
 0. 0. 0. 0.
 0. 0. 0. 0.
 0. 0. 0. 0.
 0. 0. 0. 0.
 0. 0. 0. 0.
 0. 0. 0. 0.
 0. 0. 0. 0.
 0. 0. 0. 0.
 0. 0. 0. 0.
 0. 0. 0. 0.
 0. 0. 0. 0.
 0. 0. 0. 0.
 0. 0. 0. 0.
 0. 0. 0. 0.
 0. 0. 0. 0.
 0. 0. 0. 0.
 0. 0. 0. 0.
 0. 0. 0. 0.
 0. 0. 0. 0.
 0. 0. 0. 0.
 0. 0. 0. 0.
 0. 0. 0. 0.
 0. 0. 0. 0.
 0. 0. 0. 0.
 0. 0. 0. 0.
 0. 0. 0. 0.
 0. 0. 0. 0.
 0. 0. 0. 0.
 0. 0. 0. 0.
 0. 0. 0. 0.
 0. 0. 0. 0.
 0. 0. 0. 0.
 0. 0. 0. 0.
 0. 0. 0. 0.
 0. 0. 0. 0.
 0. 0. 0. 0.
 0. 0. 0. 0.
 0. 0. 0. 0.
 0. 0. 0. 0.
 0. 0. 0. 0.
 0. 0. 0. 0.
 0. 0. 0. 0.
 0. 0. 0. 0.
 0. 0. 0. 0.
   </PP_BETA.5>
   <PP_BETA.6
       type="real"
       size="1108"
       columns="4"
       index="6"
       angular_momentum="1"
       cutoff_radius_index=" 224"
       cutoff_radius="    2.2300000000E+00" >
    1.3580858074E-09    7.9653204863E-05    3.1470826814E-04    6.9351139230E-04
    1.1968383545E-03    1.7981900551E-03    2.4642010961E-03    3.1551562713E-03
    3.8256084945E-03    4.4250904076E-03    4.8989107197E-03    5.1890252442E-03
    5.2349716313E-03    4.9748559581E-03    4.3463786380E-03    3.2878865634E-03
    1.7394380019E-03   -3.5613347090E-04   -3.0521697856E-03   -6.3971676345E-03
   -1.0433799602E-02   -1.5197990185E-02   -2.0718059141E-02   -2.7013943880E-02
   -3.4096511734E-02   -4.1966971946E-02   -5.0616396085E-02   -6.0025354361E-02
   -7.0163673989E-02   -8.0990324316E-02   -9.2453431972E-02   -1.0449042777E-01
   -1.1702832553E-01   -1.2998413139E-01   -1.4326538071E-01   -1.5677079799E-01
   -1.7039107389E-01   -1.8400975179E-01   -1.9750421526E-01   -2.1074676620E-01
   -2.2360578255E-01   -2.3594694319E-01   -2.4763450699E-01   -2.5853263193E-01
   -2.6850671988E-01   -2.7742477193E-01   -2.8515873914E-01   -2.9158585331E-01
   -2.9658992250E-01   -3.0006257630E-01   -3.0190444624E-01   -3.0202626746E-01
   -3.0034988826E-01   -2.9680917544E-01   -2.9135080408E-01   -2.8393492181E-01
   -2.7453567891E-01   -2.6314161707E-01   -2.4975591098E-01   -2.3439645894E-01
   -2.1709581988E-01   -1.9790099628E-01   -1.7687306403E-01   -1.5408665202E-01
   -1.2962927615E-01   -1.0360053383E-01   -7.6111166979E-02   -4.7282002951E-02
   -1.7242784233E-02    1.3869100784E-02    4.5909972480E-02    7.8731285588E-02
    1.1218111017E-01    1.4610565174E-01    1.8035079373E-01    2.1476364507E-01
    2.4919407534E-01    2.8349622034E-01    3.1752994047E-01    3.5116221533E-01
    3.8426845821E-01    4.1673373485E-01    4.4845387205E-01    4.7933644267E-01
    5.0930161483E-01    5.3828285471E-01    5.6622747373E-01    5.9309701276E-01
    6.1886745771E-01    6.4352928263E-01    6.6708731865E-01    6.8956044879E-01
    7.1098113076E-01    7.3139475189E-01    7.5085882230E-01    7.6944201417E-01
    7.8722305701E-01    8.0428950052E-01    8.2073635804E-01    8.3666464554E-01
    8.5217983198E-01    8.6739021833E-01    8.8240526356E-01    8.9733387642E-01
    9.1228269290E-01    9.2735435919E-01    9.4264584048E-01    9.5824677553E-01
    9.7423789721E-01    9.9068953794E-01    1.0076602390E+00    1.0251954813E+00
    1.0433265539E+00    1.0620695756E+00    1.0814246840E+00    1.1013754021E+00
    1.1218881949E+00    1.1429122221E+00    1.1643792942E+00    1.1862040354E+00
    1.2082842548E+00    1.2305015253E+00    1.2527219673E+00    1.2747972314E+00
    1.2965656737E+00    1.3178537122E+00    1.3384773536E+00    1.3582438765E+00
    1.3769536541E+00    1.3944021006E+00    1.4103817199E+00    1.4246842383E+00
    1.4371027977E+00    1.4474341877E+00    1.4554810932E+00    1.4610543324E+00
    1.4639750632E+00    1.4640769323E+00    1.4612081439E+00    1.4552334247E+00
    1.4460358632E+00    1.4335186018E+00    1.4176063608E+00    1.3982467779E+00
    1.3754115441E+00    1.3490973230E+00    1.3193264393E+00    1.2861473282E+00
    1.2496347341E+00    1.2098896576E+00    1.1670390435E+00    1.1212352124E+00
    1.0726550370E+00    1.0214988681E+00    9.6798921866E-01    9.1236921479E-01
    8.5490082805E-01    7.9586290273E-01    7.3554899623E-01    6.7426505163E-01
    6.1232692386E-01    5.5005778240E-01    4.8778541499E-01    4.2583945804E-01
    3.6454858027E-01    3.0423764699E-01    2.4522489269E-01    1.8781912978E-01
    1.3231702128E-01    7.9000444511E-02    2.8133972480E-02   -2.0037501612E-02
   -6.5290972525E-02   -1.0742734107E-01   -1.4627322122E-01   -1.8168251738E-01
   -2.1353775500E-01   -2.4175115028E-01   -2.6626540720E-01   -2.8705423270E-01
   -3.0412256373E-01   -3.1750650284E-01   -3.2727296124E-01   -3.3351901211E-01
   -3.3637095732E-01   -3.3598309372E-01   -3.3253541699E-01   -3.2623094762E-01
   -3.1729353584E-01   -3.0596570674E-01   -2.9250626762E-01   -2.7718775909E-01
   -2.6029376503E-01   -2.4211610699E-01   -2.2295195052E-01   -2.0310085186E-01
   -1.8286179872E-01   -1.6253003994E-01   -1.4239464975E-01   -1.2273494445E-01
   -1.0381173885E-01   -8.5848966051E-02   -6.9083487196E-02   -5.3745098092E-02
   -4.0036692190E-02   -2.8136087537E-02   -1.8193634875E-02   -1.0334669124E-02
   -4.6176356263E-03   -1.2080098245E-03    1.3704033863E-05    4.8935286939E-05
   -2.7671457570E-05    4.8993326726E-06   -3.1929415677E-08   -1.8971196470E-08
    0.0000000000E+00    0.0000000000E+00    0.0000000000E+00    0.0000000000E+00
    0.0000000000E+00    0.0000000000E+00    0.0000000000E+00    0.0000000000E+00
 0. 0. 0. 0.
 0. 0. 0. 0.
 0. 0. 0. 0.
 0. 0. 0. 0.
 0. 0. 0. 0.
 0. 0. 0. 0.
 0. 0. 0. 0.
 0. 0. 0. 0.
 0. 0. 0. 0.
 0. 0. 0. 0.
 0. 0. 0. 0.
 0. 0. 0. 0.
 0. 0. 0. 0.
 0. 0. 0. 0.
 0. 0. 0. 0.
 0. 0. 0. 0.
 0. 0. 0. 0.
 0. 0. 0. 0.
 0. 0. 0. 0.
 0. 0. 0. 0.
 0. 0. 0. 0.
 0. 0. 0. 0.
 0. 0. 0. 0.
 0. 0. 0. 0.
 0. 0. 0. 0.
 0. 0. 0. 0.
 0. 0. 0. 0.
 0. 0. 0. 0.
 0. 0. 0. 0.
 0. 0. 0. 0.
 0. 0. 0. 0.
 0. 0. 0. 0.
 0. 0. 0. 0.
 0. 0. 0. 0.
 0. 0. 0. 0.
 0. 0. 0. 0.
 0. 0. 0. 0.
 0. 0. 0. 0.
 0. 0. 0. 0.
 0. 0. 0. 0.
 0. 0. 0. 0.
 0. 0. 0. 0.
 0. 0. 0. 0.
 0. 0. 0. 0.
 0. 0. 0. 0.
 0. 0. 0. 0.
 0. 0. 0. 0.
 0. 0. 0. 0.
 0. 0. 0. 0.
 0. 0. 0. 0.
 0. 0. 0. 0.
 0. 0. 0. 0.
 0. 0. 0. 0.
 0. 0. 0. 0.
 0. 0. 0. 0.
 0. 0. 0. 0.
 0. 0. 0. 0.
 0. 0. 0. 0.
 0. 0. 0. 0.
 0. 0. 0. 0.
 0. 0. 0. 0.
 0. 0. 0. 0.
 0. 0. 0. 0.
 0. 0. 0. 0.
 0. 0. 0. 0.
 0. 0. 0. 0.
 0. 0. 0. 0.
 0. 0. 0. 0.
 0. 0. 0. 0.
 0. 0. 0. 0.
 0. 0. 0. 0.
 0. 0. 0. 0.
 0. 0. 0. 0.
 0. 0. 0. 0.
 0. 0. 0. 0.
 0. 0. 0. 0.
 0. 0. 0. 0.
 0. 0. 0. 0.
 0. 0. 0. 0.
 0. 0. 0. 0.
 0. 0. 0. 0.
 0. 0. 0. 0.
 0. 0. 0. 0.
 0. 0. 0. 0.
 0. 0. 0. 0.
 0. 0. 0. 0.
 0. 0. 0. 0.
 0. 0. 0. 0.
 0. 0. 0. 0.
 0. 0. 0. 0.
 0. 0. 0. 0.
 0. 0. 0. 0.
 0. 0. 0. 0.
 0. 0. 0. 0.
 0. 0. 0. 0.
 0. 0. 0. 0.
 0. 0. 0. 0.
 0. 0. 0. 0.
 0. 0. 0. 0.
 0. 0. 0. 0.
 0. 0. 0. 0.
 0. 0. 0. 0.
 0. 0. 0. 0.
 0. 0. 0. 0.
 0. 0. 0. 0.
 0. 0. 0. 0.
 0. 0. 0. 0.
 0. 0. 0. 0.
 0. 0. 0. 0.
 0. 0. 0. 0.
 0. 0. 0. 0.
 0. 0. 0. 0.
 0. 0. 0. 0.
 0. 0. 0. 0.
 0. 0. 0. 0.
 0. 0. 0. 0.
 0. 0. 0. 0.
 0. 0. 0. 0.
 0. 0. 0. 0.
 0. 0. 0. 0.
 0. 0. 0. 0.
 0. 0. 0. 0.
 0. 0. 0. 0.
 0. 0. 0. 0.
 0. 0. 0. 0.
 0. 0. 0. 0.
 0. 0. 0. 0.
 0. 0. 0. 0.
 0. 0. 0. 0.
 0. 0. 0. 0.
 0. 0. 0. 0.
 0. 0. 0. 0.
 0. 0. 0. 0.
 0. 0. 0. 0.
 0. 0. 0. 0.
 0. 0. 0. 0.
 0. 0. 0. 0.
 0. 0. 0. 0.
 0. 0. 0. 0.
 0. 0. 0. 0.
 0. 0. 0. 0.
 0. 0. 0. 0.
 0. 0. 0. 0.
 0. 0. 0. 0.
 0. 0. 0. 0.
 0. 0. 0. 0.
 0. 0. 0. 0.
 0. 0. 0. 0.
 0. 0. 0. 0.
 0. 0. 0. 0.
 0. 0. 0. 0.
 0. 0. 0. 0.
 0. 0. 0. 0.
 0. 0. 0. 0.
 0. 0. 0. 0.
 0. 0. 0. 0.
 0. 0. 0. 0.
 0. 0. 0. 0.
 0. 0. 0. 0.
 0. 0. 0. 0.
 0. 0. 0. 0.
 0. 0. 0. 0.
 0. 0. 0. 0.
 0. 0. 0. 0.
 0. 0. 0. 0.
 0. 0. 0. 0.
 0. 0. 0. 0.
 0. 0. 0. 0.
 0. 0. 0. 0.
 0. 0. 0. 0.
 0. 0. 0. 0.
 0. 0. 0. 0.
 0. 0. 0. 0.
 0. 0. 0. 0.
 0. 0. 0. 0.
 0. 0. 0. 0.
 0. 0. 0. 0.
 0. 0. 0. 0.
 0. 0. 0. 0.
 0. 0. 0. 0.
 0. 0. 0. 0.
 0. 0. 0. 0.
 0. 0. 0. 0.
 0. 0. 0. 0.
 0. 0. 0. 0.
 0. 0. 0. 0.
 0. 0. 0. 0.
 0. 0. 0. 0.
 0. 0. 0. 0.
 0. 0. 0. 0.
 0. 0. 0. 0.
 0. 0. 0. 0.
 0. 0. 0. 0.
 0. 0. 0. 0.
 0. 0. 0. 0.
 0. 0. 0. 0.
 0. 0. 0. 0.
 0. 0. 0. 0.
 0. 0. 0. 0.
 0. 0. 0. 0.
 0. 0. 0. 0.
 0. 0. 0. 0.
 0. 0. 0. 0.
 0. 0. 0. 0.
 0. 0. 0. 0.
 0. 0. 0. 0.
 0. 0. 0. 0.
 0. 0. 0. 0.
 0. 0. 0. 0.
 0. 0. 0. 0.
 0. 0. 0. 0.
 0. 0. 0. 0.
 0. 0. 0. 0.
 0. 0. 0. 0.
 0. 0. 0. 0.
 0. 0. 0. 0.
 0. 0. 0. 0.
 0. 0. 0. 0.
 0. 0. 0. 0.
 0. 0. 0. 0.
 0. 0. 0. 0.
   </PP_BETA.6>
   <PP_BETA.7
       type="real"
       size="1108"
       columns="4"
       index="7"
       angular_momentum="2"
       cutoff_radius_index=" 224"
       cutoff_radius="    2.2300000000E+00" >
    9.7779789907E-11   -6.0042902280E-06   -4.8009588617E-05   -1.6189301332E-04
   -3.8328286291E-04   -7.4743163295E-04   -1.2890860149E-03   -2.0423529880E-03
   -3.0405612122E-03   -4.3161170505E-03   -5.9003546892E-03   -7.8233799796E-03
   -1.0113907803E-02   -1.2799092941E-02   -1.5904354645E-02   -1.9453195278E-02
   -2.3467013645E-02   -2.7964913814E-02   -3.2963510448E-02   -3.8476731882E-02
   -4.4515622360E-02   -5.1088145047E-02   -5.8198987603E-02   -6.5849372240E-02
   -7.4036872346E-02   -8.2755237865E-02   -9.1994231685E-02   -1.0173947939E-01
   -1.1197233472E-01   -1.2266976315E-01   -1.3380424587E-01   -1.4534370652E-01
   -1.5725146281E-01   -1.6948620516E-01   -1.8200200427E-01   -1.9474834929E-01
   -2.0767021826E-01   -2.2070818200E-01   -2.3379854254E-01   -2.4687350680E-01
   -2.5986139604E-01   -2.7268689115E-01   -2.8527131352E-01   -2.9753294111E-01
   -3.0938735866E-01   -3.2074784078E-01   -3.3152576651E-01   -3.4163106310E-01
   -3.5097267697E-01   -3.5945906916E-01   -3.6699873220E-01   -3.7350072542E-01
   -3.7887522509E-01   -3.8303408565E-01   -3.8589140823E-01   -3.8736411221E-01
   -3.8737250579E-01   -3.8584085102E-01   -3.8269791910E-01   -3.7787753139E-01
   -3.7131908188E-01   -3.6296803668E-01   -3.5277640643E-01   -3.4070318744E-01
   -3.2671476786E-01   -3.1078529505E-01   -2.9289700093E-01   -2.7304048216E-01
   -2.5121493242E-01   -2.2742832442E-01   -2.0169753971E-01   -1.7404844461E-01
   -1.4451591131E-01   -1.1314378321E-01   -7.9984784528E-02   -4.5100374245E-02
   -8.5605451249E-03    2.9556430987E-02    6.9164310010E-02    1.1016923256E-01
    1.5247012846E-01    1.9595916603E-01    2.4052224277E-01    2.8603951401E-01
    3.3238595546E-01    3.7943195561E-01    4.2704393345E-01    4.7508497700E-01
    5.2341549786E-01    5.7189389687E-01    6.2037723604E-01    6.6872191181E-01
    7.1678432469E-01    7.6442154064E-01    8.1149193925E-01    8.5785584461E-01
    9.0337613419E-01    9.4791882205E-01    9.9135361246E-01    1.0335544207E+00
    1.0743998576E+00    1.1137736764E+00    1.1515651775E+00    1.1876695717E+00
    1.2219882991E+00    1.2544293028E+00    1.2849072581E+00    1.3133437555E+00
    1.3396674392E+00    1.3638141014E+00    1.3857267341E+00    1.4053555389E+00
    1.4226578993E+00    1.4375983141E+00    1.4501482989E+00    1.4602862545E+00
    1.4679973089E+00    1.4732731336E+00    1.4761117391E+00    1.4765172529E+00
    1.4744996833E+00    1.4700746731E+00    1.4632632463E+00    1.4540915519E+00
    1.4425906073E+00    1.4287960460E+00    1.4127478701E+00    1.3944902135E+00
    1.3740711151E+00    1.3515423066E+00    1.3269590152E+00    1.3003797833E+00
    1.2718663058E+00    1.2414832859E+00    1.2092983102E+00    1.1753817414E+00
    1.1398066297E+00    1.1026486413E+00    1.0639860024E+00    1.0238994572E+00
    9.8247223857E-01    9.3979004820E-01    8.9594104384E-01    8.5101583131E-01
    8.0510745797E-01    7.5831140435E-01    7.1072557106E-01    6.6245025742E-01
    6.1358812868E-01    5.6424416840E-01    5.1452561303E-01    4.6454186549E-01
    4.1440438510E-01    3.6422655106E-01    3.1412349743E-01    2.6421191740E-01
    2.1460983544E-01    1.6543634597E-01    1.1681131789E-01    6.8855064522E-02
    2.1687979296E-02   -2.4569862346E-02   -6.9799133557E-02   -1.1388171760E-01
   -1.5670119806E-01   -1.9814337519E-01   -2.3809680508E-01   -2.7645335825E-01
   -3.1310879349E-01   -3.4796334254E-01   -3.8092230088E-01   -4.1189661938E-01
   -4.4080349152E-01   -4.6756693056E-01   -4.9211833071E-01   -5.1439700664E-01
   -5.3435070517E-01   -5.5193608333E-01   -5.6711914682E-01   -5.7987564322E-01
   -5.9019140443E-01   -5.9806263290E-01   -6.0349612709E-01   -6.0650944132E-01
   -6.0713097634E-01   -6.0540000272E-01   -6.0136681564E-01   -5.9509291382E-01
   -5.8665097160E-01   -5.7612467884E-01   -5.6360851226E-01   -5.4920742618E-01
   -5.3303646489E-01   -5.1522029812E-01   -4.9589268146E-01   -4.7519584446E-01
   -4.5327980966E-01   -4.3030164662E-01   -4.0642466553E-01   -3.8181755569E-01
   -3.5665347456E-01   -3.3110909375E-01   -3.0536360869E-01   -2.7959771907E-01
   -2.5399258772E-01   -2.2872878542E-01   -2.0398522610E-01   -1.7993814168E-01
   -1.5675994443E-01   -1.3461823475E-01   -1.1367713063E-01   -9.4097395326E-02
   -7.6026258568E-02   -5.9601023273E-02   -4.4949573479E-02   -3.2189368543E-02
   -2.1426910689E-02   -1.2761728982E-02   -6.2478047427E-03   -2.0152465095E-03
   -1.5942092376E-04    1.2007458291E-04   -2.9947886543E-05    3.8296312791E-07
 0. 0. 0. 0.
 0. 0. 0. 0.
 0. 0. 0. 0.
 0. 0. 0. 0.
 0. 0. 0. 0.
 0. 0. 0. 0.
 0. 0. 0. 0.
 0. 0. 0. 0.
 0. 0. 0. 0.
 0. 0. 0. 0.
 0. 0. 0. 0.
 0. 0. 0. 0.
 0. 0. 0. 0.
 0. 0. 0. 0.
 0. 0. 0. 0.
 0. 0. 0. 0.
 0. 0. 0. 0.
 0. 0. 0. 0.
 0. 0. 0. 0.
 0. 0. 0. 0.
 0. 0. 0. 0.
 0. 0. 0. 0.
 0. 0. 0. 0.
 0. 0. 0. 0.
 0. 0. 0. 0.
 0. 0. 0. 0.
 0. 0. 0. 0.
 0. 0. 0. 0.
 0. 0. 0. 0.
 0. 0. 0. 0.
 0. 0. 0. 0.
 0. 0. 0. 0.
 0. 0. 0. 0.
 0. 0. 0. 0.
 0. 0. 0. 0.
 0. 0. 0. 0.
 0. 0. 0. 0.
 0. 0. 0. 0.
 0. 0. 0. 0.
 0. 0. 0. 0.
 0. 0. 0. 0.
 0. 0. 0. 0.
 0. 0. 0. 0.
 0. 0. 0. 0.
 0. 0. 0. 0.
 0. 0. 0. 0.
 0. 0. 0. 0.
 0. 0. 0. 0.
 0. 0. 0. 0.
 0. 0. 0. 0.
 0. 0. 0. 0.
 0. 0. 0. 0.
 0. 0. 0. 0.
 0. 0. 0. 0.
 0. 0. 0. 0.
 0. 0. 0. 0.
 0. 0. 0. 0.
 0. 0. 0. 0.
 0. 0. 0. 0.
 0. 0. 0. 0.
 0. 0. 0. 0.
 0. 0. 0. 0.
 0. 0. 0. 0.
 0. 0. 0. 0.
 0. 0. 0. 0.
 0. 0. 0. 0.
 0. 0. 0. 0.
 0. 0. 0. 0.
 0. 0. 0. 0.
 0. 0. 0. 0.
 0. 0. 0. 0.
 0. 0. 0. 0.
 0. 0. 0. 0.
 0. 0. 0. 0.
 0. 0. 0. 0.
 0. 0. 0. 0.
 0. 0. 0. 0.
 0. 0. 0. 0.
 0. 0. 0. 0.
 0. 0. 0. 0.
 0. 0. 0. 0.
 0. 0. 0. 0.
 0. 0. 0. 0.
 0. 0. 0. 0.
 0. 0. 0. 0.
 0. 0. 0. 0.
 0. 0. 0. 0.
 0. 0. 0. 0.
 0. 0. 0. 0.
 0. 0. 0. 0.
 0. 0. 0. 0.
 0. 0. 0. 0.
 0. 0. 0. 0.
 0. 0. 0. 0.
 0. 0. 0. 0.
 0. 0. 0. 0.
 0. 0. 0. 0.
 0. 0. 0. 0.
 0. 0. 0. 0.
 0. 0. 0. 0.
 0. 0. 0. 0.
 0. 0. 0. 0.
 0. 0. 0. 0.
 0. 0. 0. 0.
 0. 0. 0. 0.
 0. 0. 0. 0.
 0. 0. 0. 0.
 0. 0. 0. 0.
 0. 0. 0. 0.
 0. 0. 0. 0.
 0. 0. 0. 0.
 0. 0. 0. 0.
 0. 0. 0. 0.
 0. 0. 0. 0.
 0. 0. 0. 0.
 0. 0. 0. 0.
 0. 0. 0. 0.
 0. 0. 0. 0.
 0. 0. 0. 0.
 0. 0. 0. 0.
 0. 0. 0. 0.
 0. 0. 0. 0.
 0. 0. 0. 0.
 0. 0. 0. 0.
 0. 0. 0. 0.
 0. 0. 0. 0.
 0. 0. 0. 0.
 0. 0. 0. 0.
 0. 0. 0. 0.
 0. 0. 0. 0.
 0. 0. 0. 0.
 0. 0. 0. 0.
 0. 0. 0. 0.
 0. 0. 0. 0.
 0. 0. 0. 0.
 0. 0. 0. 0.
 0. 0. 0. 0.
 0. 0. 0. 0.
 0. 0. 0. 0.
 0. 0. 0. 0.
 0. 0. 0. 0.
 0. 0. 0. 0.
 0. 0. 0. 0.
 0. 0. 0. 0.
 0. 0. 0. 0.
 0. 0. 0. 0.
 0. 0. 0. 0.
 0. 0. 0. 0.
 0. 0. 0. 0.
 0. 0. 0. 0.
 0. 0. 0. 0.
 0. 0. 0. 0.
 0. 0. 0. 0.
 0. 0. 0. 0.
 0. 0. 0. 0.
 0. 0. 0. 0.
 0. 0. 0. 0.
 0. 0. 0. 0.
 0. 0. 0. 0.
 0. 0. 0. 0.
 0. 0. 0. 0.
 0. 0. 0. 0.
 0. 0. 0. 0.
 0. 0. 0. 0.
 0. 0. 0. 0.
 0. 0. 0. 0.
 0. 0. 0. 0.
 0. 0. 0. 0.
 0. 0. 0. 0.
 0. 0. 0. 0.
 0. 0. 0. 0.
 0. 0. 0. 0.
 0. 0. 0. 0.
 0. 0. 0. 0.
 0. 0. 0. 0.
 0. 0. 0. 0.
 0. 0. 0. 0.
 0. 0. 0. 0.
 0. 0. 0. 0.
 0. 0. 0. 0.
 0. 0. 0. 0.
 0. 0. 0. 0.
 0. 0. 0. 0.
 0. 0. 0. 0.
 0. 0. 0. 0.
 0. 0. 0. 0.
 0. 0. 0. 0.
 0. 0. 0. 0.
 0. 0. 0. 0.
 0. 0. 0. 0.
 0. 0. 0. 0.
 0. 0. 0. 0.
 0. 0. 0. 0.
 0. 0. 0. 0.
 0. 0. 0. 0.
 0. 0. 0. 0.
 0. 0. 0. 0.
 0. 0. 0. 0.
 0. 0. 0. 0.
 0. 0. 0. 0.
 0. 0. 0. 0.
 0. 0. 0. 0.
 0. 0. 0. 0.
 0. 0. 0. 0.
 0. 0. 0. 0.
 0. 0. 0. 0.
 0. 0. 0. 0.
 0. 0. 0. 0.
 0. 0. 0. 0.
 0. 0. 0. 0.
 0. 0. 0. 0.
 0. 0. 0. 0.
 0. 0. 0. 0.
 0. 0. 0. 0.
 0. 0. 0. 0.
 0. 0. 0. 0.
 0. 0. 0. 0.
 0. 0. 0. 0.
 0. 0. 0. 0.
 0. 0. 0. 0.
 0. 0. 0. 0.
   </PP_BETA.7>
   <PP_BETA.8
       type="real"
       size="1108"
       columns="4"
       index="8"
       angular_momentum="2"
       cutoff_radius_index=" 224"
       cutoff_radius="    2.2300000000E+00" >
    9.9942683036E-11   -6.4317663010E-06   -5.1427748275E-05   -1.7342002491E-04
   -4.1057535283E-04   -8.0065990851E-04   -1.3809009867E-03   -2.1878447598E-03
   -3.2572093024E-03   -4.6237322077E-03   -6.3210122664E-03   -8.3813448375E-03
   -1.0835550720E-02   -1.3712798526E-02   -1.7040420757E-02   -2.0843723988E-02
   -2.5145793803E-02   -2.9967295297E-02   -3.5326270233E-02   -4.1237932095E-02
   -4.7714460512E-02   -5.4764796724E-02   -6.2394441900E-02   -7.0605260319E-02
   -7.9395289529E-02   -8.8758559731E-02   -9.8684924726E-02   -1.0915990680E-01
   -1.2016455802E-01   -1.3167534027E-01   -1.4366402659E-01   -1.5609762599E-01
   -1.6893833414E-01   -1.8214351186E-01   -1.9566569367E-01   -2.0945262789E-01
   -2.2344735003E-01   -2.3758829074E-01   -2.5180941939E-01   -2.6604042402E-01
   -2.8020692809E-01   -2.9423074430E-01   -3.0803016497E-01   -3.2152028873E-01
   -3.3461338236E-01   -3.4721927661E-01   -3.5924579421E-01   -3.7059920823E-01
   -3.8118472829E-01   -3.9090701199E-01   -3.9967069851E-01   -4.0738096116E-01
   -4.1394407521E-01   -4.1926799718E-01   -4.2326295173E-01   -4.2584202164E-01
   -4.2692173689E-01   -4.2642265811E-01   -4.2426995000E-01   -4.2039394028E-01
   -4.1473065947E-01   -4.0722235723E-01   -3.9781799090E-01   -3.8647368203E-01
   -3.7315313688E-01   -3.5782802731E-01   -3.4047832843E-01   -3.2109260991E-01
   -2.9966827818E-01   -2.7621176698E-01   -2.5073867436E-01   -2.2327384442E-01
   -1.9385139258E-01   -1.6251467381E-01   -1.2931619351E-01   -9.4317461254E-02
   -5.7588788080E-02   -1.9209028669E-02    2.0734730123E-02    6.2147532175E-02
    1.0492696394E-01    1.4896361229E-01    1.9414156498E-01    2.4033895020E-01
    2.8742851093E-01    3.3527821019E-01    3.8375186235E-01    4.3270978591E-01
    4.8200947293E-01    5.3150627001E-01    5.8105406586E-01    6.3050598046E-01
    6.7971505066E-01    7.2853490748E-01    7.7682044022E-01    8.2442844277E-01
    8.7121823782E-01    9.1705227483E-01    9.6179669787E-01    1.0053218800E+00
    1.0475029211E+00    1.0882201061E+00    1.1273593217E+00    1.1648124302E+00
    1.2004775974E+00    1.2342595753E+00    1.2660699389E+00    1.2958272761E+00
    1.3234573316E+00    1.3488931067E+00    1.3720749144E+00    1.3929503934E+00
    1.4114744813E+00    1.4276093508E+00    1.4413243113E+00    1.4525956784E+00
    1.4614066147E+00    1.4677469456E+00    1.4716129539E+00    1.4730071560E+00
    1.4719380639E+00    1.4684199372E+00    1.4624725275E+00    1.4541208206E+00
    1.4433947774E+00    1.4303290800E+00    1.4149628831E+00    1.3973395746E+00
    1.3775065490E+00    1.3555149939E+00    1.3314196921E+00    1.3052788417E+00
    1.2771538935E+00    1.2471094082E+00    1.2152129318E+00    1.1815348908E+00
    1.1461485050E+00    1.1091297185E+00    1.0705571461E+00    1.0305120341E+00
    9.8907823402E-01    9.4634218522E-01    9.0239290566E-01    8.5732198657E-01
    8.1122358853E-01    7.6419443572E-01    7.1633380480E-01    6.6774350530E-01
    6.1852784786E-01    5.6879359717E-01    5.1864990627E-01    4.6820822919E-01
    4.1758220883E-01    3.6688753775E-01    3.1624178917E-01    2.6576421639E-01
    2.1557551883E-01    1.6579757360E-01    1.1655313163E-01    6.7965478157E-02
    2.0158057672E-02   -2.6745935964E-02   -7.2624003095E-02   -1.1735481380E-01
   -1.6081871318E-01   -2.0289825362E-01   -2.4347875092E-01   -2.8244886043E-01
   -3.1970116918E-01   -3.5513279944E-01   -3.8864601867E-01   -4.2014885072E-01
   -4.4955568271E-01   -4.7678786174E-01   -5.0177427561E-01   -5.2445191136E-01
   -5.4476638562E-01   -5.6267244057E-01   -5.7813439962E-01   -5.9112657671E-01
   -6.0163363385E-01   -6.0965088112E-01   -6.1518451449E-01   -6.1825178649E-01
   -6.1888110606E-01   -6.1711206903E-01   -6.1299561127E-01   -6.0659417944E-01
   -5.9798169647E-01   -5.8724339455E-01   -5.7447557705E-01   -5.5978529775E-01
   -5.4328995973E-01   -5.2511683515E-01   -5.0540250814E-01   -4.8429224333E-01
   -4.6193928361E-01   -4.3850408108E-01   -4.1415346611E-01   -3.8905975978E-01
   -3.6339983568E-01   -3.3735413753E-01   -3.1110565957E-01   -2.8483889713E-01
   -2.5873877491E-01   -2.3298956125E-01   -2.0777377264E-01   -1.8327111541E-01
   -1.5965732515E-01   -1.3710314050E-01   -1.1577542438E-01   -9.5837189497E-02
   -7.7438137532E-02   -6.0717838413E-02   -4.5806104311E-02   -3.2821992601E-02
   -2.1873242505E-02   -1.3060499213E-02   -6.4361142114E-03   -2.1348007494E-03
   -2.5630705473E-04    7.9037998108E-05   -2.2559300638E-05    2.6616065839E-07
 0. 0. 0. 0.
 0. 0. 0. 0.
 0. 0. 0. 0.
 0. 0. 0. 0.
 0. 0. 0. 0.
 0. 0. 0. 0.
 0. 0. 0. 0.
 0. 0. 0. 0.
 0. 0. 0. 0.
 0. 0. 0. 0.
 0. 0. 0. 0.
 0. 0. 0. 0.
 0. 0. 0. 0.
 0. 0. 0. 0.
 0. 0. 0. 0.
 0. 0. 0. 0.
 0. 0. 0. 0.
 0. 0. 0. 0.
 0. 0. 0. 0.
 0. 0. 0. 0.
 0. 0. 0. 0.
 0. 0. 0. 0.
 0. 0. 0. 0.
 0. 0. 0. 0.
 0. 0. 0. 0.
 0. 0. 0. 0.
 0. 0. 0. 0.
 0. 0. 0. 0.
 0. 0. 0. 0.
 0. 0. 0. 0.
 0. 0. 0. 0.
 0. 0. 0. 0.
 0. 0. 0. 0.
 0. 0. 0. 0.
 0. 0. 0. 0.
 0. 0. 0. 0.
 0. 0. 0. 0.
 0. 0. 0. 0.
 0. 0. 0. 0.
 0. 0. 0. 0.
 0. 0. 0. 0.
 0. 0. 0. 0.
 0. 0. 0. 0.
 0. 0. 0. 0.
 0. 0. 0. 0.
 0. 0. 0. 0.
 0. 0. 0. 0.
 0. 0. 0. 0.
 0. 0. 0. 0.
 0. 0. 0. 0.
 0. 0. 0. 0.
 0. 0. 0. 0.
 0. 0. 0. 0.
 0. 0. 0. 0.
 0. 0. 0. 0.
 0. 0. 0. 0.
 0. 0. 0. 0.
 0. 0. 0. 0.
 0. 0. 0. 0.
 0. 0. 0. 0.
 0. 0. 0. 0.
 0. 0. 0. 0.
 0. 0. 0. 0.
 0. 0. 0. 0.
 0. 0. 0. 0.
 0. 0. 0. 0.
 0. 0. 0. 0.
 0. 0. 0. 0.
 0. 0. 0. 0.
 0. 0. 0. 0.
 0. 0. 0. 0.
 0. 0. 0. 0.
 0. 0. 0. 0.
 0. 0. 0. 0.
 0. 0. 0. 0.
 0. 0. 0. 0.
 0. 0. 0. 0.
 0. 0. 0. 0.
 0. 0. 0. 0.
 0. 0. 0. 0.
 0. 0. 0. 0.
 0. 0. 0. 0.
 0. 0. 0. 0.
 0. 0. 0. 0.
 0. 0. 0. 0.
 0. 0. 0. 0.
 0. 0. 0. 0.
 0. 0. 0. 0.
 0. 0. 0. 0.
 0. 0. 0. 0.
 0. 0. 0. 0.
 0. 0. 0. 0.
 0. 0. 0. 0.
 0. 0. 0. 0.
 0. 0. 0. 0.
 0. 0. 0. 0.
 0. 0. 0. 0.
 0. 0. 0. 0.
 0. 0. 0. 0.
 0. 0. 0. 0.
 0. 0. 0. 0.
 0. 0. 0. 0.
 0. 0. 0. 0.
 0. 0. 0. 0.
 0. 0. 0. 0.
 0. 0. 0. 0.
 0. 0. 0. 0.
 0. 0. 0. 0.
 0. 0. 0. 0.
 0. 0. 0. 0.
 0. 0. 0. 0.
 0. 0. 0. 0.
 0. 0. 0. 0.
 0. 0. 0. 0.
 0. 0. 0. 0.
 0. 0. 0. 0.
 0. 0. 0. 0.
 0. 0. 0. 0.
 0. 0. 0. 0.
 0. 0. 0. 0.
 0. 0. 0. 0.
 0. 0. 0. 0.
 0. 0. 0. 0.
 0. 0. 0. 0.
 0. 0. 0. 0.
 0. 0. 0. 0.
 0. 0. 0. 0.
 0. 0. 0. 0.
 0. 0. 0. 0.
 0. 0. 0. 0.
 0. 0. 0. 0.
 0. 0. 0. 0.
 0. 0. 0. 0.
 0. 0. 0. 0.
 0. 0. 0. 0.
 0. 0. 0. 0.
 0. 0. 0. 0.
 0. 0. 0. 0.
 0. 0. 0. 0.
 0. 0. 0. 0.
 0. 0. 0. 0.
 0. 0. 0. 0.
 0. 0. 0. 0.
 0. 0. 0. 0.
 0. 0. 0. 0.
 0. 0. 0. 0.
 0. 0. 0. 0.
 0. 0. 0. 0.
 0. 0. 0. 0.
 0. 0. 0. 0.
 0. 0. 0. 0.
 0. 0. 0. 0.
 0. 0. 0. 0.
 0. 0. 0. 0.
 0. 0. 0. 0.
 0. 0. 0. 0.
 0. 0. 0. 0.
 0. 0. 0. 0.
 0. 0. 0. 0.
 0. 0. 0. 0.
 0. 0. 0. 0.
 0. 0. 0. 0.
 0. 0. 0. 0.
 0. 0. 0. 0.
 0. 0. 0. 0.
 0. 0. 0. 0.
 0. 0. 0. 0.
 0. 0. 0. 0.
 0. 0. 0. 0.
 0. 0. 0. 0.
 0. 0. 0. 0.
 0. 0. 0. 0.
 0. 0. 0. 0.
 0. 0. 0. 0.
 0. 0. 0. 0.
 0. 0. 0. 0.
 0. 0. 0. 0.
 0. 0. 0. 0.
 0. 0. 0. 0.
 0. 0. 0. 0.
 0. 0. 0. 0.
 0. 0. 0. 0.
 0. 0. 0. 0.
 0. 0. 0. 0.
 0. 0. 0. 0.
 0. 0. 0. 0.
 0. 0. 0. 0.
 0. 0. 0. 0.
 0. 0. 0. 0.
 0. 0. 0. 0.
 0. 0. 0. 0.
 0. 0. 0. 0.
 0. 0. 0. 0.
 0. 0. 0. 0.
 0. 0. 0. 0.
 0. 0. 0. 0.
 0. 0. 0. 0.
 0. 0. 0. 0.
 0. 0. 0. 0.
 0. 0. 0. 0.
 0. 0. 0. 0.
 0. 0. 0. 0.
 0. 0. 0. 0.
 0. 0. 0. 0.
 0. 0. 0. 0.
 0. 0. 0. 0.
 0. 0. 0. 0.
 0. 0. 0. 0.
 0. 0. 0. 0.
 0. 0. 0. 0.
 0. 0. 0. 0.
 0. 0. 0. 0.
 0. 0. 0. 0.
 0. 0. 0. 0.
 0. 0. 0. 0.
 0. 0. 0. 0.
 0. 0. 0. 0.
 0. 0. 0. 0.
 0. 0. 0. 0.
 0. 0. 0. 0.
 0. 0. 0. 0.
   </PP_BETA.8>
   <PP_BETA.9
       type="real"
       size="1108"
       columns="4"
       index="9"
       angular_momentum="2"
       cutoff_radius_index=" 224"
       cutoff_radius="    2.2300000000E+00" >
   -1.2094658955E-10    5.3939660496E-06    4.3142000504E-05    1.4554918239E-04
    3.4482098602E-04    6.7300944505E-04    1.1619545635E-03    1.8432195331E-03
    2.7480184384E-03    3.9071352774E-03    5.3508332994E-03    7.1087538590E-03
    9.2098041971E-03    1.1682033796E-02    1.4552499203E-02    1.7847117460E-02
    2.1590508573E-02    2.5805827671E-02    3.0514587817E-02    3.5736474669E-02
    4.1489154438E-02    4.7788076840E-02    5.4646274965E-02    6.2074164162E-02
    7.0079342259E-02    7.8666393557E-02    8.7836699181E-02    9.7588256467E-02
    1.0791551010E-01    1.1880919780E-01    1.3025621325E-01    1.4223948904E-01
    1.5473790224E-01    1.6772620499E-01    1.8117498264E-01    1.9505064149E-01
    2.0931542801E-01    2.2392748134E-01    2.3884092040E-01    2.5400596657E-01
    2.6936910289E-01    2.8487327003E-01    3.0045809892E-01    3.1606017999E-01
    3.3161336784E-01    3.4704912050E-01    3.6229687146E-01    3.7728443272E-01
    3.9193842627E-01    4.0618474160E-01    4.1994901579E-01    4.3315713322E-01
    4.4573574079E-01    4.5761277509E-01    4.6871799707E-01    4.7898352993E-01
    4.8834439573E-01    4.9673904608E-01    5.0410988217E-01    5.1040375948E-01
    5.1557247250E-01    5.1957321482E-01    5.2236901013E-01    5.2392910994E-01
    5.2422935382E-01    5.2325248839E-01    5.2098844175E-01    5.1743454987E-01
    5.1259573264E-01    5.0648461680E-01    4.9912160427E-01    4.9053488420E-01
    4.8076038802E-01    4.6984168698E-01    4.5782983240E-01    4.4478313920E-01
    4.3076691397E-01    4.1585312919E-01    4.0012004589E-01    3.8365178738E-01
    3.6653786715E-01    3.4887267475E-01    3.3075492331E-01    3.1228706339E-01
    2.9357466766E-01    2.7472579142E-01    2.5585031421E-01    2.3705926785E-01
    2.1846415648E-01    2.0017627416E-01    1.8230602565E-01    1.6496225596E-01
    1.4825159416E-01    1.3227781679E-01    1.1714123596E-01    1.0293811714E-01
    8.9760131050E-02    7.7693844033E-02    6.6820250691E-02    5.7214352168E-02
    4.8944783056E-02    4.2073489376E-02    3.6655459549E-02    3.2738509773E-02
    3.0363124649E-02    2.9562353360E-02    3.0361761148E-02    3.2779435287E-02
    3.6826044214E-02    4.2504947969E-02    4.9812357596E-02    5.8737540685E-02
    6.9263069826E-02    8.1365110333E-02    9.5013743263E-02    1.1017331945E-01
    1.2680284000E-01    1.4485635862E-01    1.6428340073E-01    1.8502939463E-01
    2.0703610959E-01    2.3024209601E-01    2.5458312277E-01    2.7999260710E-01
    3.0640203244E-01    3.3374135012E-01    3.6193936088E-01    3.9092407268E-01
    4.2062303158E-01    4.5096362304E-01    4.8187334119E-01    5.1328002445E-01
    5.4511205606E-01    5.7729852881E-01    6.0976937378E-01    6.4245545327E-01
    6.7528861884E-01    7.0820173569E-01    7.4112867530E-01    7.7400427858E-01
    8.0676429224E-01    8.3934528150E-01    8.7168452275E-01    9.0371987981E-01
    9.3538966793E-01    9.6663250991E-01    9.9738718851E-01    1.0275925000E+00
    1.0571871129E+00    1.0861094375E+00    1.1142975085E+00    1.1416888878E+00
    1.1682205889E+00    1.1938290284E+00    1.2184500068E+00    1.2420187228E+00
    1.2644698224E+00    1.2857374859E+00    1.3057555537E+00    1.3244576926E+00
    1.3417776017E+00    1.3576492595E+00    1.3720072096E+00    1.3847868847E+00
    1.3959249663E+00    1.4053597781E+00    1.4130317078E+00    1.4188836565E+00
    1.4228615084E+00    1.4249146172E+00    1.4249963041E+00    1.4230643601E+00
    1.4190815482E+00    1.4130160974E+00    1.4048421828E+00    1.3945403844E+00
    1.3820981175E+00    1.3675100283E+00    1.3507783470E+00    1.3319131916E+00
    1.3109328170E+00    1.2878638007E+00    1.2627411622E+00    1.2356084084E+00
    1.2065175050E+00    1.1755288118E+00    1.1427125344E+00    1.1081504613E+00
    1.0719362833E+00    1.0341753398E+00    9.9498437016E-01    9.5449115470E-01
    9.1283406650E-01    8.7016153404E-01    8.2663141756E-01    7.8241030155E-01
    7.3767270703E-01    6.9260022852E-01    6.4738060063E-01    6.0220670051E-01
    5.5727549276E-01    5.1278692402E-01    4.6894277522E-01    4.2594547986E-01
    3.8399691692E-01    3.4329718757E-01    3.0404337548E-01    2.6642840786E-01
    2.3063957143E-01    1.9685760819E-01    1.6526090017E-01    1.3602625549E-01
    1.0930526213E-01    8.5235933088E-02    6.3945252271E-02    4.5547326413E-02
    3.0142881400E-02    1.7824599356E-02    8.6266880661E-03    2.6833273448E-03
    8.2042943186E-05   -2.2986504743E-04    5.3225446550E-05   -7.1520418880E-07
 0. 0. 0. 0.
 0. 0. 0. 0.
 0. 0. 0. 0.
 0. 0. 0. 0.
 0. 0. 0. 0.
 0. 0. 0. 0.
 0. 0. 0. 0.
 0. 0. 0. 0.
 0. 0. 0. 0.
 0. 0. 0. 0.
 0. 0. 0. 0.
 0. 0. 0. 0.
 0. 0. 0. 0.
 0. 0. 0. 0.
 0. 0. 0. 0.
 0. 0. 0. 0.
 0. 0. 0. 0.
 0. 0. 0. 0.
 0. 0. 0. 0.
 0. 0. 0. 0.
 0. 0. 0. 0.
 0. 0. 0. 0.
 0. 0. 0. 0.
 0. 0. 0. 0.
 0. 0. 0. 0.
 0. 0. 0. 0.
 0. 0. 0. 0.
 0. 0. 0. 0.
 0. 0. 0. 0.
 0. 0. 0. 0.
 0. 0. 0. 0.
 0. 0. 0. 0.
 0. 0. 0. 0.
 0. 0. 0. 0.
 0. 0. 0. 0.
 0. 0. 0. 0.
 0. 0. 0. 0.
 0. 0. 0. 0.
 0. 0. 0. 0.
 0. 0. 0. 0.
 0. 0. 0. 0.
 0. 0. 0. 0.
 0. 0. 0. 0.
 0. 0. 0. 0.
 0. 0. 0. 0.
 0. 0. 0. 0.
 0. 0. 0. 0.
 0. 0. 0. 0.
 0. 0. 0. 0.
 0. 0. 0. 0.
 0. 0. 0. 0.
 0. 0. 0. 0.
 0. 0. 0. 0.
 0. 0. 0. 0.
 0. 0. 0. 0.
 0. 0. 0. 0.
 0. 0. 0. 0.
 0. 0. 0. 0.
 0. 0. 0. 0.
 0. 0. 0. 0.
 0. 0. 0. 0.
 0. 0. 0. 0.
 0. 0. 0. 0.
 0. 0. 0. 0.
 0. 0. 0. 0.
 0. 0. 0. 0.
 0. 0. 0. 0.
 0. 0. 0. 0.
 0. 0. 0. 0.
 0. 0. 0. 0.
 0. 0. 0. 0.
 0. 0. 0. 0.
 0. 0. 0. 0.
 0. 0. 0. 0.
 0. 0. 0. 0.
 0. 0. 0. 0.
 0. 0. 0. 0.
 0. 0. 0. 0.
 0. 0. 0. 0.
 0. 0. 0. 0.
 0. 0. 0. 0.
 0. 0. 0. 0.
 0. 0. 0. 0.
 0. 0. 0. 0.
 0. 0. 0. 0.
 0. 0. 0. 0.
 0. 0. 0. 0.
 0. 0. 0. 0.
 0. 0. 0. 0.
 0. 0. 0. 0.
 0. 0. 0. 0.
 0. 0. 0. 0.
 0. 0. 0. 0.
 0. 0. 0. 0.
 0. 0. 0. 0.
 0. 0. 0. 0.
 0. 0. 0. 0.
 0. 0. 0. 0.
 0. 0. 0. 0.
 0. 0. 0. 0.
 0. 0. 0. 0.
 0. 0. 0. 0.
 0. 0. 0. 0.
 0. 0. 0. 0.
 0. 0. 0. 0.
 0. 0. 0. 0.
 0. 0. 0. 0.
 0. 0. 0. 0.
 0. 0. 0. 0.
 0. 0. 0. 0.
 0. 0. 0. 0.
 0. 0. 0. 0.
 0. 0. 0. 0.
 0. 0. 0. 0.
 0. 0. 0. 0.
 0. 0. 0. 0.
 0. 0. 0. 0.
 0. 0. 0. 0.
 0. 0. 0. 0.
 0. 0. 0. 0.
 0. 0. 0. 0.
 0. 0. 0. 0.
 0. 0. 0. 0.
 0. 0. 0. 0.
 0. 0. 0. 0.
 0. 0. 0. 0.
 0. 0. 0. 0.
 0. 0. 0. 0.
 0. 0. 0. 0.
 0. 0. 0. 0.
 0. 0. 0. 0.
 0. 0. 0. 0.
 0. 0. 0. 0.
 0. 0. 0. 0.
 0. 0. 0. 0.
 0. 0. 0. 0.
 0. 0. 0. 0.
 0. 0. 0. 0.
 0. 0. 0. 0.
 0. 0. 0. 0.
 0. 0. 0. 0.
 0. 0. 0. 0.
 0. 0. 0. 0.
 0. 0. 0. 0.
 0. 0. 0. 0.
 0. 0. 0. 0.
 0. 0. 0. 0.
 0. 0. 0. 0.
 0. 0. 0. 0.
 0. 0. 0. 0.
 0. 0. 0. 0.
 0. 0. 0. 0.
 0. 0. 0. 0.
 0. 0. 0. 0.
 0. 0. 0. 0.
 0. 0. 0. 0.
 0. 0. 0. 0.
 0. 0. 0. 0.
 0. 0. 0. 0.
 0. 0. 0. 0.
 0. 0. 0. 0.
 0. 0. 0. 0.
 0. 0. 0. 0.
 0. 0. 0. 0.
 0. 0. 0. 0.
 0. 0. 0. 0.
 0. 0. 0. 0.
 0. 0. 0. 0.
 0. 0. 0. 0.
 0. 0. 0. 0.
 0. 0. 0. 0.
 0. 0. 0. 0.
 0. 0. 0. 0.
 0. 0. 0. 0.
 0. 0. 0. 0.
 0. 0. 0. 0.
 0. 0. 0. 0.
 0. 0. 0. 0.
 0. 0. 0. 0.
 0. 0. 0. 0.
 0. 0. 0. 0.
 0. 0. 0. 0.
 0. 0. 0. 0.
 0. 0. 0. 0.
 0. 0. 0. 0.
 0. 0. 0. 0.
 0. 0. 0. 0.
 0. 0. 0. 0.
 0. 0. 0. 0.
 0. 0. 0. 0.
 0. 0. 0. 0.
 0. 0. 0. 0.
 0. 0. 0. 0.
 0. 0. 0. 0.
 0. 0. 0. 0.
 0. 0. 0. 0.
 0. 0. 0. 0.
 0. 0. 0. 0.
 0. 0. 0. 0.
 0. 0. 0. 0.
 0. 0. 0. 0.
 0. 0. 0. 0.
 0. 0. 0. 0.
 0. 0. 0. 0.
 0. 0. 0. 0.
 0. 0. 0. 0.
 0. 0. 0. 0.
 0. 0. 0. 0.
 0. 0. 0. 0.
 0. 0. 0. 0.
 0. 0. 0. 0.
 0. 0. 0. 0.
 0. 0. 0. 0.
 0. 0. 0. 0.
 0. 0. 0. 0.
 0. 0. 0. 0.
 0. 0. 0. 0.
 0. 0. 0. 0.
 0. 0. 0. 0.
 0. 0. 0. 0.
 0. 0. 0. 0.
   </PP_BETA.9>
   <PP_BETA.10
       type="real"
       size="1108"
       columns="4"
       index="10"
       angular_momentum="2"
       cutoff_radius_index=" 224"
       cutoff_radius="    2.2300000000E+00" >
   -1.1995377087E-10    5.3972470886E-06    4.3168292668E-05    1.4563816765E-04
    3.4503275359E-04    6.7342520365E-04    1.1626776448E-03    1.8443767311E-03
    2.7497617387E-03    3.9096440383E-03    5.3543169547E-03    7.1134552156E-03
    9.2160034063E-03    1.1690053078E-02    1.4562708403E-02    1.7859940517E-02
    2.1606430968E-02    2.5825404926E-02    3.0538455107E-02    3.5765357586E-02
    4.1523880947E-02    4.7829590458E-02    5.4695649151E-02    6.2132617924E-02
    7.0148256938E-02    7.8747330746E-02    8.7931419705E-02    9.7698740329E-02
    1.0804397729E-01    1.1895812984E-01    1.3042837527E-01    1.4243795232E-01
    1.5496606685E-01    1.6798782250E-01    1.8147417857E-01    1.9539193720E-01
    2.0970376192E-01    2.2436822908E-01    2.3933991360E-01    2.5456951018E-01
    2.7000399051E-01    2.8558679704E-01    3.0125807330E-01    3.1695493019E-01
    3.3261174780E-01    3.4816051125E-01    3.6353117933E-01    3.7865208369E-01
    3.9345035647E-01    4.0785238355E-01    4.2178428053E-01    4.3517238789E-01
    4.4794378186E-01    4.6002679696E-01    4.7135155619E-01    4.8185050436E-01
    4.9145894030E-01    5.0011554317E-01    5.0776288826E-01    5.1434794777E-01
    5.1982257164E-01    5.2414394418E-01    5.2727501183E-01    5.2918487799E-01
    5.2984916076E-01    5.2925030982E-01    5.2737787917E-01    5.2422875235E-01
    5.1980731769E-01    5.1412559108E-01    5.0720328453E-01    4.9906781904E-01
    4.8975428097E-01    4.7930532151E-01    4.6777099923E-01    4.5520856660E-01
    4.4168220147E-01    4.2726268521E-01    4.1202702976E-01    3.9605805619E-01
    3.7944392794E-01    3.6227764219E-01    3.4465648356E-01    3.2668144413E-01
    3.0845661475E-01    2.9008855235E-01    2.7168562854E-01    2.5335736472E-01
    2.3521375933E-01    2.1736461262E-01    1.9991885466E-01    1.8298388198E-01
    1.6666490835E-01    1.5106433505E-01    1.3628114556E-01    1.2241032962E-01
    1.0954234126E-01    9.7762594784E-02    8.7151002727E-02    7.7781559031E-02
    6.9721970393E-02    6.3033338225E-02    5.7769893104E-02    5.3978783135E-02
    5.1699917031E-02    5.0965862228E-02    5.1801797768E-02    5.4225521143E-02
    5.8247507785E-02    6.3871021350E-02    7.1092272460E-02    7.9900623116E-02
    9.0278833561E-02    1.0220334798E-01    1.1564461510E-01    1.3056743942E-01
    1.4693135858E-01    1.6469104221E-01    1.8379670740E-01    2.0419454586E-01
    2.2582715791E-01    2.4863398834E-01    2.7255175938E-01    2.9751489601E-01
    3.2345593937E-01    3.5030594385E-01    3.7799485411E-01    4.0645185836E-01
    4.3560571494E-01    4.6538504922E-01    4.9571861880E-01    5.2653554500E-01
    5.5776550960E-01    5.8933891584E-01    6.2118701361E-01    6.5324198905E-01
    6.8543701941E-01    7.1770629446E-01    7.4998500631E-01    7.8220930992E-01
    8.1431625694E-01    8.4624370614E-01    8.7793021380E-01    9.0931490787E-01
    9.4033735002E-01    9.7093738974E-01    1.0010550150E+00    1.0306302037E+00
    1.0596027813E+00    1.0879122873E+00    1.1154978576E+00    1.1422981243E+00
    1.1682511389E+00    1.1932943214E+00    1.2173644398E+00    1.2403976221E+00
    1.2623294033E+00    1.2830948107E+00    1.3026284876E+00    1.3208648571E+00
    1.3377383271E+00    1.3531835341E+00    1.3671356279E+00    1.3795305939E+00
    1.3903056108E+00    1.3993994425E+00    1.4067528594E+00    1.4123090864E+00
    1.4160142721E+00    1.4178179756E+00    1.4176736643E+00    1.4155392177E+00
    1.4113774303E+00    1.4051565088E+00    1.3968505541E+00    1.3864400244E+00
    1.3739121700E+00    1.3592614339E+00    1.3424898118E+00    1.3236071631E+00
    1.3026314681E+00    1.2795890237E+00    1.2545145732E+00    1.2274513636E+00
    1.1984511292E+00    1.1675740395E+00    1.1348900812E+00    1.1004807061E+00
    1.0644391300E+00    1.0268700832E+00    9.8788956198E-01    9.4762447267E-01
    9.0621218620E-01    8.6380000529E-01    8.2054454578E-01    7.7661103513E-01
    7.3217253140E-01    6.8740906772E-01    6.4250672704E-01    5.9765665332E-01
    5.5305400580E-01    5.0889686336E-01    4.6538508698E-01    4.2271914844E-01
    3.8109893397E-01    3.4072253172E-01    3.0178500371E-01    2.6447725107E-01
    2.2898455975E-01    1.9548568947E-01    1.6415665984E-01    1.3517139149E-01
    1.0867978787E-01    8.4818433093E-02    6.3712883791E-02    4.5475902341E-02
    3.0206935946E-02    1.7998106981E-02    8.8768071039E-03    2.9888807506E-03
    4.3592974607E-04   -6.7001909207E-05    2.3292623711E-05   -2.4794985561E-07
 0. 0. 0. 0.
 0. 0. 0. 0.
 0. 0. 0. 0.
 0. 0. 0. 0.
 0. 0. 0. 0.
 0. 0. 0. 0.
 0. 0. 0. 0.
 0. 0. 0. 0.
 0. 0. 0. 0.
 0. 0. 0. 0.
 0. 0. 0. 0.
 0. 0. 0. 0.
 0. 0. 0. 0.
 0. 0. 0. 0.
 0. 0. 0. 0.
 0. 0. 0. 0.
 0. 0. 0. 0.
 0. 0. 0. 0.
 0. 0. 0. 0.
 0. 0. 0. 0.
 0. 0. 0. 0.
 0. 0. 0. 0.
 0. 0. 0. 0.
 0. 0. 0. 0.
 0. 0. 0. 0.
 0. 0. 0. 0.
 0. 0. 0. 0.
 0. 0. 0. 0.
 0. 0. 0. 0.
 0. 0. 0. 0.
 0. 0. 0. 0.
 0. 0. 0. 0.
 0. 0. 0. 0.
 0. 0. 0. 0.
 0. 0. 0. 0.
 0. 0. 0. 0.
 0. 0. 0. 0.
 0. 0. 0. 0.
 0. 0. 0. 0.
 0. 0. 0. 0.
 0. 0. 0. 0.
 0. 0. 0. 0.
 0. 0. 0. 0.
 0. 0. 0. 0.
 0. 0. 0. 0.
 0. 0. 0. 0.
 0. 0. 0. 0.
 0. 0. 0. 0.
 0. 0. 0. 0.
 0. 0. 0. 0.
 0. 0. 0. 0.
 0. 0. 0. 0.
 0. 0. 0. 0.
 0. 0. 0. 0.
 0. 0. 0. 0.
 0. 0. 0. 0.
 0. 0. 0. 0.
 0. 0. 0. 0.
 0. 0. 0. 0.
 0. 0. 0. 0.
 0. 0. 0. 0.
 0. 0. 0. 0.
 0. 0. 0. 0.
 0. 0. 0. 0.
 0. 0. 0. 0.
 0. 0. 0. 0.
 0. 0. 0. 0.
 0. 0. 0. 0.
 0. 0. 0. 0.
 0. 0. 0. 0.
 0. 0. 0. 0.
 0. 0. 0. 0.
 0. 0. 0. 0.
 0. 0. 0. 0.
 0. 0. 0. 0.
 0. 0. 0. 0.
 0. 0. 0. 0.
 0. 0. 0. 0.
 0. 0. 0. 0.
 0. 0. 0. 0.
 0. 0. 0. 0.
 0. 0. 0. 0.
 0. 0. 0. 0.
 0. 0. 0. 0.
 0. 0. 0. 0.
 0. 0. 0. 0.
 0. 0. 0. 0.
 0. 0. 0. 0.
 0. 0. 0. 0.
 0. 0. 0. 0.
 0. 0. 0. 0.
 0. 0. 0. 0.
 0. 0. 0. 0.
 0. 0. 0. 0.
 0. 0. 0. 0.
 0. 0. 0. 0.
 0. 0. 0. 0.
 0. 0. 0. 0.
 0. 0. 0. 0.
 0. 0. 0. 0.
 0. 0. 0. 0.
 0. 0. 0. 0.
 0. 0. 0. 0.
 0. 0. 0. 0.
 0. 0. 0. 0.
 0. 0. 0. 0.
 0. 0. 0. 0.
 0. 0. 0. 0.
 0. 0. 0. 0.
 0. 0. 0. 0.
 0. 0. 0. 0.
 0. 0. 0. 0.
 0. 0. 0. 0.
 0. 0. 0. 0.
 0. 0. 0. 0.
 0. 0. 0. 0.
 0. 0. 0. 0.
 0. 0. 0. 0.
 0. 0. 0. 0.
 0. 0. 0. 0.
 0. 0. 0. 0.
 0. 0. 0. 0.
 0. 0. 0. 0.
 0. 0. 0. 0.
 0. 0. 0. 0.
 0. 0. 0. 0.
 0. 0. 0. 0.
 0. 0. 0. 0.
 0. 0. 0. 0.
 0. 0. 0. 0.
 0. 0. 0. 0.
 0. 0. 0. 0.
 0. 0. 0. 0.
 0. 0. 0. 0.
 0. 0. 0. 0.
 0. 0. 0. 0.
 0. 0. 0. 0.
 0. 0. 0. 0.
 0. 0. 0. 0.
 0. 0. 0. 0.
 0. 0. 0. 0.
 0. 0. 0. 0.
 0. 0. 0. 0.
 0. 0. 0. 0.
 0. 0. 0. 0.
 0. 0. 0. 0.
 0. 0. 0. 0.
 0. 0. 0. 0.
 0. 0. 0. 0.
 0. 0. 0. 0.
 0. 0. 0. 0.
 0. 0. 0. 0.
 0. 0. 0. 0.
 0. 0. 0. 0.
 0. 0. 0. 0.
 0. 0. 0. 0.
 0. 0. 0. 0.
 0. 0. 0. 0.
 0. 0. 0. 0.
 0. 0. 0. 0.
 0. 0. 0. 0.
 0. 0. 0. 0.
 0. 0. 0. 0.
 0. 0. 0. 0.
 0. 0. 0. 0.
 0. 0. 0. 0.
 0. 0. 0. 0.
 0. 0. 0. 0.
 0. 0. 0. 0.
 0. 0. 0. 0.
 0. 0. 0. 0.
 0. 0. 0. 0.
 0. 0. 0. 0.
 0. 0. 0. 0.
 0. 0. 0. 0.
 0. 0. 0. 0.
 0. 0. 0. 0.
 0. 0. 0. 0.
 0. 0. 0. 0.
 0. 0. 0. 0.
 0. 0. 0. 0.
 0. 0. 0. 0.
 0. 0. 0. 0.
 0. 0. 0. 0.
 0. 0. 0. 0.
 0. 0. 0. 0.
 0. 0. 0. 0.
 0. 0. 0. 0.
 0. 0. 0. 0.
 0. 0. 0. 0.
 0. 0. 0. 0.
 0. 0. 0. 0.
 0. 0. 0. 0.
 0. 0. 0. 0.
 0. 0. 0. 0.
 0. 0. 0. 0.
 0. 0. 0. 0.
 0. 0. 0. 0.
 0. 0. 0. 0.
 0. 0. 0. 0.
 0. 0. 0. 0.
 0. 0. 0. 0.
 0. 0. 0. 0.
 0. 0. 0. 0.
 0. 0. 0. 0.
 0. 0. 0. 0.
 0. 0. 0. 0.
 0. 0. 0. 0.
 0. 0. 0. 0.
 0. 0. 0. 0.
 0. 0. 0. 0.
 0. 0. 0. 0.
 0. 0. 0. 0.
 0. 0. 0. 0.
 0. 0. 0. 0.
 0. 0. 0. 0.
 0. 0. 0. 0.
 0. 0. 0. 0.
 0. 0. 0. 0.
 0. 0. 0. 0.
 0. 0. 0. 0.
   </PP_BETA.10>
   <PP_DIJ type="real"  size=" 100" columns="4">
    1.1161705031E+01    0.0000000000E+00    0.0000000000E+00    0.0000000000E+00
    0.0000000000E+00    0.0000000000E+00    0.0000000000E+00    0.0000000000E+00
    0.0000000000E+00    0.0000000000E+00    0.0000000000E+00    1.2587477522E+00
    0.0000000000E+00    0.0000000000E+00    0.0000000000E+00    0.0000000000E+00
    0.0000000000E+00    0.0000000000E+00    0.0000000000E+00    0.0000000000E+00
    0.0000000000E+00    0.0000000000E+00    6.2421089619E+00    0.0000000000E+00
    0.0000000000E+00    0.0000000000E+00    0.0000000000E+00    0.0000000000E+00
    0.0000000000E+00    0.0000000000E+00    0.0000000000E+00    0.0000000000E+00
    0.0000000000E+00    6.4793445526E+00    0.0000000000E+00    0.0000000000E+00
    0.0000000000E+00    0.0000000000E+00    0.0000000000E+00    0.0000000000E+00
    0.0000000000E+00    0.0000000000E+00    0.0000000000E+00    0.0000000000E+00
    1.0257304682E+00    0.0000000000E+00    0.0000000000E+00    0.0000000000E+00
    0.0000000000E+00    0.0000000000E+00    0.0000000000E+00    0.0000000000E+00
    0.0000000000E+00    0.0000000000E+00    0.0000000000E+00    1.0541989557E+00
    0.0000000000E+00    0.0000000000E+00    0.0000000000E+00    0.0000000000E+00
    0.0000000000E+00    0.0000000000E+00    0.0000000000E+00    0.0000000000E+00
    0.0000000000E+00    0.0000000000E+00    1.6625256668E+00    0.0000000000E+00
    0.0000000000E+00    0.0000000000E+00    0.0000000000E+00    0.0000000000E+00
    0.0000000000E+00    0.0000000000E+00    0.0000000000E+00    0.0000000000E+00
    0.0000000000E+00    1.7967465844E+00    0.0000000000E+00    0.0000000000E+00
    0.0000000000E+00    0.0000000000E+00    0.0000000000E+00    0.0000000000E+00
    0.0000000000E+00    0.0000000000E+00    0.0000000000E+00    0.0000000000E+00
    3.1033418817E-01    0.0000000000E+00    0.0000000000E+00    0.0000000000E+00
    0.0000000000E+00    0.0000000000E+00    0.0000000000E+00    0.0000000000E+00
    0.0000000000E+00    0.0000000000E+00    0.0000000000E+00    3.2570324524E-01
   </PP_DIJ>
 </PP_NONLOCAL>
 <PP_PSWFC>
   <PP_CHI.1
       type="real"
       size="1108"
       columns="4"
       index="1"
       occupation=" 2.000"
       pseudo_energy="   -0.1479378752E+01"
       label="4S"
       l="0" >
   -9.1059104701E-14    3.3599710082E-03    6.7244151463E-03    1.0097798759E-02
    1.3484574629E-02    1.6889175214E-02    2.0316005908E-02    2.3769438331E-02
    2.7253803661E-02    3.0773386001E-02    3.4332415814E-02    3.7935063407E-02
    4.1585432490E-02    4.5287553812E-02    4.9045378877E-02    5.2862773756E-02
    5.6743513004E-02    6.0691273678E-02    6.4709629480E-02    6.8802045017E-02
    7.2971870205E-02    7.7222334810E-02    8.1556543134E-02    8.5977468876E-02
    9.0487950141E-02    9.5090684641E-02    9.9788225070E-02    1.0458297467E-01
    1.0947718303E-01    1.1447294201E-01    1.1957218198E-01    1.2477666826E-01
    1.3008799771E-01    1.3550759566E-01    1.4103671304E-01    1.4667642378E-01
    1.5242762244E-01    1.5829102212E-01    1.6426715268E-01    1.7035635917E-01
    1.7655880058E-01    1.8287444886E-01    1.8930308827E-01    1.9584431495E-01
    2.0249753687E-01    2.0926197398E-01    2.1613665877E-01    2.2312043705E-01
    2.3021196906E-01    2.3740973087E-01    2.4471201611E-01    2.5211693794E-01
    2.5962243140E-01    2.6722625596E-01    2.7492599844E-01    2.8271907616E-01
    2.9060274039E-01    2.9857408007E-01    3.0663002582E-01    3.1476735416E-01
    3.2298269203E-01    3.3127252154E-01    3.3963318492E-01    3.4806088974E-01
    3.5655171434E-01    3.6510161342E-01    3.7370642385E-01    3.8236187068E-01
    3.9106357328E-01    3.9980705164E-01    4.0858773281E-01    4.1740095750E-01
    4.2624198673E-01    4.3510600864E-01    4.4398814534E-01    4.5288345985E-01
    4.6178696307E-01    4.7069362083E-01    4.7959836094E-01    4.8849608025E-01
    4.9738165168E-01    5.0624993132E-01    5.1509576538E-01    5.2391399715E-01
    5.3269947395E-01    5.4144705389E-01    5.5015161265E-01    5.5880805010E-01
    5.6741129684E-01    5.7595632056E-01    5.8443813237E-01    5.9285179288E-01
    6.0119241817E-01    6.0945518563E-01    6.1763533956E-01    6.2572819663E-01
    6.3372915116E-01    6.4163368017E-01    6.4943734829E-01    6.5713581237E-01
    6.6472482601E-01    6.7220024373E-01    6.7955802507E-01    6.8679423835E-01
    6.9390506431E-01    7.0088679943E-01    7.0773585910E-01    7.1444878060E-01
    7.2102222570E-01    7.2745298328E-01    7.3373797150E-01    7.3987423991E-01
    7.4585897132E-01    7.5168948338E-01    7.5736323010E-01    7.6287780300E-01
    7.6823093226E-01    7.7342048747E-01    7.7844447839E-01    7.8330105540E-01
    7.8798850981E-01    7.9250527404E-01    7.9684992159E-01    8.0102116688E-01
    8.0501786493E-01    8.0883901090E-01    8.1248373944E-01    8.1595132405E-01
    8.1924117612E-01    8.2235284398E-01    8.2528601180E-01    8.2804049836E-01
    8.3061625572E-01    8.3301336779E-01    8.3523204882E-01    8.3727264173E-01
    8.3913561643E-01    8.4082156801E-01    8.4233121482E-01    8.4366539653E-01
    8.4482507207E-01    8.4581131745E-01    8.4662532364E-01    8.4726839420E-01
    8.4774194300E-01    8.4804749172E-01    8.4818666741E-01    8.4816119992E-01
    8.4797291921E-01    8.4762375272E-01    8.4711572252E-01    8.4645094255E-01
    8.4563161563E-01    8.4466003052E-01    8.4353855889E-01    8.4226965217E-01
    8.4085583838E-01    8.3929971888E-01    8.3760396505E-01    8.3577131492E-01
    8.3380456969E-01    8.3170659022E-01    8.2948029348E-01    8.2712864886E-01
    8.2465467449E-01    8.2206143347E-01    8.1935203004E-01    8.1652960573E-01
    8.1359733538E-01    8.1055842320E-01    8.0741609874E-01    8.0417361282E-01
    8.0083423344E-01    7.9740124164E-01    7.9387792731E-01    7.9026758510E-01
    7.8657351014E-01    7.8279899385E-01    7.7894731979E-01    7.7502175942E-01
    7.7102556790E-01    7.6696197997E-01    7.6283420578E-01    7.5864542680E-01
    7.5439879176E-01    7.5009741267E-01    7.4574436085E-01    7.4134266306E-01
    7.3689529774E-01    7.3240519129E-01    7.2787521446E-01    7.2330817888E-01
    7.1870683364E-01    7.1407386206E-01    7.0941187855E-01    7.0472342563E-01
    7.0001097111E-01    6.9527690534E-01    6.9052353880E-01    6.8575309964E-01
    6.8096773157E-01    6.7616949185E-01    6.7136034939E-01    6.6654218314E-01
    6.6171678075E-01    6.5688583737E-01    6.5205095468E-01    6.4721364012E-01
    6.4237530635E-01    6.3753727084E-01    6.3270075553E-01    6.2786689268E-01
    6.2303674308E-01    6.1821133176E-01    6.1339165422E-01    6.0857867229E-01
    6.0377331681E-01    5.9897648800E-01    5.9418905622E-01    5.8941186264E-01
    5.8464571987E-01    5.7989141269E-01    5.7514969867E-01    5.7042130880E-01
    5.6570694813E-01    5.6100729641E-01    5.5632300866E-01    5.5165471580E-01
    5.4700302521E-01    5.4236852133E-01    5.3775176621E-01    5.3315330006E-01
    5.2857364179E-01    5.2401328958E-01    5.1947272133E-01    5.1495239526E-01
    5.1045275032E-01    5.0597420677E-01    5.0151716658E-01    4.9708201396E-01
    4.9266911580E-01    4.8827882212E-01    4.8391146651E-01    4.7956736657E-01
    4.7524682434E-01    4.7095012670E-01    4.6667754579E-01    4.6242933938E-01
    4.5820575129E-01    4.5400701178E-01    4.4983333785E-01    4.4568493370E-01
    4.4156199101E-01    4.3746468932E-01    4.3339319635E-01    4.2934766838E-01
    4.2532825049E-01    4.2133507697E-01    4.1736827156E-01    4.1342794777E-01
    4.0951420919E-01    4.0562714977E-01    4.0176685411E-01    3.9793339770E-01
    3.9412684723E-01    3.9034726083E-01    3.8659468833E-01    3.8286917152E-01
    3.7917074437E-01    3.7549943329E-01    3.7185525736E-01    3.6823822853E-01
    3.6464835188E-01    3.6108562581E-01    3.5755004226E-01    3.5404158692E-01
    3.5056023940E-01    3.4710597348E-01    3.4367875724E-01    3.4027855329E-01
    3.3690531894E-01    3.3355900637E-01    3.3023956279E-01    3.2694693065E-01
    3.2368104777E-01    3.2044184749E-01    3.1722925887E-01    3.1404320679E-01
    3.1088361215E-01    3.0775039196E-01    3.0464345954E-01    3.0156272461E-01
    2.9850809344E-01    2.9547946897E-01    2.9247675098E-01    2.8949983615E-01
    2.8654861822E-01    2.8362298813E-01    2.8072283405E-01    2.7784804160E-01
    2.7499849387E-01    2.7217407158E-01    2.6937465315E-01    2.6660011483E-01
    2.6385033077E-01    2.6112517313E-01    2.5842451219E-01    2.5574821640E-01
    2.5309615250E-01    2.5046818559E-01    2.4786417923E-01    2.4528399549E-01
    2.4272749508E-01    2.4019453738E-01    2.3768498052E-01    2.3519868148E-01
    2.3273549615E-01    2.3029527938E-01    2.2787788507E-01    2.2548316623E-01
    2.2311097504E-01    2.2076116291E-01    2.1843358054E-01    2.1612807798E-01
    2.1384450469E-01    2.1158270960E-01    2.0934254116E-01    2.0712384736E-01
    2.0492647584E-01    2.0275027390E-01    2.0059508855E-01    1.9846076656E-01
    1.9634715452E-01    1.9425409886E-01    1.9218144591E-01    1.9012904192E-01
    1.8809673314E-01    1.8608436580E-01    1.8409178622E-01    1.8211884076E-01
    1.8016537594E-01    1.7823123841E-01    1.7631627502E-01    1.7442033284E-01
    1.7254325919E-01    1.7068490167E-01    1.6884510818E-01    1.6702372698E-01
    1.6522060666E-01    1.6343559624E-01    1.6166854512E-01    1.5991930317E-01
    1.5818772069E-01    1.5647364850E-01    1.5477693790E-01    1.5309744072E-01
    1.5143500937E-01    1.4978949677E-01    1.4816075649E-01    1.4654864265E-01
    1.4495301003E-01    1.4337371402E-01    1.4181061067E-01    1.4026355672E-01
    1.3873240956E-01    1.3721702729E-01    1.3571726874E-01    1.3423299343E-01
    1.3276406163E-01    1.3131033437E-01    1.2987167340E-01    1.2844794127E-01
    1.2703900130E-01    1.2564471760E-01    1.2426495505E-01    1.2289957937E-01
    1.2154845708E-01    1.2021145550E-01    1.1888844280E-01    1.1757928797E-01
    1.1628386084E-01    1.1500203210E-01    1.1373367327E-01    1.1247865674E-01
    1.1123685575E-01    1.1000814439E-01    1.0879239766E-01    1.0758949139E-01
    1.0639930230E-01    1.0522170799E-01    1.0405658692E-01    1.0290381847E-01
    1.0176328286E-01    1.0063486123E-01    9.9518435576E-02    9.8413888805E-02
    9.7321104700E-02    9.6239967935E-02    9.5170364073E-02    9.4112179564E-02
    9.3065301749E-02    9.2029618855E-02    9.1005019994E-02    8.9991395169E-02
    8.8988635263E-02    8.7996632047E-02    8.7015278172E-02    8.6044467168E-02
    8.5084093447E-02    8.4134052294E-02    8.3194239872E-02    8.2264553214E-02
    8.1344890220E-02    8.0435149662E-02    7.9535231170E-02    7.8645035241E-02
    7.7764463223E-02    7.6893417325E-02    7.6031800603E-02    7.5179516962E-02
    7.4336471151E-02    7.3502568760E-02    7.2677716214E-02    7.1861820774E-02
    7.1054790526E-02    7.0256534383E-02    6.9466962078E-02    6.8685984159E-02
    6.7913511989E-02    6.7149457736E-02    6.6393734371E-02    6.5646255664E-02
    6.4906936181E-02    6.4175691275E-02    6.3452437083E-02    6.2737090524E-02
    6.2029569290E-02    6.1329791845E-02    6.0637677418E-02    5.9953145995E-02
    5.9276118323E-02    5.8606515894E-02    5.7944260949E-02    5.7289276466E-02
    5.6641486160E-02    5.6000814477E-02    5.5367186584E-02    5.4740528371E-02
    5.4120766441E-02    5.3507828107E-02    5.2901641384E-02    5.2302134988E-02
    5.1709238327E-02    5.1122881497E-02    5.0542995278E-02    4.9969511128E-02
    4.9402361175E-02    4.8841478216E-02    4.8286795711E-02    4.7738247774E-02
    4.7195769171E-02    4.6659295315E-02    4.6128762259E-02    4.5604106693E-02
    4.5085265935E-02    4.4572177929E-02    4.4064781240E-02    4.3563015047E-02
    4.3066819138E-02    4.2576133905E-02    4.2090900341E-02    4.1611060031E-02
    4.1136555150E-02    4.0667328457E-02    4.0203323289E-02    3.9744483557E-02
    3.9290753740E-02    3.8842078881E-02    3.8398404582E-02    3.7959676999E-02
    3.7525842835E-02    3.7096849338E-02    3.6672644294E-02    3.6253176024E-02
    3.5838393377E-02    3.5428245727E-02    3.5022682967E-02    3.4621655506E-02
    3.4225114259E-02    3.3833010652E-02    3.3445296607E-02    3.3061924544E-02
    3.2682847373E-02    3.2308018493E-02    3.1937391782E-02    3.1570921597E-02
    3.1208562769E-02    3.0850270597E-02    3.0496000842E-02    3.0145709728E-02
    2.9799353933E-02    2.9456890584E-02    2.9118277259E-02    2.8783471973E-02
    2.8452433185E-02    2.8125119782E-02    2.7801491085E-02    2.7481506839E-02
    2.7165127210E-02    2.6852312781E-02    2.6543024551E-02    2.6237223924E-02
    2.5934872713E-02    2.5635933130E-02    2.5340367785E-02    2.5048139681E-02
    2.4759212211E-02    2.4473549153E-02    2.4191114668E-02    2.3911873295E-02
    2.3635789945E-02    2.3362829903E-02    2.3092958820E-02    2.2826142707E-02
    2.2562347940E-02    2.2301541248E-02    2.2043689712E-02    2.1788760763E-02
    2.1536722179E-02    2.1287542078E-02    2.1041188917E-02    2.0797631489E-02
    2.0556838917E-02    2.0318780656E-02    2.0083426482E-02    1.9850746497E-02
    1.9620711118E-02    1.9393291080E-02    1.9168457429E-02    1.8946181520E-02
    1.8726435015E-02    1.8509189879E-02    1.8294418375E-02    1.8082093063E-02
    1.7872186799E-02    1.7664672728E-02    1.7459524282E-02    1.7256715180E-02
    1.7056219420E-02    1.6858011282E-02    1.6662065320E-02    1.6468356362E-02
    1.6276859508E-02    1.6087550124E-02    1.5900403840E-02    1.5715396552E-02
    1.5532504412E-02    1.5351703831E-02    1.5172971473E-02    1.4996284254E-02
    1.4821619340E-02    1.4648954144E-02    1.4478266319E-02    1.4309533765E-02
    1.4142734617E-02    1.3977847248E-02    1.3814850264E-02    1.3653722504E-02
    1.3494443036E-02    1.3336991153E-02    1.3181346376E-02    1.3027488444E-02
    1.2875397319E-02    1.2725053179E-02    1.2576436419E-02    1.2429527643E-02
    1.2284307672E-02    1.2140757530E-02    1.1998858451E-02    1.1858591871E-02
    1.1719939430E-02    1.1582882967E-02    1.1447404520E-02    1.1313486322E-02
    1.1181110800E-02    1.1050260573E-02    1.0920918449E-02    1.0793067426E-02
    1.0666690686E-02    1.0541771596E-02    1.0418293703E-02    1.0296240737E-02
    1.0175596603E-02    1.0056345386E-02    9.9384713431E-03    9.8219589036E-03
    9.7067926689E-03    9.5929574091E-03    9.4804380612E-03    9.3692197280E-03
    9.2592876758E-03    9.1506273332E-03    9.0432242887E-03    8.9370642897E-03
    8.8321332404E-03    8.7284172002E-03    8.6259023822E-03    8.5245751514E-03
    8.4244220233E-03    8.3254296621E-03    8.2275848791E-03    8.1308746316E-03
    8.0352860206E-03    7.9408062898E-03    7.8474228240E-03    7.7551231476E-03
    7.6638949229E-03    7.5737259489E-03    7.4846041597E-03    7.3965176232E-03
    7.3094545394E-03    7.2234032393E-03    7.1383521834E-03    7.0542899601E-03
    6.9712052848E-03    6.8890869979E-03    6.8079240641E-03    6.7277055706E-03
    6.6484207263E-03    6.5700588599E-03    6.4926094188E-03    6.4160619682E-03
    6.3404061894E-03    6.2656318788E-03    6.1917289465E-03    6.1186874151E-03
    6.0464974187E-03    5.9751492013E-03    5.9046331162E-03    5.8349396242E-03
    5.7660592929E-03    5.6979827951E-03    5.6307009083E-03    5.5642045130E-03
    5.4984845918E-03    5.4335322284E-03    5.3693386063E-03    5.3058950077E-03
    5.2431928129E-03    5.1812234986E-03    5.1199786373E-03    5.0594498960E-03
    4.9996290353E-03    4.9405079085E-03    4.8820784603E-03    4.8243327260E-03
    4.7672628306E-03    4.7108609876E-03    4.6551194982E-03    4.6000307502E-03
    4.5455872173E-03    4.4917814579E-03    4.4386061144E-03    4.3860539121E-03
    4.3341176583E-03    4.2827902417E-03    4.2320646310E-03    4.1819338745E-03
    4.1323910991E-03    4.0834295093E-03    4.0350423863E-03    3.9872230874E-03
    3.9399650453E-03    3.8932617667E-03    3.8471068319E-03    3.8014938940E-03
    3.7564166780E-03    3.7118689800E-03    3.6678446665E-03    3.6243376735E-03
    3.5813420059E-03    3.5388517365E-03    3.4968610056E-03    3.4553640198E-03
    3.4143550519E-03    3.3738284394E-03    3.3337785846E-03    3.2941999530E-03
    3.2550870735E-03    3.2164345371E-03    3.1782369963E-03    3.1404891646E-03
    3.1031858158E-03    3.0663217831E-03    3.0298919588E-03    2.9938912933E-03
    2.9583147948E-03    2.9231575281E-03    2.8884146148E-03    2.8540812318E-03
    2.8201526115E-03    2.7866240403E-03    2.7534908590E-03    2.7207484614E-03
    2.6883922938E-03    2.6564178550E-03    2.6248206951E-03    2.5935964152E-03
    2.5627406667E-03    2.5322491508E-03    2.5021176182E-03    2.4723418681E-03
    2.4429177479E-03    2.4138411526E-03    2.3851080244E-03    2.3567143519E-03
    2.3286561701E-03    2.3009295590E-03    2.2735306442E-03    2.2464555954E-03
    2.2197006265E-03    2.1932619949E-03    2.1671360010E-03    2.1413189879E-03
    2.1158073406E-03    2.0905974858E-03    2.0656858914E-03    2.0410690659E-03
    2.0167435579E-03    1.9927059561E-03    1.9689528882E-03    1.9454810209E-03
    1.9222870594E-03    1.8993677469E-03    1.8767198642E-03    1.8543402290E-03
    1.8322256960E-03    1.8103731563E-03    1.7887795366E-03    1.7674417994E-03
    1.7463569422E-03    1.7255219971E-03    1.7049340308E-03    1.6845901436E-03
    1.6644874696E-03    1.6446231759E-03    1.6249944624E-03    1.6055985617E-03
    1.5864327381E-03    1.5674942878E-03    1.5487805381E-03    1.5302888476E-03
    1.5120166053E-03    1.4939612305E-03    1.4761201725E-03    1.4584909102E-03
    1.4410709517E-03    1.4238578340E-03    1.4068491227E-03    1.3900424118E-03
    1.3734353232E-03    1.3570255063E-03    1.3408106378E-03    1.3247884217E-03
    1.3089565884E-03    1.2933128949E-03    1.2778551240E-03    1.2625810846E-03
    1.2474886110E-03    1.2325755626E-03    1.2178398239E-03    1.2032793039E-03
    1.1888919360E-03    1.1746756776E-03    1.1606285102E-03    1.1467484383E-03
    1.1330334903E-03    1.1194817169E-03    1.1060911922E-03    1.0928600123E-03
    1.0797862957E-03    1.0668681828E-03    1.0541038358E-03    1.0414914382E-03
    1.0290291949E-03    1.0167153316E-03    1.0045480949E-03    9.9252575160E-04
    9.8064658909E-04    9.6890891459E-04    9.5731105514E-04    9.4585135738E-04
    9.3452818724E-04    9.2333992980E-04    9.1228498903E-04    9.0136178758E-04
    8.9056876654E-04    8.7990438529E-04    8.6936712122E-04    8.5895546956E-04
    8.4866794318E-04    8.3850307237E-04    8.2845940463E-04    8.1853550449E-04
    8.0872995332E-04    7.9904134912E-04    7.8946830631E-04    7.8000945560E-04
    7.7066344373E-04    7.6142893333E-04    7.5230460274E-04    7.4328914580E-04
    7.3438127168E-04    7.2557970471E-04    7.1688318422E-04    7.0829046431E-04
    6.9980031375E-04    6.9141151578E-04    6.8312286790E-04    6.7493318180E-04
    6.6684128308E-04    6.5884601120E-04    6.5094621925E-04    6.4314077379E-04
    6.3542855474E-04    6.2780845519E-04    6.2027938126E-04    6.1284025193E-04
    6.0548999892E-04    5.9822756653E-04    5.9105191147E-04    5.8396200276E-04
    5.7695682155E-04    5.7003536100E-04    5.6319662613E-04    5.5643963369E-04
    5.4976341201E-04    5.4316700088E-04    5.3664945140E-04    5.3020982589E-04
    5.2384719769E-04    5.1756065109E-04    5.1134928118E-04    5.0521219373E-04
    4.9914850505E-04    4.9315734190E-04    4.8723784133E-04    4.8138915057E-04
    4.7561042695E-04    4.6990083771E-04    4.6425955997E-04    4.5868578054E-04
    4.5317869583E-04    4.4773751178E-04    4.4236144367E-04    4.3704971609E-04
    4.3180156277E-04    4.2661622653E-04    4.2149295910E-04    4.1643102109E-04
    4.1142968185E-04    4.0648821936E-04    4.0160592015E-04    3.9678207918E-04
    3.9201599978E-04    3.8730699349E-04    3.8265438003E-04    3.7805748714E-04
    3.7351565054E-04    3.6902821382E-04    3.6459452832E-04    3.6021395309E-04
    3.5588585475E-04    3.5160960743E-04    3.4738459267E-04    3.4321019936E-04
    3.3908582360E-04    3.3501086866E-04    3.3098474490E-04    3.2700686965E-04
    3.2307666715E-04    3.1919356847E-04    3.1535701143E-04    3.1156644051E-04
    3.0782130678E-04    3.0412106784E-04    3.0046518770E-04    2.9685313674E-04
    2.9328439163E-04    2.8975843524E-04    2.8627475658E-04    2.8283285074E-04
    2.7943221879E-04    2.7607236773E-04    2.7275281041E-04    2.6947306546E-04
    2.6623265724E-04    2.6303111575E-04    2.5986797658E-04    2.5674278084E-04
    2.5365507508E-04    2.5060441125E-04    2.4759034662E-04    2.4461244372E-04
    2.4167027028E-04    2.3876339918E-04    2.3589140836E-04    2.3305388079E-04
    2.3025040441E-04    2.2748057204E-04    2.2474398134E-04    2.2204023478E-04
    2.1936893954E-04    2.1672970748E-04    2.1412215508E-04    2.1154590337E-04
    2.0900057792E-04    2.0648580872E-04    2.0400123019E-04    2.0154648110E-04
    1.9912120450E-04    1.9672504772E-04    1.9435766226E-04    1.9201870378E-04
    1.8970783206E-04    1.8742471091E-04    1.8516900815E-04    1.8294039555E-04
    1.8073854882E-04    1.7856314749E-04    1.7641387494E-04    1.7429041832E-04
    1.7219246849E-04    1.7011972002E-04    1.6807187110E-04    1.6604862353E-04
    1.6404968265E-04    1.6207475734E-04    1.6012355993E-04    1.5819580618E-04
    1.5629121524E-04    1.5440950963E-04    1.5255041516E-04    1.5071366091E-04
    1.4889897920E-04    1.4710610554E-04    1.4533477860E-04    1.4358474016E-04
    1.4185573509E-04    1.4014751130E-04    1.3845981970E-04    1.3679241420E-04
    1.3514505161E-04    1.3351749168E-04    1.3190949701E-04    1.3032083303E-04
    1.2875126798E-04    1.2720057287E-04    1.2566852142E-04    1.2415489009E-04
    1.2265945799E-04    1.2118200686E-04    1.1972232107E-04    1.1828018755E-04
    1.1685539577E-04    1.1544773773E-04    1.1405700791E-04    1.1268300324E-04
    1.1132552310E-04    1.0998436923E-04    1.0865934577E-04    1.0735025919E-04
    1.0605691827E-04    1.0477913409E-04    1.0351671997E-04    1.0226949147E-04
    1.0103726637E-04    9.9819864594E-05    9.8617108257E-05    9.7428821580E-05
    9.6254830892E-05    9.5094964598E-05    9.3949053156E-05    9.2816929053E-05
    9.1698426780E-05    9.0593382805E-05    8.9501635558E-05    8.8423025397E-05
    8.7357394594E-05    8.6304587306E-05    8.5264449557E-05    8.4236829212E-05
    8.3221575959E-05    8.2218541282E-05    8.1227578447E-05    8.0248542473E-05
    7.9281290116E-05    7.8325679847E-05    7.7381571832E-05    7.6448827910E-05
    7.5527311576E-05    7.4616887958E-05    7.3717423801E-05    7.2828787444E-05
    7.1950848805E-05    7.1083479358E-05    7.0226552119E-05    6.9379941622E-05
    6.8543523906E-05    6.7717176495E-05    6.6900778381E-05    6.6094210005E-05
    6.5297353239E-05    6.4510091374E-05    6.3732309096E-05    6.2963892477E-05
    6.2204728950E-05    6.1454707300E-05    6.0713717645E-05    5.9981651418E-05
    5.9258401356E-05    5.8543861479E-05    5.7837927081E-05    5.7140494708E-05
    5.6451462149E-05    5.5770728416E-05    5.5098193735E-05    5.4433759525E-05
    5.3777328389E-05    5.3128804099E-05    5.2488091579E-05    5.1855096894E-05
    5.1229727237E-05    5.0611890912E-05    5.0001497324E-05    4.9398456965E-05
    4.8802681401E-05    4.8214083257E-05    4.7632576210E-05    4.7058074968E-05
    4.6490495265E-05    4.5929753848E-05    4.5375768459E-05    4.4828457829E-05
    4.4287741665E-05    4.3753540636E-05    4.3225776364E-05    4.2704371412E-05
    4.2189249273E-05    4.1680334355E-05    4.1177551978E-05    4.0680828355E-05
    4.0190090586E-05    3.9705266647E-05    3.9226285377E-05    3.8753076470E-05
    3.8285570466E-05    3.7823698735E-05    3.7367393476E-05    3.6916587697E-05
    3.6471215216E-05    3.6031210640E-05    3.5596509366E-05    3.5167047564E-05
    3.4742762172E-05    3.4323590885E-05    3.3909472147E-05    3.3500345140E-05
    3.3096149779E-05    3.2696826697E-05    3.2302317243E-05    3.1912563471E-05
    3.1527508129E-05    3.1147094654E-05    3.0771267164E-05    3.0399970445E-05
    3.0033149949E-05    2.9670751784E-05    2.9312722703E-05    2.8959010101E-05
    2.8609562004E-05    2.8264327064E-05    2.7923254548E-05    2.7586294336E-05
    2.7253396906E-05    2.6924513334E-05    2.6599595285E-05    2.6278595003E-05
    2.5961465306E-05    2.5648159581E-05    2.5338631773E-05    2.5032836383E-05
    2.4730728457E-05    2.4432263583E-05    2.4137397881E-05    2.3846088002E-05
    2.3558291114E-05    2.3273964904E-05    2.2993067564E-05    2.2715557792E-05
    2.2441394781E-05    2.2170538216E-05    2.1902948264E-05    2.1638585573E-05
    2.1377411266E-05    2.1119386931E-05    2.0864474618E-05    2.0612636834E-05
   </PP_CHI.1>
   <PP_CHI.2
       type="real"
       size="1108"
       columns="4"
       index="2"
       occupation=" 3.333"
       pseudo_energy="   -0.5658438138E+00"
       label="4P"
       l="1" >
    3.5950973101E-13    5.8093723608E-05    2.3236566726E-04    5.2278814786E-04
    9.2931502283E-04    1.4518816835E-03    2.0904050443E-03    2.8447835274E-03
    3.7148970391E-03    4.7006069389E-03    5.8017559961E-03    7.0181683334E-03
    8.3496493544E-03    9.7959856502E-03    1.1356944885E-02    1.3032275655E-02
    1.4821707319E-02    1.6724949793E-02    1.8741693313E-02    2.0871608156E-02
    2.3114344321E-02    2.5469531156E-02    2.7936776947E-02    3.0515668450E-02
    3.3205770365E-02    3.6006624765E-02    3.8917750453E-02    4.1938642274E-02
    4.5068770355E-02    4.8307579293E-02    5.1654487275E-02    5.5108885148E-02
    5.8670135418E-02    6.2337571203E-02    6.6110495125E-02    6.9988178148E-02
    7.3969858379E-02    7.8054739806E-02    8.2241991015E-02    8.6530743857E-02
    9.0920092095E-02    9.5409090026E-02    9.9996751082E-02    1.0468204643E-01
    1.0946390355E-01    1.1434120487E-01    1.1931278632E-01    1.2437743605E-01
    1.2953389301E-01    1.3478084571E-01    1.4011693099E-01    1.4554073279E-01
    1.5105078105E-01    1.5664555069E-01    1.6232346064E-01    1.6808287297E-01
    1.7392209215E-01    1.7983936438E-01    1.8583287708E-01    1.9190075847E-01
    1.9804107730E-01    2.0425184272E-01    2.1053100429E-01    2.1687645211E-01
    2.2328601718E-01    2.2975747183E-01    2.3628853034E-01    2.4287684975E-01
    2.4952003082E-01    2.5621561909E-01    2.6296110622E-01    2.6975393137E-01
    2.7659148283E-01    2.8347109976E-01    2.9039007408E-01    2.9734565254E-01
    3.0433503890E-01    3.1135539623E-01    3.1840384944E-01    3.2547748777E-01
    3.3257336753E-01    3.3968851489E-01    3.4681992876E-01    3.5396458377E-01
    3.6111943330E-01    3.6828141262E-01    3.7544744206E-01    3.8261443019E-01
    3.8977927709E-01    3.9693887762E-01    4.0409012466E-01    4.1122991239E-01
    4.1835513960E-01    4.2546271284E-01    4.3254954970E-01    4.3961258192E-01
    4.4664875853E-01    4.5365504886E-01    4.6062844555E-01    4.6756596741E-01
    4.7446466226E-01    4.8132160962E-01    4.8813392336E-01    4.9489875417E-01
    5.0161329200E-01    5.0827476836E-01    5.1488045845E-01    5.2142768328E-01
    5.2791381159E-01    5.3433626166E-01    5.4069250303E-01    5.4698005811E-01
    5.5319650362E-01    5.5933947197E-01    5.6540665253E-01    5.7139579272E-01
    5.7730469910E-01    5.8313123833E-01    5.8887333798E-01    5.9452898733E-01
    6.0009623804E-01    6.0557320479E-01    6.1095806584E-01    6.1624906347E-01
    6.2144450447E-01    6.2654276051E-01    6.3154226849E-01    6.3644153085E-01
    6.4123911588E-01    6.4593365799E-01    6.5052385796E-01    6.5500848317E-01
    6.5938636786E-01    6.6365641338E-01    6.6781758839E-01    6.7186892916E-01
    6.7580953980E-01    6.7963859255E-01    6.8335532801E-01    6.8695905552E-01
    6.9044915336E-01    6.9382506917E-01    6.9708632018E-01    7.0023249363E-01
    7.0326324703E-01    7.0617830853E-01    7.0897747723E-01    7.1166062354E-01
    7.1422768941E-01    7.1667868867E-01    7.1901370724E-01    7.2123290338E-01
    7.2333650778E-01    7.2532482375E-01    7.2719822725E-01    7.2895716684E-01
    7.3060216359E-01    7.3213381095E-01    7.3355277437E-01    7.3485979101E-01
    7.3605566919E-01    7.3714128778E-01    7.3811759546E-01    7.3898560985E-01
    7.3974641648E-01    7.4040116761E-01    7.4095108094E-01    7.4139743813E-01
    7.4174158313E-01    7.4198492042E-01    7.4212891304E-01    7.4217508047E-01
    7.4212499630E-01    7.4198028583E-01    7.4174262341E-01    7.4141372969E-01
    7.4099536864E-01    7.4048934456E-01    7.3989749878E-01    7.3922170631E-01
    7.3846387241E-01    7.3762592893E-01    7.3670983062E-01    7.3571755137E-01
    7.3465108026E-01    7.3351241761E-01    7.3230357104E-01    7.3102655131E-01
    7.2968336831E-01    7.2827602694E-01    7.2680652300E-01    7.2527683916E-01
    7.2368894085E-01    7.2204477235E-01    7.2034625281E-01    7.1859527244E-01
    7.1679368877E-01    7.1494332301E-01    7.1304595660E-01    7.1110332782E-01
    7.0911712861E-01    7.0708900157E-01    7.0502053711E-01    7.0291327080E-01
    7.0076868097E-01    6.9858818650E-01    6.9637314487E-01    6.9412485036E-01
    6.9184453270E-01    6.8953335567E-01    6.8719241602E-01    6.8482274721E-01
    6.8242533387E-01    6.8000113675E-01    6.7755110213E-01    6.7507615910E-01
    6.7257721493E-01    6.7005515949E-01    6.6751086485E-01    6.6494518521E-01
    6.6235895741E-01    6.5975300115E-01    6.5712811925E-01    6.5448509794E-01
    6.5182470715E-01    6.4914770072E-01    6.4645481671E-01    6.4374677768E-01
    6.4102429088E-01    6.3828804858E-01    6.3553872829E-01    6.3277699300E-01
    6.3000349146E-01    6.2721885843E-01    6.2442371488E-01    6.2161866827E-01
    6.1880431277E-01    6.1598122950E-01    6.1314998678E-01    6.1031114032E-01
    6.0746523346E-01    6.0461279742E-01    6.0175435148E-01    5.9889040322E-01
    5.9602144871E-01    5.9314797276E-01    5.9027044907E-01    5.8738934050E-01
    5.8450509919E-01    5.8161816684E-01    5.7872897484E-01    5.7583794449E-01
    5.7294548718E-01    5.7005200460E-01    5.6715788885E-01    5.6426352272E-01
    5.6136927976E-01    5.5847552455E-01    5.5558261279E-01    5.5269089151E-01
    5.4980069924E-01    5.4691236612E-01    5.4402621411E-01    5.4114255714E-01
    5.3826170123E-01    5.3538394467E-01    5.3250957814E-01    5.2963888490E-01
    5.2677214087E-01    5.2390961481E-01    5.2105156847E-01    5.1819825669E-01
    5.1534992752E-01    5.1250682242E-01    5.0966917630E-01    5.0683721771E-01
    5.0401116892E-01    5.0119124609E-01    4.9837765932E-01    4.9557061283E-01
    4.9277030503E-01    4.8997692866E-01    4.8719067088E-01    4.8441171339E-01
    4.8164023253E-01    4.7887639939E-01    4.7612037990E-01    4.7337233496E-01
    4.7063242048E-01    4.6790078755E-01    4.6517758247E-01    4.6246294688E-01
    4.5975701786E-01    4.5705992798E-01    4.5437180542E-01    4.5169277405E-01
    4.4902295351E-01    4.4636245930E-01    4.4371140285E-01    4.4106989163E-01
    4.3843802920E-01    4.3581591528E-01    4.3320364587E-01    4.3060131329E-01
    4.2800900627E-01    4.2542681001E-01    4.2285480625E-01    4.2029307337E-01
    4.1774168643E-01    4.1520071725E-01    4.1267023445E-01    4.1015030358E-01
    4.0764098712E-01    4.0514234456E-01    4.0265443249E-01    4.0017730463E-01
    3.9771101191E-01    3.9525560252E-01    3.9281112197E-01    3.9037761313E-01
    3.8795511635E-01    3.8554366943E-01    3.8314330772E-01    3.8075406420E-01
    3.7837596946E-01    3.7600905184E-01    3.7365333739E-01    3.7130885000E-01
    3.6897561141E-01    3.6665364125E-01    3.6434295712E-01    3.6204357462E-01
    3.5975550738E-01    3.5747876714E-01    3.5521336377E-01    3.5295930533E-01
    3.5071659810E-01    3.4848524662E-01    3.4626525375E-01    3.4405662071E-01
    3.4185934708E-01    3.3967343092E-01    3.3749886872E-01    3.3533565550E-01
    3.3318378483E-01    3.3104324886E-01    3.2891403835E-01    3.2679614274E-01
    3.2468955016E-01    3.2259424746E-01    3.2051022025E-01    3.1843745296E-01
    3.1637592881E-01    3.1432562992E-01    3.1228653729E-01    3.1025863083E-01
    3.0824188944E-01    3.0623629097E-01    3.0424181231E-01    3.0225842938E-01
    3.0028611718E-01    2.9832484982E-01    2.9637460053E-01    2.9443534168E-01
    2.9250704485E-01    2.9058968081E-01    2.8868321957E-01    2.8678763040E-01
    2.8490288186E-01    2.8302894179E-01    2.8116577739E-01    2.7931335520E-01
    2.7747164114E-01    2.7564060051E-01    2.7382019807E-01    2.7201039798E-01
    2.7021116388E-01    2.6842245890E-01    2.6664424565E-01    2.6487648629E-01
    2.6311914249E-01    2.6137217550E-01    2.5963554614E-01    2.5790921483E-01
    2.5619314161E-01    2.5448728612E-01    2.5279160768E-01    2.5110606526E-01
    2.4943061751E-01    2.4776522277E-01    2.4610983909E-01    2.4446442426E-01
    2.4282893578E-01    2.4120333094E-01    2.3958756677E-01    2.3798160009E-01
    2.3638538751E-01    2.3479888545E-01    2.3322205015E-01    2.3165483769E-01
    2.3009720398E-01    2.2854910478E-01    2.2701049573E-01    2.2548133236E-01
    2.2396157006E-01    2.2245116412E-01    2.2095006977E-01    2.1945824214E-01
    2.1797563627E-01    2.1650220716E-01    2.1503790977E-01    2.1358269898E-01
    2.1213652966E-01    2.1069935665E-01    2.0927113477E-01    2.0785181882E-01
    2.0644136361E-01    2.0503972394E-01    2.0364685464E-01    2.0226271054E-01
    2.0088724652E-01    1.9952041745E-01    1.9816217829E-01    1.9681248400E-01
    1.9547128962E-01    1.9413855023E-01    1.9281422099E-01    1.9149825711E-01
    1.9019061387E-01    1.8889124664E-01    1.8760011088E-01    1.8631716212E-01
    1.8504235599E-01    1.8377564821E-01    1.8251699462E-01    1.8126635114E-01
    1.8002367382E-01    1.7878891880E-01    1.7756204236E-01    1.7634300090E-01
    1.7513175091E-01    1.7392824905E-01    1.7273245207E-01    1.7154431690E-01
    1.7036380055E-01    1.6919086022E-01    1.6802545322E-01    1.6686753700E-01
    1.6571706919E-01    1.6457400752E-01    1.6343830992E-01    1.6230993444E-01
    1.6118883929E-01    1.6007498284E-01    1.5896832363E-01    1.5786882034E-01
    1.5677643182E-01    1.5569111709E-01    1.5461283533E-01    1.5354154588E-01
    1.5247720825E-01    1.5141978212E-01    1.5036922735E-01    1.4932550395E-01
    1.4828857212E-01    1.4725839223E-01    1.4623492481E-01    1.4521813057E-01
    1.4420797042E-01    1.4320440540E-01    1.4220739676E-01    1.4121690592E-01
    1.4023289447E-01    1.3925532418E-01    1.3828415701E-01    1.3731935509E-01
    1.3636088071E-01    1.3540869638E-01    1.3446276475E-01    1.3352304867E-01
    1.3258951116E-01    1.3166211544E-01    1.3074082487E-01    1.2982560304E-01
    1.2891641367E-01    1.2801322070E-01    1.2711598822E-01    1.2622468051E-01
    1.2533926204E-01    1.2445969744E-01    1.2358595153E-01    1.2271798930E-01
    1.2185577594E-01    1.2099927678E-01    1.2014845735E-01    1.1930328337E-01
    1.1846372072E-01    1.1762973544E-01    1.1680129378E-01    1.1597836214E-01
    1.1516090712E-01    1.1434889545E-01    1.1354229408E-01    1.1274107012E-01
    1.1194519084E-01    1.1115462368E-01    1.1036933628E-01    1.0958929642E-01
    1.0881447208E-01    1.0804483137E-01    1.0728034261E-01    1.0652097427E-01
    1.0576669498E-01    1.0501747356E-01    1.0427327898E-01    1.0353408037E-01
    1.0279984705E-01    1.0207054848E-01    1.0134615431E-01    1.0062663432E-01
    9.9911958487E-02    9.9202096926E-02    9.8497019924E-02    9.7796697929E-02
    9.7101101545E-02    9.6410201539E-02    9.5723968836E-02    9.5042374518E-02
    9.4365389825E-02    9.3692986153E-02    9.3025135055E-02    9.2361808240E-02
    9.1702977569E-02    9.1048615058E-02    9.0398692878E-02    8.9753183349E-02
    8.9112058946E-02    8.8475292292E-02    8.7842856163E-02    8.7214723483E-02
    8.6590867325E-02    8.5971260911E-02    8.5355877611E-02    8.4744690939E-02
    8.4137674558E-02    8.3534802274E-02    8.2936048041E-02    8.2341385954E-02
    8.1750790253E-02    8.1164235320E-02    8.0581695678E-02    8.0003145992E-02
    7.9428561070E-02    7.8857915857E-02    7.8291185436E-02    7.7728345034E-02
    7.7169370010E-02    7.6614235863E-02    7.6062918229E-02    7.5515392880E-02
    7.4971635720E-02    7.4431622793E-02    7.3895330272E-02    7.3362734466E-02
    7.2833811817E-02    7.2308538896E-02    7.1786892409E-02    7.1268849191E-02
    7.0754386207E-02    7.0243480552E-02    6.9736109449E-02    6.9232250250E-02
    6.8731880435E-02    6.8234977611E-02    6.7741519510E-02    6.7251483991E-02
    6.6764849039E-02    6.6281592760E-02    6.5801693389E-02    6.5325129280E-02
    6.4851878913E-02    6.4381920888E-02    6.3915233928E-02    6.3451796877E-02
    6.2991588698E-02    6.2534588475E-02    6.2080775411E-02    6.1630128830E-02
    6.1182628169E-02    6.0738252988E-02    6.0296982962E-02    5.9858797880E-02
    5.9423677651E-02    5.8991602298E-02    5.8562551956E-02    5.8136506880E-02
    5.7713447432E-02    5.7293354094E-02    5.6876207455E-02    5.6461988219E-02
    5.6050677201E-02    5.5642255327E-02    5.5236703634E-02    5.4834003269E-02
    5.4434135487E-02    5.4037081654E-02    5.3642823243E-02    5.3251341836E-02
    5.2862619121E-02    5.2476636894E-02    5.2093377057E-02    5.1712821619E-02
    5.1334952693E-02    5.0959752496E-02    5.0587203353E-02    5.0217287688E-02
    4.9849988033E-02    4.9485287021E-02    4.9123167385E-02    4.8763611965E-02
    4.8406603697E-02    4.8052125622E-02    4.7700160881E-02    4.7350692711E-02
    4.7003704455E-02    4.6659179549E-02    4.6317101530E-02    4.5977454035E-02
    4.5640220796E-02    4.5305385642E-02    4.4972932501E-02    4.4642845394E-02
    4.4315108441E-02    4.3989705855E-02    4.3666621945E-02    4.3345841113E-02
    4.3027347858E-02    4.2711126767E-02    4.2397162526E-02    4.2085439910E-02
    4.1775943786E-02    4.1468659114E-02    4.1163570945E-02    4.0860664421E-02
    4.0559924772E-02    4.0261337320E-02    3.9964887478E-02    3.9670560743E-02
    3.9378342705E-02    3.9088219041E-02    3.8800175514E-02    3.8514197976E-02
    3.8230272366E-02    3.7948384707E-02    3.7668521111E-02    3.7390667773E-02
    3.7114810974E-02    3.6840937081E-02    3.6569032542E-02    3.6299083893E-02
    3.6031077749E-02    3.5765000812E-02    3.5500839863E-02    3.5238581768E-02
    3.4978213473E-02    3.4719722005E-02    3.4463094474E-02    3.4208318068E-02
    3.3955380057E-02    3.3704267789E-02    3.3454968693E-02    3.3207470275E-02
    3.2961760120E-02    3.2717825893E-02    3.2475655333E-02    3.2235236259E-02
    3.1996556565E-02    3.1759604225E-02    3.1524367283E-02    3.1290833865E-02
    3.1058992167E-02    3.0828830464E-02    3.0600337102E-02    3.0373500503E-02
    3.0148309162E-02    2.9924751648E-02    2.9702816602E-02    2.9482492738E-02
    2.9263768843E-02    2.9046633773E-02    2.8831076458E-02    2.8617085897E-02
    2.8404651162E-02    2.8193761393E-02    2.7984405801E-02    2.7776573666E-02
    2.7570254337E-02    2.7365437232E-02    2.7162111837E-02    2.6960267707E-02
    2.6759894462E-02    2.6560981792E-02    2.6363519453E-02    2.6167497267E-02
    2.5972905123E-02    2.5779732974E-02    2.5587970840E-02    2.5397608806E-02
    2.5208637022E-02    2.5021045700E-02    2.4834825118E-02    2.4649965617E-02
    2.4466457603E-02    2.4284291541E-02    2.4103457963E-02    2.3923947460E-02
    2.3745750685E-02    2.3568858355E-02    2.3393261245E-02    2.3218950194E-02
    2.3045916099E-02    2.2874149918E-02    2.2703642668E-02    2.2534385427E-02
    2.2366369330E-02    2.2199585574E-02    2.2034025411E-02    2.1869680152E-02
    2.1706541168E-02    2.1544599884E-02    2.1383847784E-02    2.1224276409E-02
    2.1065877356E-02    2.0908642278E-02    2.0752562883E-02    2.0597630936E-02
    2.0443838256E-02    2.0291176718E-02    2.0139638249E-02    1.9989214833E-02
    1.9839898507E-02    1.9691681360E-02    1.9544555537E-02    1.9398513233E-02
    1.9253546697E-02    1.9109648231E-02    1.8966810187E-02    1.8825024970E-02
    1.8684285037E-02    1.8544582895E-02    1.8405911102E-02    1.8268262265E-02
    1.8131629043E-02    1.7996004146E-02    1.7861380330E-02    1.7727750402E-02
    1.7595107219E-02    1.7463443685E-02    1.7332752754E-02    1.7203027425E-02
    1.7074260749E-02    1.6946445820E-02    1.6819575784E-02    1.6693643829E-02
    1.6568643193E-02    1.6444567159E-02    1.6321409056E-02    1.6199162260E-02
    1.6077820190E-02    1.5957376313E-02    1.5837824139E-02    1.5719157222E-02
    1.5601369164E-02    1.5484453607E-02    1.5368404239E-02    1.5253214791E-02
    1.5138879037E-02    1.5025390794E-02    1.4912743922E-02    1.4800932324E-02
    1.4689949945E-02    1.4579790770E-02    1.4470448828E-02    1.4361918189E-02
    1.4254192964E-02    1.4147267303E-02    1.4041135400E-02    1.3935791487E-02
    1.3831229837E-02    1.3727444762E-02    1.3624430614E-02    1.3522181786E-02
    1.3420692708E-02    1.3319957848E-02    1.3219971717E-02    1.3120728859E-02
    1.3022223860E-02    1.2924451342E-02    1.2827405965E-02    1.2731082427E-02
    1.2635475462E-02    1.2540579841E-02    1.2446390374E-02    1.2352901905E-02
    1.2260109315E-02    1.2168007519E-02    1.2076591472E-02    1.1985856161E-02
    1.1895796609E-02    1.1806407874E-02    1.1717685051E-02    1.1629623266E-02
    1.1542217682E-02    1.1455463495E-02    1.1369355935E-02    1.1283890266E-02
    1.1199061786E-02    1.1114865824E-02    1.1031297745E-02    1.0948352945E-02
    1.0866026853E-02    1.0784314930E-02    1.0703212671E-02    1.0622715600E-02
    1.0542819275E-02    1.0463519284E-02    1.0384811249E-02    1.0306690819E-02
    1.0229153678E-02    1.0152195539E-02    1.0075812144E-02    9.9999992677E-03
    9.9247527137E-03    9.8500683158E-03    9.7759419375E-03    9.7023694716E-03
    9.6293468405E-03    9.5568699955E-03    9.4849349170E-03    9.4135376139E-03
    9.3426741238E-03    9.2723405125E-03    9.2025328741E-03    9.1332473307E-03
    9.0644800318E-03    8.9962271550E-03    8.9284849049E-03    8.8612495136E-03
    8.7945172399E-03    8.7282843698E-03    8.6625472157E-03    8.5973021166E-03
    8.5325454378E-03    8.4682735707E-03    8.4044829328E-03    8.3411699670E-03
    8.2783311422E-03    8.2159629525E-03    8.1540619174E-03    8.0926245812E-03
    8.0316475135E-03    7.9711273083E-03    7.9110605843E-03    7.8514439846E-03
    7.7922741766E-03    7.7335478516E-03    7.6752617250E-03    7.6174125357E-03
    7.5599970465E-03    7.5030120432E-03    7.4464543352E-03    7.3903207549E-03
    7.3346081575E-03    7.2793134211E-03    7.2244334464E-03    7.1699651566E-03
    7.1159054970E-03    7.0622514354E-03    7.0089999614E-03    6.9561480862E-03
    6.9036928433E-03    6.8516312871E-03    6.7999604939E-03    6.7486775609E-03
    6.6977796066E-03    6.6472637704E-03    6.5971272125E-03    6.5473671137E-03
    6.4979806754E-03    6.4489651194E-03    6.4003176876E-03    6.3520356422E-03
    6.3041162652E-03    6.2565568584E-03    6.2093547433E-03    6.1625072610E-03
    6.1160117719E-03    6.0698656559E-03    6.0240663116E-03    5.9786111570E-03
    5.9334976288E-03    5.8887231824E-03    5.8442852918E-03    5.8001814496E-03
    5.7564091666E-03    5.7129659718E-03    5.6698494123E-03    5.6270570533E-03
    5.5845864777E-03    5.5424352859E-03    5.5006010964E-03    5.4590815445E-03
    5.4178742835E-03    5.3769769833E-03    5.3363873313E-03    5.2961030316E-03
    5.2561218054E-03    5.2164413903E-03    5.1770595409E-03    5.1379740280E-03
    5.0991826388E-03    5.0606831768E-03    5.0224734617E-03    4.9845513291E-03
    4.9469146307E-03    4.9095612337E-03    4.8724890213E-03    4.8356958920E-03
    4.7991797601E-03    4.7629385549E-03    4.7269702210E-03    4.6912727185E-03
    4.6558440220E-03    4.6206821214E-03    4.5857850212E-03    4.5511507408E-03
    4.5167773140E-03    4.4826627893E-03    4.4488052293E-03    4.4152027112E-03
    4.3818533263E-03    4.3487551798E-03    4.3159063912E-03    4.2833050935E-03
    4.2509494340E-03    4.2188375731E-03    4.1869676852E-03    4.1553379582E-03
    4.1239465930E-03    4.0927918042E-03    4.0618718195E-03    4.0311848796E-03
    4.0007292384E-03    3.9705031624E-03    3.9405049312E-03    3.9107328371E-03
    3.8811851850E-03    3.8518602924E-03    3.8227564891E-03    3.7938721174E-03
    3.7652055319E-03    3.7367550993E-03    3.7085191985E-03    3.6804962204E-03
    3.6526845677E-03    3.6250826552E-03    3.5976889092E-03    3.5705017677E-03
    3.5435196805E-03    3.5167411087E-03    3.4901645249E-03    3.4637884130E-03
    3.4376112682E-03    3.4116315969E-03    3.3858479164E-03    3.3602587553E-03
    3.3348626529E-03    3.3096581595E-03    3.2846438361E-03    3.2598182544E-03
    3.2351799967E-03    3.2107276560E-03    3.1864598354E-03    3.1623751488E-03
    3.1384722202E-03    3.1147496838E-03    3.0912061841E-03    3.0678403757E-03
    3.0446509229E-03    3.0216365003E-03    2.9987957923E-03    2.9761274930E-03
    2.9536303062E-03    2.9313029455E-03    2.9091441340E-03    2.8871526043E-03
    2.8653270984E-03    2.8436663679E-03    2.8221691734E-03    2.8008342849E-03
    2.7796604815E-03    2.7586465517E-03    2.7377912925E-03    2.7170935104E-03
    2.6965520204E-03    2.6761656467E-03    2.6559332219E-03    2.6358535875E-03
    2.6159255938E-03    2.5961480995E-03    2.5765199717E-03    2.5570400863E-03
    2.5377073272E-03    2.5185205870E-03    2.4994787664E-03    2.4805807743E-03
    2.4618255277E-03    2.4432119519E-03    2.4247389800E-03    2.4064055533E-03
    2.3882106207E-03    2.3701531393E-03    2.3522320738E-03    2.3344463967E-03
    2.3167950881E-03    2.2992771359E-03    2.2818915354E-03    2.2646372896E-03
    2.2475134087E-03    2.2305189106E-03    2.2136528203E-03    2.1969141702E-03
    2.1803020000E-03    2.1638153565E-03    2.1474532936E-03    2.1312148725E-03
    2.1150991613E-03    2.0991052349E-03    2.0832321754E-03    2.0674790716E-03
    2.0518450193E-03    2.0363291209E-03    2.0209304857E-03    2.0056482294E-03
    1.9904814746E-03    1.9754293503E-03    1.9604909923E-03    1.9456655424E-03
    1.9309521494E-03    1.9163499680E-03    1.9018581595E-03    1.8874758915E-03
    1.8732023377E-03    1.8590366781E-03    1.8449780988E-03    1.8310257920E-03
    1.8171789561E-03    1.8034367953E-03    1.7897985199E-03    1.7762633461E-03
    1.7628304961E-03    1.7494991977E-03    1.7362686847E-03    1.7231381965E-03
    1.7101069783E-03    1.6971742810E-03    1.6843393611E-03    1.6716014805E-03
    1.6589599071E-03    1.6464139138E-03    1.6339627791E-03    1.6216057872E-03
    1.6093422274E-03    1.5971713943E-03    1.5850925881E-03    1.5731051139E-03
    1.5612082822E-03    1.5494014088E-03    1.5376838144E-03    1.5260548249E-03
    1.5145137715E-03    1.5030599900E-03    1.4916928214E-03    1.4804116119E-03
    1.4692157122E-03    1.4581044781E-03    1.4470772702E-03    1.4361334539E-03
    1.4252723995E-03    1.4144934819E-03    1.4037960807E-03    1.3931795803E-03
    1.3826433695E-03    1.3721868418E-03    1.3618093955E-03    1.3515104331E-03
    1.3412893617E-03    1.3311455930E-03    1.3210785430E-03    1.3110876320E-03
    1.3011722848E-03    1.2913319306E-03    1.2815660027E-03    1.2718739389E-03
    1.2622551810E-03    1.2527091751E-03    1.2432353716E-03    1.2338332248E-03
   </PP_CHI.2>
   <PP_CHI.3
       type="real"
       size="1108"
       columns="4"
       index="3"
       occupation=" 1.667"
       pseudo_energy="   -0.6022823468E+00"
       label="4P"
       l="1" >
    3.8092706073E-13    6.3366002373E-05    2.5344928991E-04    5.7020570903E-04
    1.0135616889E-03    1.5834142685E-03    2.2796311334E-03    3.1020506605E-03
    4.0504819688E-03    5.1247049753E-03    6.3244704518E-03    7.6495000815E-03
    9.0994865120E-03    1.0674093401E-02    1.2372955451E-02    1.4195678433E-02
    1.6141839188E-02    1.8210985614E-02    2.0402636621E-02    2.2716282061E-02
    2.5151382629E-02    2.7707369723E-02    3.0383645267E-02    3.3179581496E-02
    3.6094520690E-02    3.9127774865E-02    4.2278625413E-02    4.5546322694E-02
    4.8930085571E-02    5.2429100895E-02    5.6042522935E-02    5.9769472755E-02
    6.3609037541E-02    6.7560269869E-02    7.1622186931E-02    7.5793769711E-02
    8.0073962116E-02    8.4461670062E-02    8.8955760536E-02    9.3555060607E-02
    9.8258356430E-02    1.0306439221E-01    1.0797186917E-01    1.1297944448E-01
    1.1808573023E-01    1.2328929237E-01    1.2858864967E-01    1.3398227274E-01
    1.3946858298E-01    1.4504595173E-01    1.5071269930E-01    1.5646709414E-01
    1.6230735211E-01    1.6823163571E-01    1.7423805351E-01    1.8032465958E-01
    1.8648945307E-01    1.9273037787E-01    1.9904532240E-01    2.0543211950E-01
    2.1188854645E-01    2.1841232512E-01    2.2500112230E-01    2.3165255008E-01
    2.3836416645E-01    2.4513347605E-01    2.5195793100E-01    2.5883493196E-01
    2.6576182931E-01    2.7273592447E-01    2.7975447140E-01    2.8681467824E-01
    2.9391370910E-01    3.0104868598E-01    3.0821669085E-01    3.1541476789E-01
    3.2263992578E-01    3.2988914023E-01    3.3715935650E-01    3.4444749217E-01
    3.5175043986E-01    3.5906507020E-01    3.6638823474E-01    3.7371676906E-01
    3.8104749582E-01    3.8837722799E-01    3.9570277203E-01    4.0302093112E-01
    4.1032850845E-01    4.1762231050E-01    4.2489915027E-01    4.3215585059E-01
    4.3938924734E-01    4.4659619263E-01    4.5377355799E-01    4.6091823750E-01
    4.6802715075E-01    4.7509724593E-01    4.8212550261E-01    4.8910893463E-01
    4.9604459277E-01    5.0292956737E-01    5.0976099082E-01    5.1653603997E-01
    5.2325193839E-01    5.2990595854E-01    5.3649542379E-01    5.4301771031E-01
    5.4947024890E-01    5.5585052661E-01    5.6215608831E-01    5.6838453806E-01
    5.7453354041E-01    5.8060082163E-01    5.8658417069E-01    5.9248144023E-01
    5.9829054746E-01    6.0400947483E-01    6.0963627069E-01    6.1516904990E-01
    6.2060599425E-01    6.2594535290E-01    6.3118544267E-01    6.3632464836E-01
    6.4136142295E-01    6.4629428776E-01    6.5112183258E-01    6.5584271580E-01
    6.6045566442E-01    6.6495947416E-01    6.6935300947E-01    6.7363520357E-01
    6.7780505843E-01    6.8186164486E-01    6.8580410250E-01    6.8963163988E-01
    6.9334353445E-01    6.9693913265E-01    7.0041785002E-01    7.0377917125E-01
    7.0702265031E-01    7.1014791060E-01    7.1315464503E-01    7.1604261625E-01
    7.1881165672E-01    7.2146166894E-01    7.2399262557E-01    7.2640456960E-01
    7.2869761449E-01    7.3087194429E-01    7.3292781376E-01    7.3486554841E-01
    7.3668554454E-01    7.3838826923E-01    7.3997426026E-01    7.4144412597E-01
    7.4279854503E-01    7.4403826618E-01    7.4516410784E-01    7.4617695760E-01
    7.4707777166E-01    7.4786757412E-01    7.4854745616E-01    7.4911857507E-01
    7.4958215319E-01    7.4993947666E-01    7.5019189404E-01    7.5034081482E-01
    7.5038770768E-01    7.5033409871E-01    7.5018156937E-01    7.4993175435E-01
    7.4958633927E-01    7.4914705815E-01    7.4861569082E-01    7.4799406012E-01
    7.4728402896E-01    7.4648749722E-01    7.4560639854E-01    7.4464269698E-01
    7.4359838353E-01    7.4247547249E-01    7.4127599783E-01    7.4000200937E-01
    7.3865556892E-01    7.3723874634E-01    7.3575361555E-01    7.3420225050E-01
    7.3258672115E-01    7.3090908932E-01    7.2917140472E-01    7.2737570084E-01
    7.2552399100E-01    7.2361826433E-01    7.2166048197E-01    7.1965257320E-01
    7.1759643176E-01    7.1549391227E-01    7.1334682680E-01    7.1115694151E-01
    7.0892597354E-01    7.0665558801E-01    7.0434739523E-01    7.0200294806E-01
    6.9962373957E-01    6.9721120086E-01    6.9476669912E-01    6.9229153593E-01
    6.8978694586E-01    6.8725409513E-01    6.8469408059E-01    6.8210793382E-01
    6.7949663669E-01    6.7686114645E-01    6.7420240428E-01    6.7152133283E-01
    6.6881883317E-01    6.6609578810E-01    6.6335306198E-01    6.6059150083E-01
    6.5781193276E-01    6.5501516825E-01    6.5220200039E-01    6.4937320526E-01
    6.4652954214E-01    6.4367175384E-01    6.4080056698E-01    6.3791669225E-01
    6.3502082471E-01    6.3211364404E-01    6.2919581485E-01    6.2626798691E-01
    6.2333079542E-01    6.2038486131E-01    6.1743079143E-01    6.1446917886E-01
    6.1150060316E-01    6.0852563058E-01    6.0554481434E-01    6.0255869483E-01
    5.9956779992E-01    5.9657264510E-01    5.9357373379E-01    5.9057155752E-01
    5.8756659618E-01    5.8455931820E-01    5.8155018083E-01    5.7853963028E-01
    5.7552810199E-01    5.7251602081E-01    5.6950380119E-01    5.6649184740E-01
    5.6348055371E-01    5.6047030461E-01    5.5746147496E-01    5.5445443020E-01
    5.5144952652E-01    5.4844711107E-01    5.4544752208E-01    5.4245108910E-01
    5.3945813310E-01    5.3646896670E-01    5.3348389429E-01    5.3050321221E-01
    5.2752720891E-01    5.2455616510E-01    5.2159035388E-01    5.1863004094E-01
    5.1567548465E-01    5.1272693627E-01    5.0978464000E-01    5.0684883322E-01
    5.0391974654E-01    5.0099760400E-01    4.9808262314E-01    4.9517501519E-01
    4.9227498514E-01    4.8938273192E-01    4.8649844845E-01    4.8362232184E-01
    4.8075453345E-01    4.7789525901E-01    4.7504466876E-01    4.7220292754E-01
    4.6937019490E-01    4.6654662523E-01    4.6373236781E-01    4.6092756697E-01
    4.5813236216E-01    4.5534688807E-01    4.5257127468E-01    4.4980564743E-01
    4.4705012723E-01    4.4430483063E-01    4.4156986985E-01    4.3884535290E-01
    4.3613138365E-01    4.3342806195E-01    4.3073548365E-01    4.2805374075E-01
    4.2538292144E-01    4.2272311018E-01    4.2007438781E-01    4.1743683157E-01
    4.1481051525E-01    4.1219550920E-01    4.0959188042E-01    4.0699969265E-01
    4.0441900643E-01    4.0184987916E-01    3.9929236516E-01    3.9674651577E-01
    3.9421237938E-01    3.9169000153E-01    3.8917942494E-01    3.8668068957E-01
    3.8419383271E-01    3.8171888904E-01    3.7925589064E-01    3.7680486711E-01
    3.7436584559E-01    3.7193885081E-01    3.6952390519E-01    3.6712102884E-01
    3.6473023964E-01    3.6235155329E-01    3.5998498337E-01    3.5763054137E-01
    3.5528823675E-01    3.5295807699E-01    3.5064006765E-01    3.4833421238E-01
    3.4604051301E-01    3.4375896956E-01    3.4148958032E-01    3.3923234185E-01
    3.3698724907E-01    3.3475429527E-01    3.3253347215E-01    3.3032476990E-01
    3.2812817718E-01    3.2594368123E-01    3.2377126783E-01    3.2161092141E-01
    3.1946262505E-01    3.1732636051E-01    3.1520210829E-01    3.1308984767E-01
    3.1098955670E-01    3.0890121229E-01    3.0682479021E-01    3.0476026511E-01
    3.0270761062E-01    3.0066679929E-01    2.9863780268E-01    2.9662059140E-01
    2.9461513509E-01    2.9262140249E-01    2.9063936144E-01    2.8866897894E-01
    2.8671022116E-01    2.8476305347E-01    2.8282744045E-01    2.8090334596E-01
    2.7899073310E-01    2.7708956432E-01    2.7519980135E-01    2.7332140530E-01
    2.7145433666E-01    2.6959855530E-01    2.6775402051E-01    2.6592069105E-01
    2.6409852512E-01    2.6228748041E-01    2.6048751414E-01    2.5869858302E-01
    2.5692064334E-01    2.5515365095E-01    2.5339756128E-01    2.5165232936E-01
    2.4991790987E-01    2.4819425710E-01    2.4648132501E-01    2.4477906725E-01
    2.4308743716E-01    2.4140638776E-01    2.3973587183E-01    2.3807584187E-01
    2.3642625015E-01    2.3478704871E-01    2.3315818934E-01    2.3153962369E-01
    2.2993130317E-01    2.2833317905E-01    2.2674520242E-01    2.2516732422E-01
    2.2359949528E-01    2.2204166628E-01    2.2049378779E-01    2.1895581031E-01
    2.1742768421E-01    2.1590935981E-01    2.1440078736E-01    2.1290191703E-01
    2.1141269898E-01    2.0993308330E-01    2.0846302007E-01    2.0700245935E-01
    2.0555135118E-01    2.0410964561E-01    2.0267729269E-01    2.0125424251E-01
    1.9984044514E-01    1.9843585071E-01    1.9704040940E-01    1.9565407140E-01
    1.9427678699E-01    1.9290850649E-01    1.9154918029E-01    1.9019875886E-01
    1.8885719273E-01    1.8752443254E-01    1.8620042901E-01    1.8488513295E-01
    1.8357849529E-01    1.8228046705E-01    1.8099099937E-01    1.7971004350E-01
    1.7843755083E-01    1.7717347286E-01    1.7591776122E-01    1.7467036770E-01
    1.7343124418E-01    1.7220034274E-01    1.7097761556E-01    1.6976301501E-01
    1.6855649358E-01    1.6735800393E-01    1.6616749889E-01    1.6498493143E-01
    1.6381025472E-01    1.6264342207E-01    1.6148438697E-01    1.6033310309E-01
    1.5918952426E-01    1.5805360452E-01    1.5692529805E-01    1.5580455926E-01
    1.5469134270E-01    1.5358560313E-01    1.5248729550E-01    1.5139637495E-01
    1.5031279680E-01    1.4923651657E-01    1.4816748999E-01    1.4710567295E-01
    1.4605102159E-01    1.4500349219E-01    1.4396304127E-01    1.4292962554E-01
    1.4190320190E-01    1.4088372747E-01    1.3987115957E-01    1.3886545571E-01
    1.3786657362E-01    1.3687447122E-01    1.3588910664E-01    1.3491043823E-01
    1.3393842453E-01    1.3297302430E-01    1.3201419649E-01    1.3106190026E-01
    1.3011609500E-01    1.2917674028E-01    1.2824379588E-01    1.2731722181E-01
    1.2639697826E-01    1.2548302565E-01    1.2457532459E-01    1.2367383591E-01
    1.2277852063E-01    1.2188934000E-01    1.2100625545E-01    1.2012922864E-01
    1.1925822143E-01    1.1839319587E-01    1.1753411422E-01    1.1668093897E-01
    1.1583363279E-01    1.1499215854E-01    1.1415647932E-01    1.1332655842E-01
    1.1250235930E-01    1.1168384567E-01    1.1087098142E-01    1.1006373062E-01
    1.0926205758E-01    1.0846592678E-01    1.0767530290E-01    1.0689015084E-01
    1.0611043567E-01    1.0533612267E-01    1.0456717732E-01    1.0380356528E-01
    1.0304525241E-01    1.0229220478E-01    1.0154438864E-01    1.0080177041E-01
    1.0006431674E-01    9.9331994453E-02    9.8604770553E-02    9.7882612244E-02
    9.7165486914E-02    9.6453362140E-02    9.5746205683E-02    9.5043985491E-02
    9.4346669696E-02    9.3654226613E-02    9.2966624740E-02    9.2283832759E-02
    9.1605819531E-02    9.0932554098E-02    9.0264005681E-02    8.9600143681E-02
    8.8940937675E-02    8.8286357418E-02    8.7636372841E-02    8.6990954048E-02
    8.6350071321E-02    8.5713695111E-02    8.5081796046E-02    8.4454344921E-02
    8.3831312707E-02    8.3212670540E-02    8.2598389727E-02    8.1988441745E-02
    8.1382798234E-02    8.0781431006E-02    8.0184312033E-02    7.9591413455E-02
    7.9002707576E-02    7.8418166862E-02    7.7837763940E-02    7.7261471601E-02
    7.6689262796E-02    7.6121110632E-02    7.5556988380E-02    7.4996869466E-02
    7.4440727473E-02    7.3888536142E-02    7.3340269368E-02    7.2795901201E-02
    7.2255405846E-02    7.1718757658E-02    7.1185931148E-02    7.0656900977E-02
    7.0131641954E-02    6.9610129043E-02    6.9092337352E-02    6.8578242140E-02
    6.8067818812E-02    6.7561042923E-02    6.7057890169E-02    6.6558336394E-02
    6.6062357586E-02    6.5569929876E-02    6.5081029539E-02    6.4595632991E-02
    6.4113716790E-02    6.3635257633E-02    6.3160232358E-02    6.2688617944E-02
    6.2220391504E-02    6.1755530292E-02    6.1294011698E-02    6.0835813247E-02
    6.0380912602E-02    5.9929287559E-02    5.9480916046E-02    5.9035776129E-02
    5.8593846003E-02    5.8155103996E-02    5.7719528567E-02    5.7287098305E-02
    5.6857791931E-02    5.6431588292E-02    5.6008466367E-02    5.5588405259E-02
    5.5171384201E-02    5.4757382550E-02    5.4346379792E-02    5.3938355535E-02
    5.3533289513E-02    5.3131161583E-02    5.2731951727E-02    5.2335640047E-02
    5.1942206768E-02    5.1551632236E-02    5.1163896919E-02    5.0778981402E-02
    5.0396866393E-02    5.0017532714E-02    4.9640961311E-02    4.9267133241E-02
    4.8896029684E-02    4.8527631931E-02    4.8161921392E-02    4.7798879590E-02
    4.7438488165E-02    4.7080728867E-02    4.6725583562E-02    4.6373034228E-02
    4.6023062954E-02    4.5675651943E-02    4.5330783505E-02    4.4988440064E-02
    4.4648604151E-02    4.4311258406E-02    4.3976385581E-02    4.3643968532E-02
    4.3313990224E-02    4.2986433729E-02    4.2661282225E-02    4.2338518995E-02
    4.2018127427E-02    4.1700091016E-02    4.1384393359E-02    4.1071018156E-02
    4.0759949210E-02    4.0451170428E-02    4.0144665818E-02    3.9840419489E-02
    3.9538415650E-02    3.9238638611E-02    3.8941072783E-02    3.8645702673E-02
    3.8352512890E-02    3.8061488139E-02    3.7772613222E-02    3.7485873040E-02
    3.7201252590E-02    3.6918736964E-02    3.6638311350E-02    3.6359961031E-02
    3.6083671384E-02    3.5809427882E-02    3.5537216088E-02    3.5267021660E-02
    3.4998830349E-02    3.4732627996E-02    3.4468400536E-02    3.4206133992E-02
    3.3945814479E-02    3.3687428203E-02    3.3430961457E-02    3.3176400624E-02
    3.2923732176E-02    3.2672942674E-02    3.2424018763E-02    3.2176947178E-02
    3.1931714741E-02    3.1688308356E-02    3.1446715018E-02    3.1206921803E-02
    3.0968915874E-02    3.0732684476E-02    3.0498214940E-02    3.0265494680E-02
    3.0034511190E-02    2.9805252049E-02    2.9577704918E-02    2.9351857539E-02
    2.9127697733E-02    2.8905213403E-02    2.8684392533E-02    2.8465223186E-02
    2.8247693503E-02    2.8031791704E-02    2.7817506088E-02    2.7604825032E-02
    2.7393736990E-02    2.7184230492E-02    2.6976294145E-02    2.6769916633E-02
    2.6565086715E-02    2.6361793225E-02    2.6160025071E-02    2.5959771236E-02
    2.5761020778E-02    2.5563762827E-02    2.5367986587E-02    2.5173681333E-02
    2.4980836414E-02    2.4789441249E-02    2.4599485331E-02    2.4410958222E-02
    2.4223849553E-02    2.4038149030E-02    2.3853846423E-02    2.3670931575E-02
    2.3489394397E-02    2.3309224868E-02    2.3130413036E-02    2.2952949015E-02
    2.2776822989E-02    2.2602025205E-02    2.2428545981E-02    2.2256375697E-02
    2.2085504801E-02    2.1915923807E-02    2.1747623290E-02    2.1580593895E-02
    2.1414826327E-02    2.1250311356E-02    2.1087039816E-02    2.0925002603E-02
    2.0764190677E-02    2.0604595057E-02    2.0446206829E-02    2.0289017135E-02
    2.0133017183E-02    1.9978198238E-02    1.9824551627E-02    1.9672068737E-02
    1.9520741014E-02    1.9370559964E-02    1.9221517152E-02    1.9073604201E-02
    1.8926812791E-02    1.8781134663E-02    1.8636561612E-02    1.8493085492E-02
    1.8350698214E-02    1.8209391745E-02    1.8069158107E-02    1.7929989379E-02
    1.7791877695E-02    1.7654815244E-02    1.7518794269E-02    1.7383807068E-02
    1.7249845994E-02    1.7116903452E-02    1.6984971901E-02    1.6854043852E-02
    1.6724111870E-02    1.6595168572E-02    1.6467206627E-02    1.6340218756E-02
    1.6214197729E-02    1.6089136370E-02    1.5965027552E-02    1.5841864198E-02
    1.5719639284E-02    1.5598345832E-02    1.5477976915E-02    1.5358525655E-02
    1.5239985223E-02    1.5122348838E-02    1.5005609767E-02    1.4889761327E-02
    1.4774796878E-02    1.4660709832E-02    1.4547493645E-02    1.4435141820E-02
    1.4323647907E-02    1.4213005503E-02    1.4103208247E-02    1.3994249828E-02
    1.3886123977E-02    1.3778824471E-02    1.3672345132E-02    1.3566679824E-02
    1.3461822457E-02    1.3357766984E-02    1.3254507403E-02    1.3152037751E-02
    1.3050352113E-02    1.2949444612E-02    1.2849309417E-02    1.2749940735E-02
    1.2651332818E-02    1.2553479958E-02    1.2456376489E-02    1.2360016784E-02
    1.2264395258E-02    1.2169506367E-02    1.2075344606E-02    1.1981904509E-02
    1.1889180651E-02    1.1797167646E-02    1.1705860146E-02    1.1615252843E-02
    1.1525340467E-02    1.1436117786E-02    1.1347579606E-02    1.1259720771E-02
    1.1172536162E-02    1.1086020697E-02    1.1000169332E-02    1.0914977060E-02
    1.0830438908E-02    1.0746549941E-02    1.0663305260E-02    1.0580700001E-02
    1.0498729336E-02    1.0417388473E-02    1.0336672653E-02    1.0256577154E-02
    1.0177097285E-02    1.0098228395E-02    1.0019965860E-02    9.9423050968E-03
    9.8652415505E-03    9.7887707020E-03    9.7128880650E-03    9.6375891857E-03
    9.5628696434E-03    9.4887250496E-03    9.4151510480E-03    9.3421433144E-03
    9.2696975564E-03    9.1978095130E-03    9.1264749548E-03    9.0556896833E-03
    8.9854495310E-03    8.9157503610E-03    8.8465880670E-03    8.7779585730E-03
    8.7098578329E-03    8.6422818307E-03    8.5752265797E-03    8.5086881229E-03
    8.4426625324E-03    8.3771459095E-03    8.3121343842E-03    8.2476241151E-03
    8.1836112893E-03    8.1200921220E-03    8.0570628566E-03    7.9945197642E-03
    7.9324591436E-03    7.8708773211E-03    7.8097706501E-03    7.7491355111E-03
    7.6889683116E-03    7.6292654857E-03    7.5700234938E-03    7.5112388230E-03
    7.4529079861E-03    7.3950275221E-03    7.3375939957E-03    7.2806039972E-03
    7.2240541421E-03    7.1679410714E-03    7.1122614508E-03    7.0570119711E-03
    7.0021893476E-03    6.9477903204E-03    6.8938116536E-03    6.8402501355E-03
    6.7871025785E-03    6.7343658188E-03    6.6820367162E-03    6.6301121540E-03
    6.5785890386E-03    6.5274642998E-03    6.4767348904E-03    6.4263977857E-03
    6.3764499839E-03    6.3268885057E-03    6.2777103939E-03    6.2289127136E-03
    6.1804925519E-03    6.1324470178E-03    6.0847732419E-03    6.0374683763E-03
    5.9905295945E-03    5.9439540913E-03    5.8977390825E-03    5.8518818049E-03
    5.8063795159E-03    5.7612294936E-03    5.7164290366E-03    5.6719754638E-03
    5.6278661143E-03    5.5840983472E-03    5.5406695414E-03    5.4975770956E-03
    5.4548184282E-03    5.4123909769E-03    5.3702921987E-03    5.3285195700E-03
    5.2870705860E-03    5.2459427607E-03    5.2051336273E-03    5.1646407371E-03
    5.1244616602E-03    5.0845939850E-03    5.0450353180E-03    5.0057832840E-03
    4.9668355254E-03    4.9281897029E-03    4.8898434944E-03    4.8517945957E-03
    4.8140407198E-03    4.7765795973E-03    4.7394089756E-03    4.7025266195E-03
    4.6659303105E-03    4.6296178469E-03    4.5935870439E-03    4.5578357331E-03
    4.5223617624E-03    4.4871629964E-03    4.4522373154E-03    4.4175826162E-03
    4.3831968113E-03    4.3490778292E-03    4.3152236140E-03    4.2816321255E-03
    4.2483013389E-03    4.2152292450E-03    4.1824138495E-03    4.1498531735E-03
    4.1175452531E-03    4.0854881394E-03    4.0536798982E-03    4.0221186100E-03
    3.9908023701E-03    3.9597292879E-03    3.9288974877E-03    3.8983051076E-03
    3.8679503002E-03    3.8378312320E-03    3.8079460836E-03    3.7782930493E-03
    3.7488703372E-03    3.7196761693E-03    3.6907087807E-03    3.6619664203E-03
    3.6334473504E-03    3.6051498462E-03    3.5770721963E-03    3.5492127025E-03
    3.5215696792E-03    3.4941414539E-03    3.4669263669E-03    3.4399227710E-03
    3.4131290317E-03    3.3865435270E-03    3.3601646472E-03    3.3339907950E-03
    3.3080203852E-03    3.2822518449E-03    3.2566836129E-03    3.2313141404E-03
    3.2061418899E-03    3.1811653362E-03    3.1563829654E-03    3.1317932753E-03
    3.1073947752E-03    3.0831859859E-03    3.0591654393E-03    3.0353316788E-03
    3.0116832587E-03    2.9882187446E-03    2.9649367129E-03    2.9418357512E-03
    2.9189144575E-03    2.8961714409E-03    2.8736053210E-03    2.8512147280E-03
    2.8289983027E-03    2.8069546962E-03    2.7850825699E-03    2.7633805957E-03
    2.7418474555E-03    2.7204818414E-03    2.6992824554E-03    2.6782480097E-03
    2.6573772262E-03    2.6366688367E-03    2.6161215826E-03    2.5957342152E-03
    2.5755054952E-03    2.5554341930E-03    2.5355190882E-03    2.5157589701E-03
    2.4961526369E-03    2.4766988964E-03    2.4573965654E-03    2.4382444698E-03
    2.4192414446E-03    2.4003863337E-03    2.3816779899E-03    2.3631152748E-03
    2.3446970589E-03    2.3264222212E-03    2.3082896495E-03    2.2902982400E-03
    2.2724468974E-03    2.2547345350E-03    2.2371600744E-03    2.2197224455E-03
    2.2024205862E-03    2.1852534431E-03    2.1682199704E-03    2.1513191307E-03
    2.1345498943E-03    2.1179112398E-03    2.1014021534E-03    2.0850216292E-03
    2.0687686690E-03    2.0526422824E-03    2.0366414865E-03    2.0207653061E-03
    2.0050127735E-03    1.9893829284E-03    1.9738748180E-03    1.9584874969E-03
    1.9432200266E-03    1.9280714764E-03    1.9130409225E-03    1.8981274482E-03
    1.8833301438E-03    1.8686481070E-03    1.8540804421E-03    1.8396262604E-03
    1.8252846802E-03    1.8110548264E-03    1.7969358308E-03    1.7829268320E-03
    1.7690269749E-03    1.7552354114E-03    1.7415512998E-03    1.7279738048E-03
    1.7145020977E-03    1.7011353562E-03    1.6878727642E-03    1.6747135122E-03
    1.6616567966E-03    1.6487018202E-03    1.6358477921E-03    1.6230939273E-03
    1.6104394469E-03    1.5978835781E-03    1.5854255541E-03    1.5730646139E-03
    1.5608000026E-03    1.5486309708E-03    1.5365567753E-03    1.5245766784E-03
    1.5126899482E-03    1.5008958584E-03    1.4891936883E-03    1.4775827230E-03
    1.4660622528E-03    1.4546315737E-03    1.4432899872E-03    1.4320368001E-03
    1.4208713246E-03    1.4097928782E-03    1.3988007837E-03    1.3878943691E-03
    1.3770729678E-03    1.3663359182E-03    1.3556825638E-03    1.3451122533E-03
    1.3346243403E-03    1.3242181836E-03    1.3138931467E-03    1.3036485984E-03
    1.2934839121E-03    1.2833984662E-03    1.2733916437E-03    1.2634628328E-03
    1.2536114260E-03    1.2438368209E-03    1.2341384194E-03    1.2245156283E-03
    1.2149678589E-03    1.2054945270E-03    1.1960950532E-03    1.1867688624E-03
    1.1775153838E-03    1.1683340513E-03    1.1592243031E-03    1.1501855818E-03
    1.1412173341E-03    1.1323190114E-03    1.1234900690E-03    1.1147299666E-03
    1.1060381681E-03    1.0974141413E-03    1.0888573586E-03    1.0803672962E-03
    1.0719434342E-03    1.0635852572E-03    1.0552922534E-03    1.0470639151E-03
    1.0388997387E-03    1.0307992243E-03    1.0227618759E-03    1.0147872014E-03
    1.0068747127E-03    9.9902392515E-04    9.9123435810E-04    9.8350553457E-04
   </PP_CHI.3>
 </PP_PSWFC>
 <PP_NLCC type="real"  size="1108" columns="4">
    1.3789231379E+00    1.3786973132E+00    1.3780200468E+00    1.3768919618E+00
    1.3753140956E+00    1.3732878984E+00    1.3708152313E+00    1.3678983636E+00
    1.3645399691E+00    1.3607431229E+00    1.3565112967E+00    1.3518483537E+00
    1.3467585433E+00    1.3412464949E+00    1.3353172115E+00    1.3289760621E+00
    1.3222287748E+00    1.3150814281E+00    1.3075404425E+00    1.2996125715E+00
    1.2913048920E+00    1.2826247947E+00    1.2735799732E+00    1.2641784139E+00
    1.2544283846E+00    1.2443384228E+00    1.2339173248E+00    1.2231741325E+00
    1.2121181223E+00    1.2007587912E+00    1.1891058451E+00    1.1771691850E+00
    1.1649588940E+00    1.1524852240E+00    1.1397585819E+00    1.1267895161E+00
    1.1135887024E+00    1.1001669306E+00    1.0865350904E+00    1.0727041571E+00
    1.0586851784E+00    1.0444892598E+00    1.0301275510E+00    1.0156112322E+00
    1.0009515003E+00    9.8615955519E-01    9.7124658637E-01    9.5622375968E-01
    9.4110220411E-01    9.2589299888E-01    9.1060716071E-01    8.9525563135E-01
    8.7984926532E-01    8.6439881800E-01    8.4891493390E-01    8.3340813537E-01
    8.1788881150E-01    8.0236720746E-01    7.8685341413E-01    7.7135735808E-01
    7.5588879205E-01    7.4045728562E-01    7.2507221647E-01    7.0974276192E-01
    6.9447789094E-01    6.7928635657E-01    6.6417668881E-01    6.4915718789E-01
    6.3423591800E-01    6.1942070151E-01    6.0471911358E-01    5.9013847726E-01
    5.7568585905E-01    5.6136806489E-01    5.4719163659E-01    5.3316284879E-01
    5.1928770628E-01    5.0557194181E-01    4.9202101436E-01    4.7864010784E-01
    4.6543413017E-01    4.5240771291E-01    4.3956521115E-01    4.2691070397E-01
    4.1444799521E-01    4.0218061466E-01    3.9011181966E-01    3.7824459702E-01
    3.6658166540E-01    3.5512547792E-01    3.4387822527E-01    3.3284183898E-01
    3.2201799514E-01    3.1140811837E-01    3.0101338610E-01    2.9083473310E-01
    2.8087285632E-01    2.7112821994E-01    2.6160106066E-01    2.5229139326E-01
    2.4319901632E-01    2.3432351811E-01    2.2566428272E-01    2.1722049635E-01
    2.0899115366E-01    2.0097506435E-01    1.9317085983E-01    1.8557699994E-01
    1.7819177985E-01    1.7101333698E-01    1.6403965795E-01    1.5726858565E-01
    1.5069782629E-01    1.4432495646E-01    1.3814743025E-01    1.3216258634E-01
    1.2636765500E-01    1.2075976515E-01    1.1533595137E-01    1.1009316076E-01
    1.0502825986E-01    1.0013804136E-01    9.5419230868E-02    9.0868493444E-02
    8.6482440107E-02    8.2257634202E-02    7.8190597644E-02    7.4277817028E-02
    7.0515749600E-02    6.6900829087E-02    6.3429471364E-02    6.0098079966E-02
    5.6903051441E-02    5.3840780528E-02    5.0907665157E-02    4.8100111284E-02
    4.5414537534E-02    4.2847379661E-02    4.0395094830E-02    3.8054165702E-02
    3.5821104331E-02    3.3692455873E-02    3.1664802098E-02    2.9734764720E-02
    2.7899008521E-02    2.6154244298E-02    2.4497231612E-02    2.2924781352E-02
    2.1433758106E-02    2.0021082360E-02    1.8683732499E-02    1.7418746641E-02
    1.6223224291E-02    1.5094327814E-02    1.4029283754E-02    1.3025383972E-02
    1.2079986633E-02    1.1190517027E-02    1.0354468247E-02    9.5694017110E-03
    8.8329475409E-03    8.1428048092E-03    7.4967416459E-03    6.8925952202E-03
    6.3282715988E-03    5.8017454870E-03    5.3110598571E-03    4.8543254709E-03
    4.4297203006E-03    4.0354888548E-03    3.6699414133E-03    3.3314531790E-03
    3.0184633493E-03    2.7294741149E-03    2.4630495894E-03    2.2178146777E-03
    1.9924538846E-03    1.7857100730E-03    1.5963831734E-03    1.4233288517E-03
    1.2654571391E-03    1.1217310297E-03    9.9116504965E-04    8.7282380232E-04
    7.6582049488E-04    6.6931544917E-04    5.8251460170E-04    5.0466799642E-04
    4.3506827398E-04    3.7304916114E-04    3.1798396365E-04    2.6928406578E-04
    2.2639743978E-04    1.8880716789E-04    1.5602997983E-04    1.2761480826E-04
    1.0314136450E-04    8.2218736920E-05    6.4484013912E-05    4.9600933315E-05
    3.7258560131E-05    2.7169993982E-05    1.9071107791E-05    1.2719318891E-05
    7.8923936919E-06    4.3872868554E-06    2.0190157900E-06    6.1957114983E-07
    3.6863883973E-08    1.3370925086E-07    7.8684809703E-07    1.8860055784E-06
    3.3329873885E-06    5.0408134602E-06    6.9328889928E-06    8.9422125727E-06
    1.1010621056E-05    1.3088070809E-05    1.5131954808E-05    1.7106455048E-05
    1.8981929609E-05    2.0734333710E-05    2.2344673983E-05    2.3798495177E-05
    2.5085398430E-05    2.6198590244E-05    2.7134461209E-05    2.7892193543E-05
    2.8473396458E-05    2.8881768339E-05    2.9122784727E-05    2.9203411069E-05
    2.9131839176E-05    2.8917246364E-05    2.8569576204E-05    2.8099339846E-05
    2.7517436870E-05    2.6834994627E-05    2.6063225042E-05    2.5213297884E-05
    2.4296229496E-05    2.3322786010E-05    2.2303400110E-05    2.1248100395E-05
    2.0166452448E-05    1.9067510729E-05    1.7959780445E-05    1.6851188571E-05
    1.5749063227E-05    1.4660120670E-05    1.3590459146E-05    1.2545558923E-05
    1.1530287840E-05    1.0548911735E-05    9.6051091512E-06    8.7019897792E-06
    7.8421160706E-06    7.0275275448E-06    6.2597673252E-06    5.5399104507E-06
    4.8685935716E-06    4.2460456648E-06    3.6721193983E-06    3.1463228546E-06
    2.6678513245E-06    2.2356188900E-06    1.8482895931E-06    1.5043079657E-06
    1.2019287331E-06    9.3924555078E-07    7.1421861323E-07    5.2470102824E-07
    3.6846386893E-07    2.4321979662E-07    1.4664522309E-07    7.6400948762E-08
    3.0151245437E-08    5.5813838421E-09    4.1357826167E-10    1.2421377001E-08
    3.9442508715E-08    7.9390208444E-08    1.3026307472E-07    1.9015348513E-07
    2.5725463628E-07    3.2986625822E-07    4.0639906531E-07    4.8537801584E-07
    5.6544444164E-07    6.4535712819E-07    7.2399241346E-07    8.0034338467E-07
    8.7351824630E-07    9.4273793833E-07    1.0073330767E-06    1.0667402947E-06
    1.1204980551E-06    1.1682420060E-06    1.2096999514E-06    1.2446864972E-06
    1.2730974477E-06    1.2949039990E-06    1.3101468040E-06    1.3189299471E-06
    1.3214148935E-06    1.3178144522E-06    1.3083867990E-06    1.2934296037E-06
    1.2732742876E-06    1.2482804626E-06    1.2188305554E-06    1.1853246731E-06
    1.1481757017E-06    1.1078046838E-06    1.0646364689E-06    1.0190956648E-06
    9.7160288962E-07    9.2257133596E-07    8.7240364909E-07    8.2148911972E-07
    7.7020119379E-07    7.1889528940E-07    6.6790692416E-07    6.1755013542E-07
    5.6811619571E-07    5.1987260095E-07    4.7306233172E-07    4.2790336291E-07
    3.8458841864E-07    3.4328494806E-07    3.0413531467E-07    2.6725717696E-07
    2.3274404834E-07    2.0066601748E-07    1.7107061308E-07    1.4398379753E-07
    1.1941107033E-07    9.7338669467E-08    7.7734849058E-08    6.0551225256E-08
    4.5724166835E-08    3.3176226461E-08    2.2817587361E-08    1.4547525850E-08
    8.2558628845E-09    3.8244094320E-09    1.1283783059E-09    3.7770201721E-11
    4.1870811184E-10    2.1347288569E-09    5.0480091943E-09    9.0205348305E-09
    1.3915194313E-08    1.9596804518E-08    2.5933055210E-08    3.2795376797E-08
    4.0059724853E-08    4.7607282346E-08    5.5325079355E-08    6.3106527876E-08
    7.0851877271E-08    7.8468585059E-08    8.5871613292E-08    9.2983643309E-08
    9.9735222123E-08    1.0606483328E-07    1.1191890500E-07    1.1725175242E-07
    1.2202546266E-07    1.2620972460E-07    1.2978160874E-07    1.3272530196E-07
    1.3503180109E-07    1.3669857081E-07    1.3772917058E-07    1.3813285393E-07
    1.3792414772E-07    1.3712241175E-07    1.3575138769E-07    1.3383873751E-07
    1.3141557821E-07    1.2851601616E-07    1.2517668261E-07    1.2143627891E-07
    1.1733512666E-07    1.1291473572E-07    1.0821738268E-07    1.0328571030E-07
    9.8162345376E-08    9.2889537678E-08    8.7508824877E-08    8.2060717630E-08
    7.6584415916E-08    7.1117546779E-08    6.5695932945E-08    6.0353387211E-08
    5.5121533992E-08    5.0029660820E-08    4.5104593007E-08    4.0370599495E-08
    3.5849321003E-08    3.1559725351E-08    2.7518086622E-08    2.3737986224E-08
    2.0230337690E-08    1.7003429781E-08    1.4062990232E-08    1.1412266149E-08
    9.0521203825E-09    6.9814463001E-09    5.1959731446E-09    3.6902532283E-09
    2.4572589706E-09    1.4877800335E-09    7.6712007542E-10    2.9397016057E-10
    5.6475227825E-11   -1.0119320328E-11    6.3274750934E-13    6.1411892541E-12
    3.1990534846E-12    2.8988202352E-13    1.5481262875E-13   -5.9976345047E-14
   -4.5102522478E-13   -2.2558822681E-13    0.0000000000E+00    0.0000000000E+00
    0.0000000000E+00    0.0000000000E+00    0.0000000000E+00    0.0000000000E+00
    0.0000000000E+00    0.0000000000E+00    0.0000000000E+00    0.0000000000E+00
    0.0000000000E+00    0.0000000000E+00    0.0000000000E+00    0.0000000000E+00
    0.0000000000E+00    0.0000000000E+00    0.0000000000E+00    0.0000000000E+00
    0.0000000000E+00    0.0000000000E+00    0.0000000000E+00    0.0000000000E+00
    0.0000000000E+00    0.0000000000E+00    0.0000000000E+00    0.0000000000E+00
    0.0000000000E+00    0.0000000000E+00    0.0000000000E+00    0.0000000000E+00
    0.0000000000E+00    0.0000000000E+00    0.0000000000E+00    0.0000000000E+00
    0.0000000000E+00    0.0000000000E+00    0.0000000000E+00    0.0000000000E+00
    0.0000000000E+00    0.0000000000E+00    0.0000000000E+00    0.0000000000E+00
    0.0000000000E+00    0.0000000000E+00    0.0000000000E+00    0.0000000000E+00
    0.0000000000E+00    0.0000000000E+00    0.0000000000E+00    0.0000000000E+00
    0.0000000000E+00    0.0000000000E+00    0.0000000000E+00    0.0000000000E+00
    0.0000000000E+00    0.0000000000E+00    0.0000000000E+00    0.0000000000E+00
    0.0000000000E+00    0.0000000000E+00    0.0000000000E+00    0.0000000000E+00
    0.0000000000E+00    0.0000000000E+00    0.0000000000E+00    0.0000000000E+00
    0.0000000000E+00    0.0000000000E+00    0.0000000000E+00    0.0000000000E+00
    0.0000000000E+00    0.0000000000E+00    0.0000000000E+00    0.0000000000E+00
    0.0000000000E+00    0.0000000000E+00    0.0000000000E+00    0.0000000000E+00
    0.0000000000E+00    0.0000000000E+00    0.0000000000E+00    0.0000000000E+00
    0.0000000000E+00    0.0000000000E+00    0.0000000000E+00    0.0000000000E+00
    0.0000000000E+00    0.0000000000E+00    0.0000000000E+00    0.0000000000E+00
    0.0000000000E+00    0.0000000000E+00    0.0000000000E+00    0.0000000000E+00
    0.0000000000E+00    0.0000000000E+00    0.0000000000E+00    0.0000000000E+00
    0.0000000000E+00    0.0000000000E+00    0.0000000000E+00    0.0000000000E+00
    0.0000000000E+00    0.0000000000E+00    0.0000000000E+00    0.0000000000E+00
    0.0000000000E+00    0.0000000000E+00    0.0000000000E+00    0.0000000000E+00
    0.0000000000E+00    0.0000000000E+00    0.0000000000E+00    0.0000000000E+00
    0.0000000000E+00    0.0000000000E+00    0.0000000000E+00    0.0000000000E+00
    0.0000000000E+00    0.0000000000E+00    0.0000000000E+00    0.0000000000E+00
    0.0000000000E+00    0.0000000000E+00    0.0000000000E+00    0.0000000000E+00
    0.0000000000E+00    0.0000000000E+00    0.0000000000E+00    0.0000000000E+00
    0.0000000000E+00    0.0000000000E+00    0.0000000000E+00    0.0000000000E+00
    0.0000000000E+00    0.0000000000E+00    0.0000000000E+00    0.0000000000E+00
    0.0000000000E+00    0.0000000000E+00    0.0000000000E+00    0.0000000000E+00
    0.0000000000E+00    0.0000000000E+00    0.0000000000E+00    0.0000000000E+00
    0.0000000000E+00    0.0000000000E+00    0.0000000000E+00    0.0000000000E+00
    0.0000000000E+00    0.0000000000E+00    0.0000000000E+00    0.0000000000E+00
    0.0000000000E+00    0.0000000000E+00    0.0000000000E+00    0.0000000000E+00
    0.0000000000E+00    0.0000000000E+00    0.0000000000E+00    0.0000000000E+00
    0.0000000000E+00    0.0000000000E+00    0.0000000000E+00    0.0000000000E+00
    0.0000000000E+00    0.0000000000E+00    0.0000000000E+00    0.0000000000E+00
    0.0000000000E+00    0.0000000000E+00    0.0000000000E+00    0.0000000000E+00
    0.0000000000E+00    0.0000000000E+00    0.0000000000E+00    0.0000000000E+00
    0.0000000000E+00    0.0000000000E+00    0.0000000000E+00    0.0000000000E+00
    0.0000000000E+00    0.0000000000E+00    0.0000000000E+00    0.0000000000E+00
    0.0000000000E+00    0.0000000000E+00    0.0000000000E+00    0.0000000000E+00
    0.0000000000E+00    0.0000000000E+00    0.0000000000E+00    0.0000000000E+00
    0.0000000000E+00    0.0000000000E+00    0.0000000000E+00    0.0000000000E+00
    0.0000000000E+00    0.0000000000E+00    0.0000000000E+00    0.0000000000E+00
    0.0000000000E+00    0.0000000000E+00    0.0000000000E+00    0.0000000000E+00
    0.0000000000E+00    0.0000000000E+00    0.0000000000E+00    0.0000000000E+00
    0.0000000000E+00    0.0000000000E+00    0.0000000000E+00    0.0000000000E+00
    0.0000000000E+00    0.0000000000E+00    0.0000000000E+00    0.0000000000E+00
    0.0000000000E+00    0.0000000000E+00    0.0000000000E+00    0.0000000000E+00
    0.0000000000E+00    0.0000000000E+00    0.0000000000E+00    0.0000000000E+00
    0.0000000000E+00    0.0000000000E+00    0.0000000000E+00    0.0000000000E+00
    0.0000000000E+00    0.0000000000E+00    0.0000000000E+00    0.0000000000E+00
    0.0000000000E+00    0.0000000000E+00    0.0000000000E+00    0.0000000000E+00
    0.0000000000E+00    0.0000000000E+00    0.0000000000E+00    0.0000000000E+00
    0.0000000000E+00    0.0000000000E+00    0.0000000000E+00    0.0000000000E+00
    0.0000000000E+00    0.0000000000E+00    0.0000000000E+00    0.0000000000E+00
    0.0000000000E+00    0.0000000000E+00    0.0000000000E+00    0.0000000000E+00
    0.0000000000E+00    0.0000000000E+00    0.0000000000E+00    0.0000000000E+00
    0.0000000000E+00    0.0000000000E+00    0.0000000000E+00    0.0000000000E+00
    0.0000000000E+00    0.0000000000E+00    0.0000000000E+00    0.0000000000E+00
    0.0000000000E+00    0.0000000000E+00    0.0000000000E+00    0.0000000000E+00
    0.0000000000E+00    0.0000000000E+00    0.0000000000E+00    0.0000000000E+00
    0.0000000000E+00    0.0000000000E+00    0.0000000000E+00    0.0000000000E+00
    0.0000000000E+00    0.0000000000E+00    0.0000000000E+00    0.0000000000E+00
    0.0000000000E+00    0.0000000000E+00    0.0000000000E+00    0.0000000000E+00
    0.0000000000E+00    0.0000000000E+00    0.0000000000E+00    0.0000000000E+00
    0.0000000000E+00    0.0000000000E+00    0.0000000000E+00    0.0000000000E+00
    0.0000000000E+00    0.0000000000E+00    0.0000000000E+00    0.0000000000E+00
    0.0000000000E+00    0.0000000000E+00    0.0000000000E+00    0.0000000000E+00
    0.0000000000E+00    0.0000000000E+00    0.0000000000E+00    0.0000000000E+00
    0.0000000000E+00    0.0000000000E+00    0.0000000000E+00    0.0000000000E+00
    0.0000000000E+00    0.0000000000E+00    0.0000000000E+00    0.0000000000E+00
    0.0000000000E+00    0.0000000000E+00    0.0000000000E+00    0.0000000000E+00
    0.0000000000E+00    0.0000000000E+00    0.0000000000E+00    0.0000000000E+00
    0.0000000000E+00    0.0000000000E+00    0.0000000000E+00    0.0000000000E+00
    0.0000000000E+00    0.0000000000E+00    0.0000000000E+00    0.0000000000E+00
    0.0000000000E+00    0.0000000000E+00    0.0000000000E+00    0.0000000000E+00
    0.0000000000E+00    0.0000000000E+00    0.0000000000E+00    0.0000000000E+00
    0.0000000000E+00    0.0000000000E+00    0.0000000000E+00    0.0000000000E+00
    0.0000000000E+00    0.0000000000E+00    0.0000000000E+00    0.0000000000E+00
    0.0000000000E+00    0.0000000000E+00    0.0000000000E+00    0.0000000000E+00
    0.0000000000E+00    0.0000000000E+00    0.0000000000E+00    0.0000000000E+00
    0.0000000000E+00    0.0000000000E+00    0.0000000000E+00    0.0000000000E+00
    0.0000000000E+00    0.0000000000E+00    0.0000000000E+00    0.0000000000E+00
    0.0000000000E+00    0.0000000000E+00    0.0000000000E+00    0.0000000000E+00
    0.0000000000E+00    0.0000000000E+00    0.0000000000E+00    0.0000000000E+00
    0.0000000000E+00    0.0000000000E+00    0.0000000000E+00    0.0000000000E+00
    0.0000000000E+00    0.0000000000E+00    0.0000000000E+00    0.0000000000E+00
    0.0000000000E+00    0.0000000000E+00    0.0000000000E+00    0.0000000000E+00
    0.0000000000E+00    0.0000000000E+00    0.0000000000E+00    0.0000000000E+00
    0.0000000000E+00    0.0000000000E+00    0.0000000000E+00    0.0000000000E+00
    0.0000000000E+00    0.0000000000E+00    0.0000000000E+00    0.0000000000E+00
    0.0000000000E+00    0.0000000000E+00    0.0000000000E+00    0.0000000000E+00
    0.0000000000E+00    0.0000000000E+00    0.0000000000E+00    0.0000000000E+00
    0.0000000000E+00    0.0000000000E+00    0.0000000000E+00    0.0000000000E+00
    0.0000000000E+00    0.0000000000E+00    0.0000000000E+00    0.0000000000E+00
    0.0000000000E+00    0.0000000000E+00    0.0000000000E+00    0.0000000000E+00
    0.0000000000E+00    0.0000000000E+00    0.0000000000E+00    0.0000000000E+00
    0.0000000000E+00    0.0000000000E+00    0.0000000000E+00    0.0000000000E+00
    0.0000000000E+00    0.0000000000E+00    0.0000000000E+00    0.0000000000E+00
    0.0000000000E+00    0.0000000000E+00    0.0000000000E+00    0.0000000000E+00
    0.0000000000E+00    0.0000000000E+00    0.0000000000E+00    0.0000000000E+00
    0.0000000000E+00    0.0000000000E+00    0.0000000000E+00    0.0000000000E+00
    0.0000000000E+00    0.0000000000E+00    0.0000000000E+00    0.0000000000E+00
    0.0000000000E+00    0.0000000000E+00    0.0000000000E+00    0.0000000000E+00
    0.0000000000E+00    0.0000000000E+00    0.0000000000E+00    0.0000000000E+00
    0.0000000000E+00    0.0000000000E+00    0.0000000000E+00    0.0000000000E+00
    0.0000000000E+00    0.0000000000E+00    0.0000000000E+00    0.0000000000E+00
    0.0000000000E+00    0.0000000000E+00    0.0000000000E+00    0.0000000000E+00
    0.0000000000E+00    0.0000000000E+00    0.0000000000E+00    0.0000000000E+00
    0.0000000000E+00    0.0000000000E+00    0.0000000000E+00    0.0000000000E+00
    0.0000000000E+00    0.0000000000E+00    0.0000000000E+00    0.0000000000E+00
    0.0000000000E+00    0.0000000000E+00    0.0000000000E+00    0.0000000000E+00
    0.0000000000E+00    0.0000000000E+00    0.0000000000E+00    0.0000000000E+00
    0.0000000000E+00    0.0000000000E+00    0.0000000000E+00    0.0000000000E+00
    0.0000000000E+00    0.0000000000E+00    0.0000000000E+00    0.0000000000E+00
    0.0000000000E+00    0.0000000000E+00    0.0000000000E+00    0.0000000000E+00
    0.0000000000E+00    0.0000000000E+00    0.0000000000E+00    0.0000000000E+00
    0.0000000000E+00    0.0000000000E+00    0.0000000000E+00    0.0000000000E+00
    0.0000000000E+00    0.0000000000E+00    0.0000000000E+00    0.0000000000E+00
    0.0000000000E+00    0.0000000000E+00    0.0000000000E+00    0.0000000000E+00
    0.0000000000E+00    0.0000000000E+00    0.0000000000E+00    0.0000000000E+00
    0.0000000000E+00    0.0000000000E+00    0.0000000000E+00    0.0000000000E+00
    0.0000000000E+00    0.0000000000E+00    0.0000000000E+00    0.0000000000E+00
    0.0000000000E+00    0.0000000000E+00    0.0000000000E+00    0.0000000000E+00
    0.0000000000E+00    0.0000000000E+00    0.0000000000E+00    0.0000000000E+00
    0.0000000000E+00    0.0000000000E+00    0.0000000000E+00    0.0000000000E+00
    0.0000000000E+00    0.0000000000E+00    0.0000000000E+00    0.0000000000E+00
    0.0000000000E+00    0.0000000000E+00    0.0000000000E+00    0.0000000000E+00
    0.0000000000E+00    0.0000000000E+00    0.0000000000E+00    0.0000000000E+00
    0.0000000000E+00    0.0000000000E+00    0.0000000000E+00    0.0000000000E+00
    0.0000000000E+00    0.0000000000E+00    0.0000000000E+00    0.0000000000E+00
    0.0000000000E+00    0.0000000000E+00    0.0000000000E+00    0.0000000000E+00
    0.0000000000E+00    0.0000000000E+00    0.0000000000E+00    0.0000000000E+00
    0.0000000000E+00    0.0000000000E+00    0.0000000000E+00    0.0000000000E+00
    0.0000000000E+00    0.0000000000E+00    0.0000000000E+00    0.0000000000E+00
    0.0000000000E+00    0.0000000000E+00    0.0000000000E+00    0.0000000000E+00
    0.0000000000E+00    0.0000000000E+00    0.0000000000E+00    0.0000000000E+00
    0.0000000000E+00    0.0000000000E+00    0.0000000000E+00    0.0000000000E+00
    0.0000000000E+00    0.0000000000E+00    0.0000000000E+00    0.0000000000E+00
    0.0000000000E+00    0.0000000000E+00    0.0000000000E+00    0.0000000000E+00
    0.0000000000E+00    0.0000000000E+00    0.0000000000E+00    0.0000000000E+00
    0.0000000000E+00    0.0000000000E+00    0.0000000000E+00    0.0000000000E+00
    0.0000000000E+00    0.0000000000E+00    0.0000000000E+00    0.0000000000E+00
    0.0000000000E+00    0.0000000000E+00    0.0000000000E+00    0.0000000000E+00
    0.0000000000E+00    0.0000000000E+00    0.0000000000E+00    0.0000000000E+00
    0.0000000000E+00    0.0000000000E+00    0.0000000000E+00    0.0000000000E+00
    0.0000000000E+00    0.0000000000E+00    0.0000000000E+00    0.0000000000E+00
    0.0000000000E+00    0.0000000000E+00    0.0000000000E+00    0.0000000000E+00
    0.0000000000E+00    0.0000000000E+00    0.0000000000E+00    0.0000000000E+00
    0.0000000000E+00    0.0000000000E+00    0.0000000000E+00    0.0000000000E+00
    0.0000000000E+00    0.0000000000E+00    0.0000000000E+00    0.0000000000E+00
    0.0000000000E+00    0.0000000000E+00    0.0000000000E+00    0.0000000000E+00
    0.0000000000E+00    0.0000000000E+00    0.0000000000E+00    0.0000000000E+00
    0.0000000000E+00    0.0000000000E+00    0.0000000000E+00    0.0000000000E+00
    0.0000000000E+00    0.0000000000E+00    0.0000000000E+00    0.0000000000E+00
    0.0000000000E+00    0.0000000000E+00    0.0000000000E+00    0.0000000000E+00
    0.0000000000E+00    0.0000000000E+00    0.0000000000E+00    0.0000000000E+00
    0.0000000000E+00    0.0000000000E+00    0.0000000000E+00    0.0000000000E+00
    0.0000000000E+00    0.0000000000E+00    0.0000000000E+00    0.0000000000E+00
    0.0000000000E+00    0.0000000000E+00    0.0000000000E+00    0.0000000000E+00
    0.0000000000E+00    0.0000000000E+00    0.0000000000E+00    0.0000000000E+00
    0.0000000000E+00    0.0000000000E+00    0.0000000000E+00    0.0000000000E+00
    0.0000000000E+00    0.0000000000E+00    0.0000000000E+00    0.0000000000E+00
 </PP_NLCC>
 <PP_RHOATOM type="real"  size="1108" columns="4">
    0.0000000000E+00    2.2596752039E-05    9.0722558369E-05    2.0538399530E-04
    3.6825843937E-04    5.8169368144E-04    8.4870736641E-04    1.1729862387E-03
    1.5588851683E-03    2.0114259257E-03    2.5362956708E-03    3.1398451130E-03
    3.8290862966E-03    4.6116899600E-03    5.4959824130E-03    6.4909418711E-03
    7.6061941829E-03    8.8520078817E-03    1.0239288491E-02    1.1779572005E-02
    1.3485017474E-02    1.5368398606E-02    1.7443094310E-02    1.9723078092E-02
    2.2222906233E-02    2.4957704644E-02    2.7943154338E-02    3.1195475421E-02
    3.4731409535E-02    3.8568200661E-02    4.2723574223E-02    4.7215714415E-02
    5.2063239691E-02    5.7285176349E-02    6.2900930171E-02    6.8930256067E-02
    7.5393225674E-02    8.2310192905E-02    8.9701757409E-02    9.7588725937E-02
    1.0599207163E-01    1.1493289119E-01    1.2443236010E-01    1.3451168567E-01
    1.4519205828E-01    1.5649460063E-01    1.6844031517E-01    1.8105002987E-01
    1.9434434225E-01    2.0834356205E-01    2.2306765237E-01    2.3853616971E-01
    2.5476820286E-01    2.7178231101E-01    2.8959646097E-01    3.0822796409E-01
    3.2769341275E-01    3.4800861678E-01    3.6918854010E-01    3.9124723770E-01
    4.1419779323E-01    4.3805225752E-01    4.6282158821E-01    4.8851559080E-01
    5.1514286132E-01    5.4271073091E-01    5.7122521267E-01    6.0069095079E-01
    6.3111117249E-01    6.6248764279E-01    6.9482062253E-01    7.2810882969E-01
    7.6234940441E-01    7.9753787773E-01    8.3366814436E-01    8.7073243970E-01
    9.0872132103E-01    9.4762365332E-01    9.8742659955E-01    1.0281156157E+00
    1.0696744507E+00    1.1120851508E+00    1.1553280692E+00    1.1993818805E+00
    1.2442235996E+00    1.2898286060E+00    1.3361706726E+00    1.3832219992E+00
    1.4309532505E+00    1.4793335987E+00    1.5283307705E+00    1.5779110981E+00
    1.6280395745E+00    1.6786799121E+00    1.7297946051E+00    1.7813449955E+00
    1.8332913421E+00    1.8855928921E+00    1.9382079553E+00    1.9910939813E+00
    2.0442076378E+00    2.0975048912E+00    2.1509410889E+00    2.2044710422E+00
    2.2580491107E+00    2.3116292865E+00    2.3651652804E+00    2.4186106060E+00
    2.4719186655E+00    2.5250428341E+00    2.5779365438E+00    2.6305533668E+00
    2.6828470973E+00    2.7347718320E+00    2.7862820492E+00    2.8373326861E+00
    2.8878792145E+00    2.9378777141E+00    2.9872849434E+00    3.0360584093E+00
    3.0841564330E+00    3.1315382146E+00    3.1781638942E+00    3.2239946105E+00
    3.2689925576E+00    3.3131210376E+00    3.3563445115E+00    3.3986286468E+00
    3.4399403628E+00    3.4802478722E+00    3.5195207206E+00    3.5577298231E+00
    3.5948474977E+00    3.6308474964E+00    3.6657050336E+00    3.6993968109E+00
    3.7319010404E+00    3.7631974644E+00    3.7932673730E+00    3.8220936189E+00
    3.8496606295E+00    3.8759544163E+00    3.9009625828E+00    3.9246743279E+00
    3.9470804490E+00    3.9681733408E+00    3.9879469928E+00    4.0063969836E+00
    4.0235204734E+00    4.0393161932E+00    4.0537844323E+00    4.0669270231E+00
    4.0787473229E+00    4.0892501944E+00    4.0984419828E+00    4.1063304908E+00
    4.1129249509E+00    4.1182359959E+00    4.1222756265E+00    4.1250571766E+00
    4.1265952762E+00    4.1269058123E+00    4.1260058872E+00    4.1239137746E+00
    4.1206488739E+00    4.1162316619E+00    4.1106836426E+00    4.1040272956E+00
    4.0962860218E+00    4.0874840881E+00    4.0776465700E+00    4.0667992930E+00
    4.0549687727E+00    4.0421821534E+00    4.0284671458E+00    4.0138519640E+00
    3.9983652614E+00    3.9820360668E+00    3.9648937189E+00    3.9469678024E+00
    3.9282880822E+00    3.9088844396E+00    3.8887868077E+00    3.8680251083E+00
    3.8466291889E+00    3.8246287615E+00    3.8020533420E+00    3.7789321916E+00
    3.7552942596E+00    3.7311681279E+00    3.7065819577E+00    3.6815634383E+00
    3.6561397383E+00    3.6303374593E+00    3.6041825921E+00    3.5777004754E+00
    3.5509157583E+00    3.5238523648E+00    3.4965334615E+00    3.4689814292E+00
    3.4412178365E+00    3.4132634174E+00    3.3851380519E+00    3.3568607499E+00
    3.3284496382E+00    3.2999219521E+00    3.2712940283E+00    3.2425813027E+00
    3.2137983110E+00    3.1849586908E+00    3.1560751875E+00    3.1271597090E+00
    3.0982234864E+00    3.0692773407E+00    3.0403317662E+00    3.0113969034E+00
    2.9824825223E+00    2.9535980537E+00    2.9247525928E+00    2.8959549037E+00
    2.8672134286E+00    2.8385362938E+00    2.8099313177E+00    2.7814060167E+00
    2.7529676133E+00    2.7246230422E+00    2.6963789578E+00    2.6682417406E+00
    2.6402175039E+00    2.6123121007E+00    2.5845311303E+00    2.5568799447E+00
    2.5293636547E+00    2.5019871368E+00    2.4747550391E+00    2.4476717875E+00
    2.4207415917E+00    2.3939684513E+00    2.3673561613E+00    2.3409083184E+00
    2.3146283260E+00    2.2885194004E+00    2.2625845757E+00    2.2368267093E+00
    2.2112484874E+00    2.1858524298E+00    2.1606408950E+00    2.1356160853E+00
    2.1107800513E+00    2.0861346969E+00    2.0616817840E+00    2.0374229366E+00
    2.0133596454E+00    1.9894932725E+00    1.9658250550E+00    1.9423561095E+00
    1.9190874360E+00    1.8960199220E+00    1.8731543459E+00    1.8504913813E+00
    1.8280316003E+00    1.8057754770E+00    1.7837233914E+00    1.7618756321E+00
    1.7402324004E+00    1.7187938127E+00    1.6975599042E+00    1.6765306319E+00
    1.6557058772E+00    1.6350854491E+00    1.6146690869E+00    1.5944564629E+00
    1.5744471853E+00    1.5546408004E+00    1.5350367955E+00    1.5156346008E+00
    1.4964335926E+00    1.4774330947E+00    1.4586323813E+00    1.4400306790E+00
    1.4216271686E+00    1.4034209878E+00    1.3854112325E+00    1.3675969591E+00
    1.3499771864E+00    1.3325508974E+00    1.3153170408E+00    1.2982745331E+00
    1.2814222601E+00    1.2647590783E+00    1.2482838168E+00    1.2319952786E+00
    1.2158922424E+00    1.1999734632E+00    1.1842376749E+00    1.1686835903E+00
    1.1533099035E+00    1.1381152905E+00    1.1230984107E+00    1.1082579078E+00
    1.0935924112E+00    1.0791005370E+00    1.0647808890E+00    1.0506320597E+00
    1.0366526315E+00    1.0228411773E+00    1.0091962617E+00    9.9571644183E-01
    9.8240026803E-01    9.6924628495E-01    9.5625303215E-01    9.4341904494E-01
    9.3074285510E-01    9.1822299159E-01    9.0585798126E-01    8.9364634949E-01
    8.8158662082E-01    8.6967731957E-01    8.5791697045E-01    8.4630409910E-01
    8.3483723261E-01    8.2351490012E-01    8.1233563323E-01    8.0129796655E-01
    7.9040043811E-01    7.7964158984E-01    7.6901996797E-01    7.5853412346E-01
    7.4818261234E-01    7.3796399613E-01    7.2787684218E-01    7.1791972399E-01
    7.0809122154E-01    6.9838992162E-01    6.8881441808E-01    6.7936331216E-01
    6.7003521270E-01    6.6082873643E-01    6.5174250819E-01    6.4277516117E-01
    6.3392533710E-01    6.2519168648E-01    6.1657286875E-01    6.0806755248E-01
    5.9967441550E-01    5.9139214515E-01    5.8321943831E-01    5.7515500164E-01
    5.6719755165E-01    5.5934581481E-01    5.5159852773E-01    5.4395443719E-01
    5.3641230027E-01    5.2897088443E-01    5.2162896757E-01    5.1438533815E-01
    5.0723879518E-01    5.0018814837E-01    4.9323221808E-01    4.8636983543E-01
    4.7959984234E-01    4.7292109152E-01    4.6633244651E-01    4.5983278173E-01
    4.5342098247E-01    4.4709594489E-01    4.4085657605E-01    4.3470179389E-01
    4.2863052725E-01    4.2264171583E-01    4.1673431019E-01    4.1090727176E-01
    4.0515957277E-01    3.9949019626E-01    3.9389813605E-01    3.8838239668E-01
    3.8294199342E-01    3.7757595219E-01    3.7228330956E-01    3.6706311266E-01
    3.6191441918E-01    3.5683629728E-01    3.5182782557E-01    3.4688809304E-01
    3.4201619901E-01    3.3721125308E-01    3.3247237503E-01    3.2779869483E-01
    3.2318935250E-01    3.1864349811E-01    3.1416029165E-01    3.0973890303E-01
    3.0537851196E-01    3.0107830787E-01    2.9683748991E-01    2.9265526678E-01
    2.8853085674E-01    2.8446348749E-01    2.8045239608E-01    2.7649682888E-01
    2.7259604147E-01    2.6874929857E-01    2.6495587394E-01    2.6121505035E-01
    2.5752611944E-01    2.5388838168E-01    2.5030114628E-01    2.4676373109E-01
    2.4327546255E-01    2.3983567558E-01    2.3644371351E-01    2.3309892799E-01
    2.2980067891E-01    2.2654833433E-01    2.2334127038E-01    2.2017887119E-01
    2.1706052878E-01    2.1398564303E-01    2.1095362154E-01    2.0796387958E-01
    2.0501584001E-01    2.0210893316E-01    1.9924259682E-01    1.9641627608E-01
    1.9362942329E-01    1.9088149798E-01    1.8817196678E-01    1.8550030331E-01
    1.8286598814E-01    1.8026850868E-01    1.7770735913E-01    1.7518204035E-01
    1.7269205986E-01    1.7023693169E-01    1.6781617633E-01    1.6542932068E-01
    1.6307589793E-01    1.6075544749E-01    1.5846751495E-01    1.5621165198E-01
    1.5398741625E-01    1.5179437137E-01    1.4963208681E-01    1.4750013784E-01
    1.4539810543E-01    1.4332557622E-01    1.4128214241E-01    1.3926740172E-01
    1.3728095729E-01    1.3532241766E-01    1.3339139663E-01    1.3148751328E-01
    1.2961039183E-01    1.2775966159E-01    1.2593495695E-01    1.2413591723E-01
    1.2236218667E-01    1.2061341437E-01    1.1888925419E-01    1.1718936473E-01
    1.1551340922E-01    1.1386105551E-01    1.1223197599E-01    1.1062584751E-01
    1.0904235135E-01    1.0748117315E-01    1.0594200284E-01    1.0442453463E-01
    1.0292846687E-01    1.0145350209E-01    9.9999346883E-02    9.8565711857E-02
    9.7152311604E-02    9.5758864631E-02    9.4385093311E-02    9.3030723832E-02
    9.1695486143E-02    9.0379113909E-02    8.9081344455E-02    8.7801918720E-02
    8.6540581209E-02    8.5297079941E-02    8.4071166406E-02    8.2862595516E-02
    8.1671125557E-02    8.0496518148E-02    7.9338538191E-02    7.8196953827E-02
    7.7071536395E-02    7.5962060386E-02    7.4868303401E-02    7.3790046108E-02
    7.2727072202E-02    7.1679168360E-02    7.0646124203E-02    6.9627732258E-02
    6.8623787912E-02    6.7634089379E-02    6.6658437657E-02    6.5696636493E-02
    6.4748492345E-02    6.3813814341E-02    6.2892414247E-02    6.1984106430E-02
    6.1088707820E-02    6.0206037877E-02    5.9335918554E-02    5.8478174268E-02
    5.7632631858E-02    5.6799120559E-02    5.5977471966E-02    5.5167520001E-02
    5.4369100882E-02    5.3582053091E-02    5.2806217345E-02    5.2041436560E-02
    5.1287555828E-02    5.0544422380E-02    4.9811885561E-02    4.9089796800E-02
    4.8378009582E-02    4.7676379415E-02    4.6984763810E-02    4.6303022247E-02
    4.5631016151E-02    4.4968608864E-02    4.4315665619E-02    4.3672053515E-02
    4.3037641489E-02    4.2412300292E-02    4.1795902466E-02    4.1188322316E-02
    4.0589435886E-02    3.9999120939E-02    3.9417256928E-02    3.8843724977E-02
    3.8278407855E-02    3.7721189957E-02    3.7171957277E-02    3.6630597389E-02
    3.6096999424E-02    3.5571054052E-02    3.5052653455E-02    3.4541691310E-02
    3.4038062769E-02    3.3541664435E-02    3.3052394347E-02    3.2570151957E-02
    3.2094838110E-02    3.1626355028E-02    3.1164606287E-02    3.0709496804E-02
    3.0260932813E-02    2.9818821849E-02    2.9383072731E-02    2.8953595543E-02
    2.8530301618E-02    2.8113103519E-02    2.7701915026E-02    2.7296651114E-02
    2.6897227938E-02    2.6503562822E-02    2.6115574234E-02    2.5733181780E-02
    2.5356306180E-02    2.4984869258E-02    2.4618793925E-02    2.4258004162E-02
    2.3902425012E-02    2.3551982556E-02    2.3206603907E-02    2.2866217192E-02
    2.2530751538E-02    2.2200137058E-02    2.1874304841E-02    2.1553186934E-02
    2.1236716332E-02    2.0924826962E-02    2.0617453674E-02    2.0314532226E-02
    2.0015999271E-02    1.9721792348E-02    1.9431849864E-02    1.9146111089E-02
    1.8864516138E-02    1.8587005965E-02    1.8313522346E-02    1.8044007873E-02
    1.7778405937E-02    1.7516660723E-02    1.7258717196E-02    1.7004521089E-02
    1.6754018895E-02    1.6507157856E-02    1.6263885952E-02    1.6024151892E-02
    1.5787905103E-02    1.5555095718E-02    1.5325674573E-02    1.5099593189E-02
    1.4876803769E-02    1.4657259186E-02    1.4440912972E-02    1.4227719314E-02
    1.4017633041E-02    1.3810609614E-02    1.3606605122E-02    1.3405576271E-02
    1.3207480373E-02    1.3012275341E-02    1.2819919682E-02    1.2630372483E-02
    1.2443593409E-02    1.2259542691E-02    1.2078181122E-02    1.1899470045E-02
    1.1723371348E-02    1.1549847457E-02    1.1378861327E-02    1.1210376434E-02
    1.1044356772E-02    1.0880766839E-02    1.0719571639E-02    1.0560736666E-02
    1.0404227902E-02    1.0250011811E-02    1.0098055330E-02    9.9483258636E-03
    9.8007912767E-03    9.6554198892E-03    9.5121804693E-03    9.3710422271E-03
    9.2319748086E-03    9.0949482898E-03    8.9599331707E-03    8.8269003693E-03
    8.6958212159E-03    8.5666674473E-03    8.4394112014E-03    8.3140250115E-03
    8.1904818007E-03    8.0687548767E-03    7.9488179263E-03    7.8306450103E-03
    7.7142105582E-03    7.5994893631E-03    7.4864565765E-03    7.3750877038E-03
    7.2653585988E-03    7.1572454591E-03    7.0507248214E-03    6.9457735568E-03
    6.8423688660E-03    6.7404882746E-03    6.6401096289E-03    6.5412110914E-03
    6.4437711360E-03    6.3477685440E-03    6.2531823999E-03    6.1599920869E-03
    6.0681772827E-03    5.9777179558E-03    5.8885943609E-03    5.8007870353E-03
    5.7142767949E-03    5.6290447301E-03    5.5450722021E-03    5.4623408391E-03
    5.3808325325E-03    5.3005294334E-03    5.2214139487E-03    5.1434687377E-03
    5.0666767085E-03    4.9910210146E-03    4.9164850512E-03    4.8430524522E-03
    4.7707070863E-03    4.6994330545E-03    4.6292146860E-03    4.5600365354E-03
    4.4918833797E-03    4.4247402148E-03    4.3585922526E-03    4.2934249179E-03
    4.2292238455E-03    4.1659748773E-03    4.1036640591E-03    4.0422776380E-03
    3.9818020592E-03    3.9222239638E-03    3.8635301856E-03    3.8057077483E-03
    3.7487438631E-03    3.6926259260E-03    3.6373415150E-03    3.5828783878E-03
    3.5292244789E-03    3.4763678975E-03    3.4242969248E-03    3.3730000115E-03
    3.3224657755E-03    3.2726829996E-03    3.2236406290E-03    3.1753277693E-03
    3.1277336837E-03    3.0808477913E-03    3.0346596645E-03    2.9891590269E-03
    2.9443357516E-03    2.9001798584E-03    2.8566815119E-03    2.8138310199E-03
    2.7716188307E-03    2.7300355317E-03    2.6890718468E-03    2.6487186351E-03
    2.6089668885E-03    2.5698077300E-03    2.5312324116E-03    2.4932323131E-03
    2.4557989394E-03    2.4189239192E-03    2.3825990035E-03    2.3468160632E-03
    2.3115670877E-03    2.2768441834E-03    2.2426395718E-03    2.2089455877E-03
    2.1757546781E-03    2.1430593999E-03    2.1108524190E-03    2.0791265082E-03
    2.0478745459E-03    2.0170895149E-03    1.9867645001E-03    1.9568926878E-03
    1.9274673640E-03    1.8984819127E-03    1.8699298148E-03    1.8418046468E-03
    1.8141000791E-03    1.7868098746E-03    1.7599278880E-03    1.7334480636E-03
    1.7073644349E-03    1.6816711223E-03    1.6563623331E-03    1.6314323589E-03
    1.6068755755E-03    1.5826864411E-03    1.5588594951E-03    1.5353893573E-03
    1.5122707264E-03    1.4894983788E-03    1.4670671681E-03    1.4449720230E-03
    1.4232079471E-03    1.4017700174E-03    1.3806533831E-03    1.3598532651E-03
    1.3393649542E-03    1.3191838109E-03    1.2993052637E-03    1.2797248086E-03
    1.2604380078E-03    1.2414404890E-03    1.2227279441E-03    1.2042961288E-03
    1.1861408611E-03    1.1682580207E-03    1.1506435481E-03    1.1332934438E-03
    1.1162037671E-03    1.0993706356E-03    1.0827902241E-03    1.0664587638E-03
    1.0503725419E-03    1.0345278999E-03    1.0189212339E-03    1.0035489928E-03
    9.8840767827E-04    9.7349384353E-04    9.5880409281E-04    9.4433508058E-04
    9.3008351075E-04    9.1604613600E-04    9.0221975708E-04    8.8860122207E-04
    8.7518742570E-04    8.6197530869E-04    8.4896185705E-04    8.3614410144E-04
    8.2351911650E-04    8.1108402022E-04    7.9883597329E-04    7.8677217850E-04
    7.7488988011E-04    7.6318636323E-04    7.5165895324E-04    7.4030501519E-04
    7.2912195324E-04    7.1810721005E-04    7.0725826625E-04    6.9657263986E-04
    6.8604788575E-04    6.7568159512E-04    6.6547139491E-04    6.5541494736E-04
    6.4550994940E-04    6.3575413221E-04    6.2614526069E-04    6.1668113295E-04
    6.0735957986E-04    5.9817846454E-04    5.8913568188E-04    5.8022915809E-04
    5.7145685026E-04    5.6281674585E-04    5.5430686227E-04    5.4592524648E-04
    5.3766997447E-04    5.2953915092E-04    5.2153090872E-04    5.1364340856E-04
    5.0587483854E-04    4.9822341378E-04    4.9068737597E-04    4.8326499302E-04
    4.7595455865E-04    4.6875439204E-04    4.6166283741E-04    4.5467826371E-04
    4.4779906417E-04    4.4102365603E-04    4.3435048013E-04    4.2777800058E-04
    4.2130470442E-04    4.1492910127E-04    4.0864972299E-04    4.0246512338E-04
    3.9637387782E-04    3.9037458299E-04    3.8446585652E-04    3.7864633668E-04
    3.7291468211E-04    3.6726957149E-04    3.6170970325E-04    3.5623379526E-04
    3.5084058458E-04    3.4552882715E-04    3.4029729750E-04    3.3514478851E-04
    3.3007011110E-04    3.2507209399E-04    3.2014958342E-04    3.1530144290E-04
    3.1052655295E-04    3.0582381083E-04    3.0119213033E-04    2.9663044149E-04
    2.9213769039E-04    2.8771283886E-04    2.8335486432E-04    2.7906275947E-04
    2.7483553213E-04    2.7067220497E-04    2.6657181531E-04    2.6253341489E-04
    2.5855606969E-04    2.5463885965E-04    2.5078087854E-04    2.4698123370E-04
    2.4323904587E-04    2.3955344895E-04    2.3592358986E-04    2.3234862829E-04
    2.2882773657E-04    2.2536009942E-04    2.2194491381E-04    2.1858138874E-04
    2.1526874512E-04    2.1200621551E-04    2.0879304403E-04    2.0562848613E-04
    2.0251180844E-04    1.9944228861E-04    1.9641921513E-04    1.9344188718E-04
    1.9050961447E-04    1.8762171708E-04    1.8477752531E-04    1.8197637952E-04
    1.7921762998E-04    1.7650063673E-04    1.7382476941E-04    1.7118940718E-04
    1.6859393848E-04    1.6603776099E-04    1.6352028142E-04    1.6104091541E-04
    1.5859908739E-04    1.5619423045E-04    1.5382578620E-04    1.5149320465E-04
    1.4919594410E-04    1.4693347099E-04    1.4470525977E-04    1.4251079284E-04
    1.4034956035E-04    1.3822106016E-04    1.3612479767E-04    1.3406028571E-04
    1.3202704448E-04    1.3002460139E-04    1.2805249095E-04    1.2611025469E-04
    1.2419744107E-04    1.2231360531E-04    1.2045830937E-04    1.1863112177E-04
    1.1683161756E-04    1.1505937819E-04    1.1331399139E-04    1.1159505114E-04
    1.0990215752E-04    1.0823491663E-04    1.0659294053E-04    1.0497584710E-04
    1.0338326001E-04    1.0181480857E-04    1.0027012773E-04    9.8748857883E-05
    9.7250644890E-05    9.5775139936E-05    9.4321999469E-05    9.2890885119E-05
    9.1481463620E-05    9.0093406735E-05    8.8726391176E-05    8.7380098536E-05
    8.6054215210E-05    8.4748432328E-05    8.3462445679E-05    8.2195955642E-05
    8.0948667121E-05    7.9720289473E-05    7.8510536442E-05    7.7319126094E-05
    7.6145780751E-05    7.4990226926E-05    7.3852195265E-05    7.2731420477E-05
    7.1627641280E-05    7.0540600338E-05    6.9470044199E-05    6.8415723240E-05
    6.7377391610E-05    6.6354807172E-05    6.5347731444E-05    6.4355929549E-05
    6.3379170158E-05    6.2417225437E-05    6.1469870995E-05    6.0536885833E-05
    5.9618052289E-05    5.8713155992E-05    5.7821985812E-05    5.6944333807E-05
    5.6079995181E-05    5.5228768233E-05    5.4390454311E-05    5.3564857765E-05
    5.2751785905E-05    5.1951048953E-05    5.1162460001E-05    5.0385834967E-05
    4.9620992553E-05    4.8867754202E-05    4.8125944059E-05    4.7395388925E-05
    4.6675918226E-05    4.5967363964E-05    4.5269560683E-05    4.4582345431E-05
    4.3905557719E-05    4.3239039489E-05    4.2582635073E-05    4.1936191156E-05
    4.1299556747E-05    4.0672583136E-05    4.0055123865E-05    3.9447034692E-05
    3.8848173559E-05    3.8258400556E-05    3.7677577893E-05    3.7105569862E-05
    3.6542242813E-05    3.5987465115E-05    3.5441107135E-05    3.4903041197E-05
    3.4373141561E-05    3.3851284389E-05    3.3337347719E-05    3.2831211436E-05
    3.2332757243E-05    3.1841868634E-05    3.1358430867E-05    3.0882330939E-05
    3.0413457556E-05    2.9951701112E-05    2.9496953660E-05    2.9049108888E-05
    2.8608062094E-05    2.8173710160E-05    2.7745951534E-05    2.7324686200E-05
    2.6909815656E-05    2.6501242895E-05    2.6098872377E-05    2.5702610012E-05
    2.5312363132E-05    2.4928040476E-05    2.4549552166E-05    2.4176809684E-05
    2.3809725854E-05    2.3448214821E-05    2.3092192030E-05    2.2741574210E-05
    2.2396279349E-05    2.2056226681E-05    2.1721336662E-05    2.1391530953E-05
    2.1066732403E-05    2.0746865032E-05    2.0431854010E-05    2.0121625641E-05
    1.9816107348E-05    1.9515227653E-05    1.9218916160E-05    1.8927103543E-05
    1.8639721526E-05    1.8356702867E-05    1.8077981345E-05    1.7803491742E-05
    1.7533169830E-05    1.7266952354E-05    1.7004777017E-05    1.6746582469E-05
    1.6492308289E-05    1.6241894973E-05    1.5995283918E-05    1.5752417410E-05
    1.5513238612E-05    1.5277691547E-05    1.5045721088E-05    1.4817272944E-05
    1.4592293646E-05    1.4370730538E-05    1.4152531762E-05    1.3937646246E-05
    1.3726023694E-05    1.3517614571E-05    1.3312370095E-05    1.3110242222E-05
    1.2911183641E-05    1.2715147753E-05    1.2522088671E-05    1.2331961202E-05
    1.2144720837E-05    1.1960323746E-05    1.1778726760E-05    1.1599887367E-05
    1.1423763702E-05    1.1250314531E-05    1.1079499248E-05    1.0911277864E-05
    1.0745610994E-05    1.0582459853E-05    1.0421786245E-05    1.0263552550E-05
    1.0107721724E-05    9.9542572802E-06    9.8031232887E-06    9.6542843636E-06
    9.5077056563E-06    9.3633528473E-06    9.2211921377E-06    9.0811902415E-06
    8.9433143779E-06    8.8075322636E-06    8.6738121053E-06    8.5421225926E-06
    8.4124328899E-06    8.2847126298E-06    8.1589319059E-06    8.0350612654E-06
    7.9130717028E-06    7.7929346530E-06    7.6746219844E-06    7.5581059924E-06
    7.4433593931E-06    7.3303553165E-06    7.2190673005E-06    7.1094692850E-06
    7.0015356053E-06    6.8952409865E-06    6.7905605372E-06    6.6874697441E-06
 </PP_RHOATOM>
 <PP_SPIN_ORB>
   <PP_RELBETA.1  index="1"  lll="0" jjj="0.5"/>
   <PP_RELBETA.2  index="2"  lll="0" jjj="0.5"/>
   <PP_RELBETA.3  index="3"  lll="1" jjj="0.5"/>
   <PP_RELBETA.4  index="4"  lll="1" jjj="1.5"/>
   <PP_RELBETA.5  index="5"  lll="1" jjj="0.5"/>
   <PP_RELBETA.6  index="6"  lll="1" jjj="1.5"/>
   <PP_RELBETA.7  index="7"  lll="2" jjj="1.5"/>
   <PP_RELBETA.8  index="8"  lll="2" jjj="2.5"/>
   <PP_RELBETA.9  index="9"  lll="2" jjj="1.5"/>
   <PP_RELBETA.10 index="10" lll="2" jjj="2.5"/>
   <PP_RELWFC.1  index="1"  lchi="0" jchi="0.5" nn="1"/>
   <PP_RELWFC.2  index="2"  lchi="1" jchi="1.5" nn="2"/>
   <PP_RELWFC.3  index="3"  lchi="1" jchi="0.5" nn="2"/>
 </PP_SPIN_ORB>
</UPF>

