<UPF version="2.0.1">
  <PP_INFO>

 This pseudopotential file has been produced using the code
 ONCVPSP  (Optimized Norm-Conservinng Vanderbilt PSeudopotential)
 fully-relativistic version 4.0.1 06/20/2107 by D. R. Hamann
 The code is available through a link at URL www.mat-simresearch.com.
 Documentation with the package provides a full discription of the
 input data below.


 While it is not required under the terms of the GNU GPL, it is
 suggested that you cite D. R. Hamann, Phys. Rev. B 88, 085117 (2013)
 in any publication using these pseudopotentials.

    <PP_INPUTFILE>
# ATOM AND REFERENCE CONFIGURATION
# atsym  z   nc   nv     iexc    psfile
  He  2.00    0    1       4      upf
#
#   n    l    f        energy (Ha)
    1    0    2.00
#
# PSEUDOPOTENTIAL AND OPTIMIZATION
# lmax
    1
#
#   l,   rc,     ep,   ncon, nbas, qcut
    0   1.24687  -0.57931    4    9   8.56270
    1   1.13000   0.05000    4    7   8.65149
#
# LOCAL POTENTIAL
# lloc, lpopt,  rc(5),   dvloc0
    4    5   1.13000      0.00000
#
# VANDERBILT-KLEINMAN-BYLANDER PROJECTORs
# l, nproj, debl
    0    2   1.00000
    1    1   1.00000
#
# MODEL CORE CHARGE
# icmod, fcfact, rcfact
    0   0.00000   0.00000
#
# LOG DERIVATIVE ANALYSIS
# epsh1, epsh2, depsh
  -12.00   12.00    0.02
#
# OUTPUT GRID
# rlmax, drl
    6.00    0.01
#
# TEST CONFIGURATIONS
# ncnf
    0
# nvcnf
#   n    l    f
    </PP_INPUTFILE>
  </PP_INFO>
  <!--                               -->
  <!-- END OF HUMAN READABLE SECTION -->
  <!--                               -->
    <PP_HEADER
       generated="Generated using ONCVPSP code by D. R. Hamann"
       author="anonymous"
       date="260612"
       comment=""
       element="He"
       pseudo_type="NC"
       relativistic="full"
       is_ultrasoft="F"
       is_paw="F"
       is_coulomb="F"
       has_so="T"
       has_wfc="F"
       has_gipaw="F"
       core_correction="F"
       functional="PBE"
       z_valence="    2.00"
       total_psenergy="  -5.70657113348E+00"
       rho_cutoff="   7.27000000000E+00"
       l_max="1"
       l_local="-1"
       mesh_size="   728"
       number_of_wfc="1"
       number_of_proj="4"/>
 <PP_MESH>
   <PP_R type="real"  size=" 728" columns="8">
    0.0000    0.0100    0.0200    0.0300    0.0400    0.0500    0.0600    0.0700
    0.0800    0.0900    0.1000    0.1100    0.1200    0.1300    0.1400    0.1500
    0.1600    0.1700    0.1800    0.1900    0.2000    0.2100    0.2200    0.2300
    0.2400    0.2500    0.2600    0.2700    0.2800    0.2900    0.3000    0.3100
    0.3200    0.3300    0.3400    0.3500    0.3600    0.3700    0.3800    0.3900
    0.4000    0.4100    0.4200    0.4300    0.4400    0.4500    0.4600    0.4700
    0.4800    0.4900    0.5000    0.5100    0.5200    0.5300    0.5400    0.5500
    0.5600    0.5700    0.5800    0.5900    0.6000    0.6100    0.6200    0.6300
    0.6400    0.6500    0.6600    0.6700    0.6800    0.6900    0.7000    0.7100
    0.7200    0.7300    0.7400    0.7500    0.7600    0.7700    0.7800    0.7900
    0.8000    0.8100    0.8200    0.8300    0.8400    0.8500    0.8600    0.8700
    0.8800    0.8900    0.9000    0.9100    0.9200    0.9300    0.9400    0.9500
    0.9600    0.9700    0.9800    0.9900    1.0000    1.0100    1.0200    1.0300
    1.0400    1.0500    1.0600    1.0700    1.0800    1.0900    1.1000    1.1100
    1.1200    1.1300    1.1400    1.1500    1.1600    1.1700    1.1800    1.1900
    1.2000    1.2100    1.2200    1.2300    1.2400    1.2500    1.2600    1.2700
    1.2800    1.2900    1.3000    1.3100    1.3200    1.3300    1.3400    1.3500
    1.3600    1.3700    1.3800    1.3900    1.4000    1.4100    1.4200    1.4300
    1.4400    1.4500    1.4600    1.4700    1.4800    1.4900    1.5000    1.5100
    1.5200    1.5300    1.5400    1.5500    1.5600    1.5700    1.5800    1.5900
    1.6000    1.6100    1.6200    1.6300    1.6400    1.6500    1.6600    1.6700
    1.6800    1.6900    1.7000    1.7100    1.7200    1.7300    1.7400    1.7500
    1.7600    1.7700    1.7800    1.7900    1.8000    1.8100    1.8200    1.8300
    1.8400    1.8500    1.8600    1.8700    1.8800    1.8900    1.9000    1.9100
    1.9200    1.9300    1.9400    1.9500    1.9600    1.9700    1.9800    1.9900
    2.0000    2.0100    2.0200    2.0300    2.0400    2.0500    2.0600    2.0700
    2.0800    2.0900    2.1000    2.1100    2.1200    2.1300    2.1400    2.1500
    2.1600    2.1700    2.1800    2.1900    2.2000    2.2100    2.2200    2.2300
    2.2400    2.2500    2.2600    2.2700    2.2800    2.2900    2.3000    2.3100
    2.3200    2.3300    2.3400    2.3500    2.3600    2.3700    2.3800    2.3900
    2.4000    2.4100    2.4200    2.4300    2.4400    2.4500    2.4600    2.4700
    2.4800    2.4900    2.5000    2.5100    2.5200    2.5300    2.5400    2.5500
    2.5600    2.5700    2.5800    2.5900    2.6000    2.6100    2.6200    2.6300
    2.6400    2.6500    2.6600    2.6700    2.6800    2.6900    2.7000    2.7100
    2.7200    2.7300    2.7400    2.7500    2.7600    2.7700    2.7800    2.7900
    2.8000    2.8100    2.8200    2.8300    2.8400    2.8500    2.8600    2.8700
    2.8800    2.8900    2.9000    2.9100    2.9200    2.9300    2.9400    2.9500
    2.9600    2.9700    2.9800    2.9900    3.0000    3.0100    3.0200    3.0300
    3.0400    3.0500    3.0600    3.0700    3.0800    3.0900    3.1000    3.1100
    3.1200    3.1300    3.1400    3.1500    3.1600    3.1700    3.1800    3.1900
    3.2000    3.2100    3.2200    3.2300    3.2400    3.2500    3.2600    3.2700
    3.2800    3.2900    3.3000    3.3100    3.3200    3.3300    3.3400    3.3500
    3.3600    3.3700    3.3800    3.3900    3.4000    3.4100    3.4200    3.4300
    3.4400    3.4500    3.4600    3.4700    3.4800    3.4900    3.5000    3.5100
    3.5200    3.5300    3.5400    3.5500    3.5600    3.5700    3.5800    3.5900
    3.6000    3.6100    3.6200    3.6300    3.6400    3.6500    3.6600    3.6700
    3.6800    3.6900    3.7000    3.7100    3.7200    3.7300    3.7400    3.7500
    3.7600    3.7700    3.7800    3.7900    3.8000    3.8100    3.8200    3.8300
    3.8400    3.8500    3.8600    3.8700    3.8800    3.8900    3.9000    3.9100
    3.9200    3.9300    3.9400    3.9500    3.9600    3.9700    3.9800    3.9900
    4.0000    4.0100    4.0200    4.0300    4.0400    4.0500    4.0600    4.0700
    4.0800    4.0900    4.1000    4.1100    4.1200    4.1300    4.1400    4.1500
    4.1600    4.1700    4.1800    4.1900    4.2000    4.2100    4.2200    4.2300
    4.2400    4.2500    4.2600    4.2700    4.2800    4.2900    4.3000    4.3100
    4.3200    4.3300    4.3400    4.3500    4.3600    4.3700    4.3800    4.3900
    4.4000    4.4100    4.4200    4.4300    4.4400    4.4500    4.4600    4.4700
    4.4800    4.4900    4.5000    4.5100    4.5200    4.5300    4.5400    4.5500
    4.5600    4.5700    4.5800    4.5900    4.6000    4.6100    4.6200    4.6300
    4.6400    4.6500    4.6600    4.6700    4.6800    4.6900    4.7000    4.7100
    4.7200    4.7300    4.7400    4.7500    4.7600    4.7700    4.7800    4.7900
    4.8000    4.8100    4.8200    4.8300    4.8400    4.8500    4.8600    4.8700
    4.8800    4.8900    4.9000    4.9100    4.9200    4.9300    4.9400    4.9500
    4.9600    4.9700    4.9800    4.9900    5.0000    5.0100    5.0200    5.0300
    5.0400    5.0500    5.0600    5.0700    5.0800    5.0900    5.1000    5.1100
    5.1200    5.1300    5.1400    5.1500    5.1600    5.1700    5.1800    5.1900
    5.2000    5.2100    5.2200    5.2300    5.2400    5.2500    5.2600    5.2700
    5.2800    5.2900    5.3000    5.3100    5.3200    5.3300    5.3400    5.3500
    5.3600    5.3700    5.3800    5.3900    5.4000    5.4100    5.4200    5.4300
    5.4400    5.4500    5.4600    5.4700    5.4800    5.4900    5.5000    5.5100
    5.5200    5.5300    5.5400    5.5500    5.5600    5.5700    5.5800    5.5900
    5.6000    5.6100    5.6200    5.6300    5.6400    5.6500    5.6600    5.6700
    5.6800    5.6900    5.7000    5.7100    5.7200    5.7300    5.7400    5.7500
    5.7600    5.7700    5.7800    5.7900    5.8000    5.8100    5.8200    5.8300
    5.8400    5.8500    5.8600    5.8700    5.8800    5.8900    5.9000    5.9100
    5.9200    5.9300    5.9400    5.9500    5.9600    5.9700    5.9800    5.9900
    6.0000    6.0100    6.0200    6.0300    6.0400    6.0500    6.0600    6.0700
    6.0800    6.0900    6.1000    6.1100    6.1200    6.1300    6.1400    6.1500
    6.1600    6.1700    6.1800    6.1900    6.2000    6.2100    6.2200    6.2300
    6.2400    6.2500    6.2600    6.2700    6.2800    6.2900    6.3000    6.3100
    6.3200    6.3300    6.3400    6.3500    6.3600    6.3700    6.3800    6.3900
    6.4000    6.4100    6.4200    6.4300    6.4400    6.4500    6.4600    6.4700
    6.4800    6.4900    6.5000    6.5100    6.5200    6.5300    6.5400    6.5500
    6.5600    6.5700    6.5800    6.5900    6.6000    6.6100    6.6200    6.6300
    6.6400    6.6500    6.6600    6.6700    6.6800    6.6900    6.7000    6.7100
    6.7200    6.7300    6.7400    6.7500    6.7600    6.7700    6.7800    6.7900
    6.8000    6.8100    6.8200    6.8300    6.8400    6.8500    6.8600    6.8700
    6.8800    6.8900    6.9000    6.9100    6.9200    6.9300    6.9400    6.9500
    6.9600    6.9700    6.9800    6.9900    7.0000    7.0100    7.0200    7.0300
    7.0400    7.0500    7.0600    7.0700    7.0800    7.0900    7.1000    7.1100
    7.1200    7.1300    7.1400    7.1500    7.1600    7.1700    7.1800    7.1900
    7.2000    7.2100    7.2200    7.2300    7.2400    7.2500    7.2600    7.2700
   </PP_R>
   <PP_RAB type="real"  size=" 728" columns="8">
    0.0100    0.0100    0.0100    0.0100    0.0100    0.0100    0.0100    0.0100
    0.0100    0.0100    0.0100    0.0100    0.0100    0.0100    0.0100    0.0100
    0.0100    0.0100    0.0100    0.0100    0.0100    0.0100    0.0100    0.0100
    0.0100    0.0100    0.0100    0.0100    0.0100    0.0100    0.0100    0.0100
    0.0100    0.0100    0.0100    0.0100    0.0100    0.0100    0.0100    0.0100
    0.0100    0.0100    0.0100    0.0100    0.0100    0.0100    0.0100    0.0100
    0.0100    0.0100    0.0100    0.0100    0.0100    0.0100    0.0100    0.0100
    0.0100    0.0100    0.0100    0.0100    0.0100    0.0100    0.0100    0.0100
    0.0100    0.0100    0.0100    0.0100    0.0100    0.0100    0.0100    0.0100
    0.0100    0.0100    0.0100    0.0100    0.0100    0.0100    0.0100    0.0100
    0.0100    0.0100    0.0100    0.0100    0.0100    0.0100    0.0100    0.0100
    0.0100    0.0100    0.0100    0.0100    0.0100    0.0100    0.0100    0.0100
    0.0100    0.0100    0.0100    0.0100    0.0100    0.0100    0.0100    0.0100
    0.0100    0.0100    0.0100    0.0100    0.0100    0.0100    0.0100    0.0100
    0.0100    0.0100    0.0100    0.0100    0.0100    0.0100    0.0100    0.0100
    0.0100    0.0100    0.0100    0.0100    0.0100    0.0100    0.0100    0.0100
    0.0100    0.0100    0.0100    0.0100    0.0100    0.0100    0.0100    0.0100
    0.0100    0.0100    0.0100    0.0100    0.0100    0.0100    0.0100    0.0100
    0.0100    0.0100    0.0100    0.0100    0.0100    0.0100    0.0100    0.0100
    0.0100    0.0100    0.0100    0.0100    0.0100    0.0100    0.0100    0.0100
    0.0100    0.0100    0.0100    0.0100    0.0100    0.0100    0.0100    0.0100
    0.0100    0.0100    0.0100    0.0100    0.0100    0.0100    0.0100    0.0100
    0.0100    0.0100    0.0100    0.0100    0.0100    0.0100    0.0100    0.0100
    0.0100    0.0100    0.0100    0.0100    0.0100    0.0100    0.0100    0.0100
    0.0100    0.0100    0.0100    0.0100    0.0100    0.0100    0.0100    0.0100
    0.0100    0.0100    0.0100    0.0100    0.0100    0.0100    0.0100    0.0100
    0.0100    0.0100    0.0100    0.0100    0.0100    0.0100    0.0100    0.0100
    0.0100    0.0100    0.0100    0.0100    0.0100    0.0100    0.0100    0.0100
    0.0100    0.0100    0.0100    0.0100    0.0100    0.0100    0.0100    0.0100
    0.0100    0.0100    0.0100    0.0100    0.0100    0.0100    0.0100    0.0100
    0.0100    0.0100    0.0100    0.0100    0.0100    0.0100    0.0100    0.0100
    0.0100    0.0100    0.0100    0.0100    0.0100    0.0100    0.0100    0.0100
    0.0100    0.0100    0.0100    0.0100    0.0100    0.0100    0.0100    0.0100
    0.0100    0.0100    0.0100    0.0100    0.0100    0.0100    0.0100    0.0100
    0.0100    0.0100    0.0100    0.0100    0.0100    0.0100    0.0100    0.0100
    0.0100    0.0100    0.0100    0.0100    0.0100    0.0100    0.0100    0.0100
    0.0100    0.0100    0.0100    0.0100    0.0100    0.0100    0.0100    0.0100
    0.0100    0.0100    0.0100    0.0100    0.0100    0.0100    0.0100    0.0100
    0.0100    0.0100    0.0100    0.0100    0.0100    0.0100    0.0100    0.0100
    0.0100    0.0100    0.0100    0.0100    0.0100    0.0100    0.0100    0.0100
    0.0100    0.0100    0.0100    0.0100    0.0100    0.0100    0.0100    0.0100
    0.0100    0.0100    0.0100    0.0100    0.0100    0.0100    0.0100    0.0100
    0.0100    0.0100    0.0100    0.0100    0.0100    0.0100    0.0100    0.0100
    0.0100    0.0100    0.0100    0.0100    0.0100    0.0100    0.0100    0.0100
    0.0100    0.0100    0.0100    0.0100    0.0100    0.0100    0.0100    0.0100
    0.0100    0.0100    0.0100    0.0100    0.0100    0.0100    0.0100    0.0100
    0.0100    0.0100    0.0100    0.0100    0.0100    0.0100    0.0100    0.0100
    0.0100    0.0100    0.0100    0.0100    0.0100    0.0100    0.0100    0.0100
    0.0100    0.0100    0.0100    0.0100    0.0100    0.0100    0.0100    0.0100
    0.0100    0.0100    0.0100    0.0100    0.0100    0.0100    0.0100    0.0100
    0.0100    0.0100    0.0100    0.0100    0.0100    0.0100    0.0100    0.0100
    0.0100    0.0100    0.0100    0.0100    0.0100    0.0100    0.0100    0.0100
    0.0100    0.0100    0.0100    0.0100    0.0100    0.0100    0.0100    0.0100
    0.0100    0.0100    0.0100    0.0100    0.0100    0.0100    0.0100    0.0100
    0.0100    0.0100    0.0100    0.0100    0.0100    0.0100    0.0100    0.0100
    0.0100    0.0100    0.0100    0.0100    0.0100    0.0100    0.0100    0.0100
    0.0100    0.0100    0.0100    0.0100    0.0100    0.0100    0.0100    0.0100
    0.0100    0.0100    0.0100    0.0100    0.0100    0.0100    0.0100    0.0100
    0.0100    0.0100    0.0100    0.0100    0.0100    0.0100    0.0100    0.0100
    0.0100    0.0100    0.0100    0.0100    0.0100    0.0100    0.0100    0.0100
    0.0100    0.0100    0.0100    0.0100    0.0100    0.0100    0.0100    0.0100
    0.0100    0.0100    0.0100    0.0100    0.0100    0.0100    0.0100    0.0100
    0.0100    0.0100    0.0100    0.0100    0.0100    0.0100    0.0100    0.0100
    0.0100    0.0100    0.0100    0.0100    0.0100    0.0100    0.0100    0.0100
    0.0100    0.0100    0.0100    0.0100    0.0100    0.0100    0.0100    0.0100
    0.0100    0.0100    0.0100    0.0100    0.0100    0.0100    0.0100    0.0100
    0.0100    0.0100    0.0100    0.0100    0.0100    0.0100    0.0100    0.0100
    0.0100    0.0100    0.0100    0.0100    0.0100    0.0100    0.0100    0.0100
    0.0100    0.0100    0.0100    0.0100    0.0100    0.0100    0.0100    0.0100
    0.0100    0.0100    0.0100    0.0100    0.0100    0.0100    0.0100    0.0100
    0.0100    0.0100    0.0100    0.0100    0.0100    0.0100    0.0100    0.0100
    0.0100    0.0100    0.0100    0.0100    0.0100    0.0100    0.0100    0.0100
    0.0100    0.0100    0.0100    0.0100    0.0100    0.0100    0.0100    0.0100
    0.0100    0.0100    0.0100    0.0100    0.0100    0.0100    0.0100    0.0100
    0.0100    0.0100    0.0100    0.0100    0.0100    0.0100    0.0100    0.0100
    0.0100    0.0100    0.0100    0.0100    0.0100    0.0100    0.0100    0.0100
    0.0100    0.0100    0.0100    0.0100    0.0100    0.0100    0.0100    0.0100
    0.0100    0.0100    0.0100    0.0100    0.0100    0.0100    0.0100    0.0100
    0.0100    0.0100    0.0100    0.0100    0.0100    0.0100    0.0100    0.0100
    0.0100    0.0100    0.0100    0.0100    0.0100    0.0100    0.0100    0.0100
    0.0100    0.0100    0.0100    0.0100    0.0100    0.0100    0.0100    0.0100
    0.0100    0.0100    0.0100    0.0100    0.0100    0.0100    0.0100    0.0100
    0.0100    0.0100    0.0100    0.0100    0.0100    0.0100    0.0100    0.0100
    0.0100    0.0100    0.0100    0.0100    0.0100    0.0100    0.0100    0.0100
    0.0100    0.0100    0.0100    0.0100    0.0100    0.0100    0.0100    0.0100
    0.0100    0.0100    0.0100    0.0100    0.0100    0.0100    0.0100    0.0100
    0.0100    0.0100    0.0100    0.0100    0.0100    0.0100    0.0100    0.0100
    0.0100    0.0100    0.0100    0.0100    0.0100    0.0100    0.0100    0.0100
    0.0100    0.0100    0.0100    0.0100    0.0100    0.0100    0.0100    0.0100
    0.0100    0.0100    0.0100    0.0100    0.0100    0.0100    0.0100    0.0100
    0.0100    0.0100    0.0100    0.0100    0.0100    0.0100    0.0100    0.0100
   </PP_RAB>
 </PP_MESH>
  <PP_LOCAL type="real"  size=" 728" columns="4">
   -7.9948428267E+00   -7.9937603947E+00   -7.9905184013E+00   -7.9851327801E+00
   -7.9776296283E+00   -7.9680445778E+00   -7.9564219493E+00   -7.9428137361E+00
   -7.9272784688E+00   -7.9098800075E+00   -7.8906863146E+00   -7.8697682523E+00
   -7.8471984470E+00   -7.8230502528E+00   -7.7973968377E+00   -7.7703104100E+00
   -7.7418615898E+00   -7.7121189265E+00   -7.6811485549E+00   -7.6490139773E+00
   -7.6157759573E+00   -7.5814925064E+00   -7.5462189456E+00   -7.5100080230E+00
   -7.4729100703E+00   -7.4349731815E+00   -7.3962434008E+00   -7.3567649071E+00
   -7.3165801862E+00   -7.2757301832E+00   -7.2342544299E+00   -7.1921911454E+00
   -7.1495773069E+00   -7.1064486921E+00   -7.0628398952E+00   -7.0187843183E+00
   -6.9743141415E+00   -6.9294602780E+00   -6.8842523154E+00   -6.8387184516E+00
   -6.7928854273E+00   -6.7467784617E+00   -6.7004211953E+00   -6.6538356433E+00
   -6.6070421654E+00   -6.5600594528E+00   -6.5129045362E+00   -6.4655928164E+00
   -6.4181381189E+00   -6.3705527719E+00   -6.3228477082E+00   -6.2750325891E+00
   -6.2271159484E+00   -6.1791053545E+00   -6.1310075867E+00   -6.0828288217E+00
   -6.0345748275E+00   -5.9862511588E+00   -5.9378633508E+00   -5.8894171063E+00
   -5.8409184713E+00   -5.7923739969E+00   -5.7437908819E+00   -5.6951770950E+00
   -5.6465414730E+00   -5.5978937938E+00   -5.5492448235E+00   -5.5006063373E+00
   -5.4519911144E+00   -5.4034129091E+00   -5.3548863985E+00   -5.3064271116E+00
   -5.2580513397E+00   -5.2097760341E+00   -5.1616186933E+00   -5.1135972431E+00
   -5.0657299142E+00   -5.0180351193E+00   -4.9705313348E+00   -4.9232369879E+00
   -4.8761703527E+00   -4.8293494568E+00   -4.7827919999E+00   -4.7365152845E+00
   -4.6905361592E+00   -4.6448709745E+00   -4.5995355498E+00   -4.5545451510E+00
   -4.5099144766E+00   -4.4656576517E+00   -4.4217882288E+00   -4.3783191931E+00
   -4.3352629728E+00   -4.2926314528E+00   -4.2504359932E+00   -4.2086874507E+00
   -4.1673962045E+00   -4.1265721877E+00   -4.0862249214E+00   -4.0463635547E+00
   -4.0069969065E+00   -3.9681335087E+00   -3.9297816462E+00   -3.8919493909E+00
   -3.8546446224E+00   -3.8178750289E+00   -3.7816480823E+00   -3.7459709772E+00
   -3.7108505294E+00   -3.6762930248E+00   -3.6423040160E+00   -3.6088880644E+00
   -3.5760484282E+00   -3.5437867039E+00   -3.5121024897E+00   -3.4809938234E+00
   -3.4504577253E+00   -3.4204898904E+00   -3.3910843115E+00   -3.3622329575E+00
   -3.3339255163E+00   -3.3061492806E+00   -3.2788891258E+00   -3.2521275403E+00
   -3.2258448639E+00   -3.2000193860E+00   -3.1746221965E+00   -3.1496247541E+00
   -3.1250181335E+00   -3.1007929662E+00   -3.0769405002E+00   -3.0534521978E+00
   -3.0303197823E+00   -3.0075352262E+00   -2.9850907412E+00   -2.9629787703E+00
   -2.9411919783E+00   -2.9197232446E+00   -2.8985656545E+00   -2.8777124928E+00
   -2.8571572358E+00   -2.8368935450E+00   -2.8169152605E+00   -2.7972163947E+00
   -2.7777911262E+00   -2.7586337943E+00   -2.7397388935E+00   -2.7211010679E+00
   -2.7027151064E+00   -2.6845759380E+00   -2.6666786266E+00   -2.6490183672E+00
   -2.6315904810E+00   -2.6143904116E+00   -2.5974137211E+00   -2.5806560859E+00
   -2.5641132933E+00   -2.5477812381E+00   -2.5316559190E+00   -2.5157334351E+00
   -2.5000099834E+00   -2.4844818551E+00   -2.4691454331E+00   -2.4539971890E+00
   -2.4390336807E+00   -2.4242515492E+00   -2.4096475166E+00   -2.3952183836E+00
   -2.3809610269E+00   -2.3668723973E+00   -2.3529495172E+00   -2.3391894787E+00
   -2.3255894417E+00   -2.3121466314E+00   -2.2988583372E+00   -2.2857219101E+00
   -2.2727347616E+00   -2.2598943615E+00   -2.2471982365E+00   -2.2346439686E+00
   -2.2222291936E+00   -2.2099515994E+00   -2.1978089248E+00   -2.1857989581E+00
   -2.1739195355E+00   -2.1621685401E+00   -2.1505439006E+00   -2.1390435897E+00
   -2.1276656237E+00   -2.1164080606E+00   -2.1052689991E+00   -2.0942465781E+00
   -2.0833389752E+00   -2.0725444054E+00   -2.0618611210E+00   -2.0512874099E+00
   -2.0408215949E+00   -2.0304620330E+00   -2.0202071142E+00   -2.0100552611E+00
   -2.0000049277E+00   -1.9900545987E+00   -1.9802027890E+00   -1.9704480426E+00
   -1.9607889322E+00   -1.9512240581E+00   -1.9417520480E+00   -1.9323715561E+00
   -1.9230812624E+00   -1.9138798722E+00   -1.9047661154E+00   -1.8957387461E+00
   -1.8867965417E+00   -1.8779383029E+00   -1.8691628525E+00   -1.8604690352E+00
   -1.8518557175E+00   -1.8433217862E+00   -1.8348661490E+00   -1.8264877332E+00
   -1.8181854860E+00   -1.8099583733E+00   -1.8018053798E+00   -1.7937255084E+00
   -1.7857177797E+00   -1.7777812318E+00   -1.7699149199E+00   -1.7621179156E+00
   -1.7543893071E+00   -1.7467281984E+00   -1.7391337089E+00   -1.7316049735E+00
   -1.7241411419E+00   -1.7167413784E+00   -1.7094048617E+00   -1.7021307842E+00
   -1.6949183523E+00   -1.6877667857E+00   -1.6806753170E+00   -1.6736431920E+00
   -1.6666696688E+00   -1.6597540178E+00   -1.6528955218E+00   -1.6460934750E+00
   -1.6393471834E+00   -1.6326559643E+00   -1.6260191459E+00   -1.6194360676E+00
   -1.6129060793E+00   -1.6064285413E+00   -1.6000028242E+00   -1.5936283086E+00
   -1.5873043849E+00   -1.5810304532E+00   -1.5748059231E+00   -1.5686302133E+00
   -1.5625027518E+00   -1.5564229752E+00   -1.5503903291E+00   -1.5444042675E+00
   -1.5384642530E+00   -1.5325697563E+00   -1.5267202560E+00   -1.5209152390E+00
   -1.5151541998E+00   -1.5094366404E+00   -1.5037620705E+00   -1.4981300070E+00
   -1.4925399741E+00   -1.4869915030E+00   -1.4814841320E+00   -1.4760174061E+00
   -1.4705908768E+00   -1.4652041025E+00   -1.4598566480E+00   -1.4545480842E+00
   -1.4492779884E+00   -1.4440459440E+00   -1.4388515404E+00   -1.4336943727E+00
   -1.4285740421E+00   -1.4234901552E+00   -1.4184423244E+00   -1.4134301673E+00
   -1.4084533072E+00   -1.4035113725E+00   -1.3986039968E+00   -1.3937308189E+00
   -1.3888914825E+00   -1.3840856364E+00   -1.3793129341E+00   -1.3745730338E+00
   -1.3698655987E+00   -1.3651902962E+00   -1.3605467984E+00   -1.3559347820E+00
   -1.3513539278E+00   -1.3468039210E+00   -1.3422844512E+00   -1.3377952119E+00
   -1.3333359008E+00   -1.3289062197E+00   -1.3245058741E+00   -1.3201345736E+00
   -1.3157920316E+00   -1.3114779652E+00   -1.3071920953E+00   -1.3029341462E+00
   -1.2987038460E+00   -1.2945009264E+00   -1.2903251222E+00   -1.2861761721E+00
   -1.2820538176E+00   -1.2779578039E+00   -1.2738878794E+00   -1.2698437956E+00
   -1.2658253072E+00   -1.2618321718E+00   -1.2578641504E+00   -1.2539210068E+00
   -1.2500025077E+00   -1.2461084228E+00   -1.2422385246E+00   -1.2383925885E+00
   -1.2345703926E+00   -1.2307717178E+00   -1.2269963477E+00   -1.2232440684E+00
   -1.2195146686E+00   -1.2158079399E+00   -1.2121236761E+00   -1.2084616735E+00
   -1.2048217311E+00   -1.2012036501E+00   -1.1976072341E+00   -1.1940322891E+00
   -1.1904786234E+00   -1.1869460476E+00   -1.1834343744E+00   -1.1799434190E+00
   -1.1764729985E+00   -1.1730229322E+00   -1.1695930416E+00   -1.1661831503E+00
   -1.1627930838E+00   -1.1594226697E+00   -1.1560717377E+00   -1.1527401192E+00
   -1.1494276479E+00   -1.1461341591E+00   -1.1428594901E+00   -1.1396034801E+00
   -1.1363659700E+00   -1.1331468026E+00   -1.1299458225E+00   -1.1267628760E+00
   -1.1235978111E+00   -1.1204504776E+00   -1.1173207267E+00   -1.1142084118E+00
   -1.1111133873E+00   -1.1080355097E+00   -1.1049746369E+00   -1.1019306282E+00
   -1.0989033448E+00   -1.0958926491E+00   -1.0928984052E+00   -1.0899204786E+00
   -1.0869587364E+00   -1.0840130468E+00   -1.0810832797E+00   -1.0781693065E+00
   -1.0752709997E+00   -1.0723882333E+00   -1.0695208827E+00   -1.0666688246E+00
   -1.0638319369E+00   -1.0610100989E+00   -1.0582031912E+00   -1.0554110956E+00
   -1.0526336951E+00   -1.0498708741E+00   -1.0471225181E+00   -1.0443885137E+00
   -1.0416687488E+00   -1.0389631125E+00   -1.0362714950E+00   -1.0335937876E+00
   -1.0309298827E+00   -1.0282796740E+00   -1.0256430559E+00   -1.0230199244E+00
   -1.0204101761E+00   -1.0178137089E+00   -1.0152304217E+00   -1.0126602144E+00
   -1.0101029878E+00   -1.0075586440E+00   -1.0050270857E+00   -1.0025082169E+00
   -1.0000019424E+00   -9.9750816795E-01   -9.9502680029E-01   -9.9255774707E-01
   -9.9010091683E-01   -9.8765621904E-01   -9.8522356405E-01   -9.8280286309E-01
   -9.8039402827E-01   -9.7799697255E-01   -9.7561160975E-01   -9.7323785450E-01
   -9.7087562230E-01   -9.6852482944E-01   -9.6618539303E-01   -9.6385723098E-01
   -9.6154026198E-01   -9.5923440550E-01   -9.5693958179E-01   -9.5465571186E-01
   -9.5238271748E-01   -9.5012052113E-01   -9.4786904606E-01   -9.4562821624E-01
   -9.4339795633E-01   -9.4117819174E-01   -9.3896884856E-01   -9.3676985355E-01
   -9.3458113420E-01   -9.3240261865E-01   -9.3023423570E-01   -9.2807591483E-01
   -9.2592758616E-01   -9.2378918047E-01   -9.2166062916E-01   -9.1954186427E-01
   -9.1743281847E-01   -9.1533342504E-01   -9.1324361785E-01   -9.1116333141E-01
   -9.0909250080E-01   -9.0703106170E-01   -9.0497895036E-01   -9.0293610361E-01
   -9.0090245886E-01   -8.9887795408E-01   -8.9686252778E-01   -8.9485611903E-01
   -8.9285866745E-01   -8.9087011320E-01   -8.8889039695E-01   -8.8691945992E-01
   -8.8495724385E-01   -8.8300369096E-01   -8.8105874403E-01   -8.7912234631E-01
   -8.7719444155E-01   -8.7527497401E-01   -8.7336388841E-01   -8.7146112997E-01
   -8.6956664440E-01   -8.6768037784E-01   -8.6580227693E-01   -8.6393228877E-01
   -8.6207036089E-01   -8.6021644130E-01   -8.5837047845E-01   -8.5653242121E-01
   -8.5470221892E-01   -8.5287982132E-01   -8.5106517861E-01   -8.4925824138E-01
   -8.4745896067E-01   -8.4566728790E-01   -8.4388317494E-01   -8.4210657403E-01
   -8.4033743783E-01   -8.3857571939E-01   -8.3682137216E-01   -8.3507434997E-01
   -8.3333460704E-01   -8.3160209797E-01   -8.2987677773E-01   -8.2815860168E-01
   -8.2644752554E-01   -8.2474350538E-01   -8.2304649765E-01   -8.2135645915E-01
   -8.1967334705E-01   -8.1799711884E-01   -8.1632773238E-01   -8.1466514588E-01
   -8.1300931786E-01   -8.1136020719E-01   -8.0971777310E-01   -8.0808197510E-01
   -8.0645277307E-01   -8.0483012719E-01   -8.0321399797E-01   -8.0160434622E-01
   -8.0000113309E-01   -7.9840432001E-01   -7.9681386874E-01   -7.9522974135E-01
   -7.9365190017E-01   -7.9208030789E-01   -7.9051492743E-01   -7.8895572205E-01
   -7.8740265529E-01   -7.8585569095E-01   -7.8431479315E-01   -7.8277992626E-01
   -7.8125105496E-01   -7.7972814418E-01   -7.7821115913E-01   -7.7670006529E-01
   -7.7519482841E-01   -7.7369541450E-01   -7.7220178985E-01   -7.7071392098E-01
   -7.6923177470E-01   -7.6775531804E-01   -7.6628451832E-01   -7.6481934307E-01
   -7.6335976011E-01   -7.6190573747E-01   -7.6045724345E-01   -7.5901424656E-01
   -7.5757671558E-01   -7.5614461951E-01   -7.5471792759E-01   -7.5329660928E-01
   -7.5188063428E-01   -7.5046997252E-01   -7.4906459414E-01   -7.4766446953E-01
   -7.4626956927E-01   -7.4487986418E-01   -7.4349532529E-01   -7.4211592384E-01
   -7.4074163130E-01   -7.3937241934E-01   -7.3800825982E-01   -7.3664912485E-01
   -7.3529498670E-01   -7.3394581788E-01   -7.3260159109E-01   -7.3126227920E-01
   -7.2992785533E-01   -7.2859829276E-01   -7.2727356497E-01   -7.2595364564E-01
   -7.2463850863E-01   -7.2332812801E-01   -7.2202247802E-01   -7.2072153308E-01
   -7.1942526782E-01   -7.1813365701E-01   -7.1684667565E-01   -7.1556429888E-01
   -7.1428650204E-01   -7.1301326063E-01   -7.1174455035E-01   -7.1048034704E-01
   -7.0922062673E-01   -7.0796536562E-01   -7.0671454007E-01   -7.0546812661E-01
   -7.0422610195E-01   -7.0298844294E-01   -7.0175512660E-01   -7.0052613012E-01
   -6.9930143084E-01   -6.9808100627E-01   -6.9686483405E-01   -6.9565289201E-01
   -6.9444515812E-01   -6.9324161049E-01   -6.9204222739E-01   -6.9084698725E-01
   -6.8965586865E-01   -6.8846885028E-01   -6.8728591104E-01   -6.8610702991E-01
   -6.8493218606E-01   -6.8376135878E-01   -6.8259452750E-01   -6.8143167182E-01
   -6.8027277143E-01   -6.7911780621E-01   -6.7796675613E-01   -6.7681960133E-01
   -6.7567632205E-01   -6.7453689871E-01   -6.7340131182E-01   -6.7226954204E-01
   -6.7114157016E-01   -6.7001737709E-01   -6.6889694387E-01   -6.6778025168E-01
   -6.6666728180E-01   -6.6555801566E-01   -6.6445243481E-01   -6.6335052090E-01
   -6.6225225572E-01   -6.6115762118E-01   -6.6006659931E-01   -6.5897917225E-01
   -6.5789532226E-01   -6.5681503173E-01   -6.5573828314E-01   -6.5466505911E-01
   -6.5359534236E-01   -6.5252911572E-01   -6.5146636215E-01   -6.5040706470E-01
   -6.4935120653E-01   -6.4829877093E-01   -6.4724974128E-01   -6.4620410108E-01
   -6.4516183392E-01   -6.4412292351E-01   -6.4308735366E-01   -6.4205510828E-01
   -6.4102617139E-01   -6.4000052711E-01   -6.3897815966E-01   -6.3795905336E-01
   -6.3694319264E-01   -6.3593056200E-01   -6.3492114608E-01   -6.3391492959E-01
   -6.3291189733E-01   -6.3191203423E-01   -6.3091532527E-01   -6.2992175557E-01
   -6.2893131032E-01   -6.2794397479E-01   -6.2695973437E-01   -6.2597857452E-01
   -6.2500048081E-01   -6.2402543889E-01   -6.2305343449E-01   -6.2208445344E-01
   -6.2111848166E-01   -6.2015550516E-01   -6.1919551001E-01   -6.1823848241E-01
   -6.1728440860E-01   -6.1633327494E-01   -6.1538506786E-01   -6.1443977386E-01
   -6.1349737955E-01   -6.1255787161E-01   -6.1162123679E-01   -6.1068746193E-01
   -6.0975653396E-01   -6.0882843987E-01   -6.0790316675E-01   -6.0698070175E-01
   -6.0606103212E-01   -6.0514414515E-01   -6.0423002825E-01   -6.0331866887E-01
   -6.0241005456E-01   -6.0150417294E-01   -6.0060101170E-01   -5.9970055859E-01
   -5.9880280147E-01   -5.9790772823E-01   -5.9701532686E-01   -5.9612558542E-01
   -5.9523849203E-01   -5.9435403488E-01   -5.9347220225E-01   -5.9259298247E-01
   -5.9171636394E-01   -5.9084233513E-01   -5.8997088459E-01   -5.8910200093E-01
   -5.8823567282E-01   -5.8737188900E-01   -5.8651063828E-01   -5.8565190954E-01
   -5.8479569171E-01   -5.8394197380E-01   -5.8309074487E-01   -5.8224199405E-01
   -5.8139571055E-01   -5.8055188361E-01   -5.7971050256E-01   -5.7887155678E-01
   -5.7803503571E-01   -5.7720092885E-01   -5.7636922576E-01   -5.7553991608E-01
   -5.7471298948E-01   -5.7388843571E-01   -5.7306624457E-01   -5.7224640592E-01
   -5.7142890967E-01   -5.7061374581E-01   -5.6980090436E-01   -5.6899037542E-01
   -5.6818214913E-01   -5.6737621569E-01   -5.6657256535E-01   -5.6577118844E-01
   -5.6497207532E-01   -5.6417521640E-01   -5.6338060217E-01   -5.6258822316E-01
   -5.6179806993E-01   -5.6101013314E-01   -5.6022440347E-01   -5.5944087165E-01
   -5.5865952847E-01   -5.5788036479E-01   -5.5710337150E-01   -5.5632853953E-01
   -5.5555585988E-01   -5.5478532360E-01   -5.5401692178E-01   -5.5325064557E-01
   -5.5248648615E-01   -5.5172443477E-01   -5.5096448272E-01   -5.5020662133E-01
  </PP_LOCAL>
 <PP_NONLOCAL>
   <PP_BETA.1
       type="real"
       size=" 728"
       columns="4"
       index="1"
       angular_momentum="0"
       cutoff_radius_index=" 132"
       cutoff_radius="    1.3100000000E+00" >
   -1.2869659671E-08    9.5748217001E-02    1.9118688970E-01    2.8600890509E-01
    3.7991193303E-01    4.7260062192E-01    5.6378856945E-01    6.5320000932E-01
    7.4057116811E-01    8.2565126098E-01    9.0820311184E-01    9.8800340070E-01
    1.0648425582E+00    1.1385243439E+00    1.2088651606E+00    1.2756931679E+00
    1.3388472719E+00    1.3981760703E+00    1.4535368394E+00    1.5047946465E+00
    1.5518216668E+00    1.5944967778E+00    1.6327054873E+00    1.6663402431E+00
    1.6953011478E+00    1.7194970878E+00    1.7388472619E+00    1.7532830766E+00
    1.7627503513E+00    1.7672117620E+00    1.7666494333E+00    1.7610675731E+00
    1.7504950402E+00    1.7349877231E+00    1.7146306124E+00    1.6895394497E+00
    1.6598618471E+00    1.6257777835E+00    1.5874994024E+00    1.5452700556E+00
    1.4993625660E+00    1.4500767043E+00    1.3977359070E+00    1.3426832892E+00
    1.2852770341E+00    1.2258852672E+00    1.1648805457E+00    1.1026341134E+00
    1.0395100849E+00    9.7585973337E-01    9.1201605820E-01    8.4828880641E-01
    7.8496011294E-01    7.2228090878E-01    6.6046822541E-01    5.9970349733E-01
    5.4013193395E-01    4.8186299783E-01    4.2497198959E-01    3.6950270232E-01
    3.1547107067E-01    2.6286970386E-01    2.1167315853E-01    1.6184377845E-01
    1.1333790377E-01    6.6112234911E-02    2.0130125190E-02   -2.4632427171E-02
   -6.8181312561E-02   -1.1049958173E-01   -1.5154364858E-01   -1.9124058982E-01
   -2.2948667380E-01   -2.6614721229E-01   -3.0105778546E-01   -3.3402684502E-01
   -3.6483965273E-01   -3.9326346475E-01   -4.1905382713E-01   -4.4196180554E-01
   -4.6174193580E-01   -4.7816065081E-01   -4.9100491598E-01   -5.0009079047E-01
   -5.0527162530E-01   -5.0644561300E-01   -5.0356241593E-01   -4.9662862304E-01
   -4.8571181527E-01   -4.7094305875E-01   -4.5251769025E-01   -4.3069431055E-01
   -4.0579195575E-01   -3.7818547361E-01   -3.4829918928E-01   -3.1659900007E-01
   -2.8358309160E-01   -2.4977151460E-01   -2.1569490198E-01   -1.8188263847E-01
   -1.4885081786E-01   -1.1709033591E-01   -8.7055469118E-02   -5.9153280839E-02
   -3.3734176591E-02   -1.1083900638E-02    8.5827735961E-03    2.5126454291E-02
    3.8485492985E-02    4.8676207004E-02    5.5790935682E-02    5.9993968408E-02
    6.1515446575E-02    6.0643405180E-02    5.7714219736E-02    5.3102313291E-02
    4.7208987975E-02    4.0449952550E-02    3.3242449899E-02    2.5992480691E-02
    1.9084384754E-02    1.2865591582E-02    7.6358022118E-03    3.6405956576E-03
    1.0570319525E-03    3.8192513684E-05    2.9926918239E-06   -1.1590937885E-06
    5.7768680615E-12    0.0000000000E+00    0.0000000000E+00    0.0000000000E+00
 0. 0. 0. 0.
 0. 0. 0. 0.
 0. 0. 0. 0.
 0. 0. 0. 0.
 0. 0. 0. 0.
 0. 0. 0. 0.
 0. 0. 0. 0.
 0. 0. 0. 0.
 0. 0. 0. 0.
 0. 0. 0. 0.
 0. 0. 0. 0.
 0. 0. 0. 0.
 0. 0. 0. 0.
 0. 0. 0. 0.
 0. 0. 0. 0.
 0. 0. 0. 0.
 0. 0. 0. 0.
 0. 0. 0. 0.
 0. 0. 0. 0.
 0. 0. 0. 0.
 0. 0. 0. 0.
 0. 0. 0. 0.
 0. 0. 0. 0.
 0. 0. 0. 0.
 0. 0. 0. 0.
 0. 0. 0. 0.
 0. 0. 0. 0.
 0. 0. 0. 0.
 0. 0. 0. 0.
 0. 0. 0. 0.
 0. 0. 0. 0.
 0. 0. 0. 0.
 0. 0. 0. 0.
 0. 0. 0. 0.
 0. 0. 0. 0.
 0. 0. 0. 0.
 0. 0. 0. 0.
 0. 0. 0. 0.
 0. 0. 0. 0.
 0. 0. 0. 0.
 0. 0. 0. 0.
 0. 0. 0. 0.
 0. 0. 0. 0.
 0. 0. 0. 0.
 0. 0. 0. 0.
 0. 0. 0. 0.
 0. 0. 0. 0.
 0. 0. 0. 0.
 0. 0. 0. 0.
 0. 0. 0. 0.
 0. 0. 0. 0.
 0. 0. 0. 0.
 0. 0. 0. 0.
 0. 0. 0. 0.
 0. 0. 0. 0.
 0. 0. 0. 0.
 0. 0. 0. 0.
 0. 0. 0. 0.
 0. 0. 0. 0.
 0. 0. 0. 0.
 0. 0. 0. 0.
 0. 0. 0. 0.
 0. 0. 0. 0.
 0. 0. 0. 0.
 0. 0. 0. 0.
 0. 0. 0. 0.
 0. 0. 0. 0.
 0. 0. 0. 0.
 0. 0. 0. 0.
 0. 0. 0. 0.
 0. 0. 0. 0.
 0. 0. 0. 0.
 0. 0. 0. 0.
 0. 0. 0. 0.
 0. 0. 0. 0.
 0. 0. 0. 0.
 0. 0. 0. 0.
 0. 0. 0. 0.
 0. 0. 0. 0.
 0. 0. 0. 0.
 0. 0. 0. 0.
 0. 0. 0. 0.
 0. 0. 0. 0.
 0. 0. 0. 0.
 0. 0. 0. 0.
 0. 0. 0. 0.
 0. 0. 0. 0.
 0. 0. 0. 0.
 0. 0. 0. 0.
 0. 0. 0. 0.
 0. 0. 0. 0.
 0. 0. 0. 0.
 0. 0. 0. 0.
 0. 0. 0. 0.
 0. 0. 0. 0.
 0. 0. 0. 0.
 0. 0. 0. 0.
 0. 0. 0. 0.
 0. 0. 0. 0.
 0. 0. 0. 0.
 0. 0. 0. 0.
 0. 0. 0. 0.
 0. 0. 0. 0.
 0. 0. 0. 0.
 0. 0. 0. 0.
 0. 0. 0. 0.
 0. 0. 0. 0.
 0. 0. 0. 0.
 0. 0. 0. 0.
 0. 0. 0. 0.
 0. 0. 0. 0.
 0. 0. 0. 0.
 0. 0. 0. 0.
 0. 0. 0. 0.
 0. 0. 0. 0.
 0. 0. 0. 0.
 0. 0. 0. 0.
 0. 0. 0. 0.
 0. 0. 0. 0.
 0. 0. 0. 0.
 0. 0. 0. 0.
 0. 0. 0. 0.
 0. 0. 0. 0.
 0. 0. 0. 0.
 0. 0. 0. 0.
 0. 0. 0. 0.
 0. 0. 0. 0.
 0. 0. 0. 0.
 0. 0. 0. 0.
 0. 0. 0. 0.
 0. 0. 0. 0.
 0. 0. 0. 0.
 0. 0. 0. 0.
 0. 0. 0. 0.
 0. 0. 0. 0.
 0. 0. 0. 0.
 0. 0. 0. 0.
 0. 0. 0. 0.
 0. 0. 0. 0.
 0. 0. 0. 0.
 0. 0. 0. 0.
 0. 0. 0. 0.
 0. 0. 0. 0.
 0. 0. 0. 0.
 0. 0. 0. 0.
 0. 0. 0. 0.
 0. 0. 0. 0.
 0. 0. 0. 0.
 0. 0. 0. 0.
   </PP_BETA.1>
   <PP_BETA.2
       type="real"
       size=" 728"
       columns="4"
       index="2"
       angular_momentum="0"
       cutoff_radius_index=" 132"
       cutoff_radius="    1.3100000000E+00" >
    2.8250287165E-08   -2.9932610295E-02   -5.9670400481E-02   -8.9020604648E-02
   -1.1779442753E-01   -1.4580869345E-01   -1.7288711355E-01   -1.9886107972E-01
   -2.2356992161E-01   -2.4686059610E-01   -2.6858681388E-01   -2.8860764451E-01
   -3.0678567712E-01   -3.2298484734E-01   -3.3706806976E-01   -3.4889483854E-01
   -3.5831897438E-01   -3.6518670349E-01   -3.6933525277E-01   -3.7059213394E-01
   -3.6877526954E-01   -3.6369408419E-01   -3.5515164763E-01   -3.4294791238E-01
   -3.2688404024E-01   -3.0676776015E-01   -2.8241964724E-01   -2.5368016155E-01
   -2.2041723710E-01   -1.8253416968E-01   -1.3997751777E-01   -9.2744706054E-02
   -4.0891007807E-02    1.5464419015E-02    7.6133755236E-02    1.4085729195E-01
    2.0930200081E-01    2.8106210444E-01    3.5566178773E-01    4.3256012248E-01
    5.1115820161E-01    5.9080840025E-01    6.7082560020E-01    7.5050013531E-01
    8.2911214165E-01    9.0594692988E-01    9.8031094177E-01    1.0515478103E+00
    1.1190540152E+00    1.1822936153E+00    1.2408115459E+00    1.2942449959E+00
    1.3423324216E+00    1.3849198150E+00    1.4219639236E+00    1.4535322040E+00
    1.4797993983E+00    1.5010407260E+00    1.5176218019E+00    1.5299855009E+00
    1.5386361026E+00    1.5441211505E+00    1.5470115540E+00    1.5478805361E+00
    1.5472820903E+00    1.5457296502E+00    1.5436756887E+00    1.5414929594E+00
    1.5394580606E+00    1.5377379463E+00    1.5363799326E+00    1.5353056482E+00
    1.5343092626E+00    1.5330601934E+00    1.5311103535E+00    1.5279058513E+00
    1.5228029077E+00    1.5150876070E+00    1.5039989636E+00    1.4887546603E+00
    1.4685787077E+00    1.4427301906E+00    1.4105322042E+00    1.3714000530E+00
    1.3248677787E+00    1.2706121124E+00    1.2084730003E+00    1.1384699374E+00
    1.0608134550E+00    9.7591124444E-01    8.8436854907E-01    7.8698263343E-01
    6.8473131178E-01    5.7875570689E-01    4.7033759122E-01    3.6087183925E-01
    2.5183468279E-01    1.4474860611E-01    4.1144839551E-02   -5.7475495236E-02
   -1.4968047175E-01   -2.3414552975E-01   -3.0968958860E-01   -3.7530800000E-01
   -4.3020131160E-01   -4.7379891980E-01   -5.0577682660E-01   -5.2606887796E-01
   -5.3487104503E-01   -5.3263850885E-01   -5.2007551866E-01   -4.9811820664E-01
   -4.6791075081E-01   -4.3077548465E-01   -3.8817790488E-01   -3.4168977860E-01
   -2.9294956137E-01   -2.4361830147E-01   -1.9533442858E-01   -1.4966907023E-01
   -1.0808661327E-01   -7.1898374845E-02   -4.2225331789E-02   -1.9972823451E-02
   -5.7670534124E-03   -2.0758728005E-04   -1.6266727618E-05    6.3132450741E-06
   -1.7762352833E-11    0.0000000000E+00    0.0000000000E+00    0.0000000000E+00
 0. 0. 0. 0.
 0. 0. 0. 0.
 0. 0. 0. 0.
 0. 0. 0. 0.
 0. 0. 0. 0.
 0. 0. 0. 0.
 0. 0. 0. 0.
 0. 0. 0. 0.
 0. 0. 0. 0.
 0. 0. 0. 0.
 0. 0. 0. 0.
 0. 0. 0. 0.
 0. 0. 0. 0.
 0. 0. 0. 0.
 0. 0. 0. 0.
 0. 0. 0. 0.
 0. 0. 0. 0.
 0. 0. 0. 0.
 0. 0. 0. 0.
 0. 0. 0. 0.
 0. 0. 0. 0.
 0. 0. 0. 0.
 0. 0. 0. 0.
 0. 0. 0. 0.
 0. 0. 0. 0.
 0. 0. 0. 0.
 0. 0. 0. 0.
 0. 0. 0. 0.
 0. 0. 0. 0.
 0. 0. 0. 0.
 0. 0. 0. 0.
 0. 0. 0. 0.
 0. 0. 0. 0.
 0. 0. 0. 0.
 0. 0. 0. 0.
 0. 0. 0. 0.
 0. 0. 0. 0.
 0. 0. 0. 0.
 0. 0. 0. 0.
 0. 0. 0. 0.
 0. 0. 0. 0.
 0. 0. 0. 0.
 0. 0. 0. 0.
 0. 0. 0. 0.
 0. 0. 0. 0.
 0. 0. 0. 0.
 0. 0. 0. 0.
 0. 0. 0. 0.
 0. 0. 0. 0.
 0. 0. 0. 0.
 0. 0. 0. 0.
 0. 0. 0. 0.
 0. 0. 0. 0.
 0. 0. 0. 0.
 0. 0. 0. 0.
 0. 0. 0. 0.
 0. 0. 0. 0.
 0. 0. 0. 0.
 0. 0. 0. 0.
 0. 0. 0. 0.
 0. 0. 0. 0.
 0. 0. 0. 0.
 0. 0. 0. 0.
 0. 0. 0. 0.
 0. 0. 0. 0.
 0. 0. 0. 0.
 0. 0. 0. 0.
 0. 0. 0. 0.
 0. 0. 0. 0.
 0. 0. 0. 0.
 0. 0. 0. 0.
 0. 0. 0. 0.
 0. 0. 0. 0.
 0. 0. 0. 0.
 0. 0. 0. 0.
 0. 0. 0. 0.
 0. 0. 0. 0.
 0. 0. 0. 0.
 0. 0. 0. 0.
 0. 0. 0. 0.
 0. 0. 0. 0.
 0. 0. 0. 0.
 0. 0. 0. 0.
 0. 0. 0. 0.
 0. 0. 0. 0.
 0. 0. 0. 0.
 0. 0. 0. 0.
 0. 0. 0. 0.
 0. 0. 0. 0.
 0. 0. 0. 0.
 0. 0. 0. 0.
 0. 0. 0. 0.
 0. 0. 0. 0.
 0. 0. 0. 0.
 0. 0. 0. 0.
 0. 0. 0. 0.
 0. 0. 0. 0.
 0. 0. 0. 0.
 0. 0. 0. 0.
 0. 0. 0. 0.
 0. 0. 0. 0.
 0. 0. 0. 0.
 0. 0. 0. 0.
 0. 0. 0. 0.
 0. 0. 0. 0.
 0. 0. 0. 0.
 0. 0. 0. 0.
 0. 0. 0. 0.
 0. 0. 0. 0.
 0. 0. 0. 0.
 0. 0. 0. 0.
 0. 0. 0. 0.
 0. 0. 0. 0.
 0. 0. 0. 0.
 0. 0. 0. 0.
 0. 0. 0. 0.
 0. 0. 0. 0.
 0. 0. 0. 0.
 0. 0. 0. 0.
 0. 0. 0. 0.
 0. 0. 0. 0.
 0. 0. 0. 0.
 0. 0. 0. 0.
 0. 0. 0. 0.
 0. 0. 0. 0.
 0. 0. 0. 0.
 0. 0. 0. 0.
 0. 0. 0. 0.
 0. 0. 0. 0.
 0. 0. 0. 0.
 0. 0. 0. 0.
 0. 0. 0. 0.
 0. 0. 0. 0.
 0. 0. 0. 0.
 0. 0. 0. 0.
 0. 0. 0. 0.
 0. 0. 0. 0.
 0. 0. 0. 0.
 0. 0. 0. 0.
 0. 0. 0. 0.
 0. 0. 0. 0.
 0. 0. 0. 0.
 0. 0. 0. 0.
 0. 0. 0. 0.
 0. 0. 0. 0.
 0. 0. 0. 0.
 0. 0. 0. 0.
 0. 0. 0. 0.
 0. 0. 0. 0.
   </PP_BETA.2>
   <PP_BETA.3
       type="real"
       size=" 728"
       columns="4"
       index="3"
       angular_momentum="1"
       cutoff_radius_index=" 132"
       cutoff_radius="    1.3100000000E+00" >
   -7.6976776620E-09   -2.2382740465E-03   -8.9351658294E-03   -2.0037132630E-02
   -3.5455759878E-02   -5.5068980304E-02   -7.8722749452E-02   -1.0623314704E-01
   -1.3738886588E-01   -1.7195404320E-01   -2.0967138306E-01   -2.5026551354E-01
   -2.9344651842E-01   -3.3891358011E-01   -3.8635866928E-01   -4.3547021617E-01
   -4.8593669942E-01   -5.3745009070E-01   -5.8970909668E-01   -6.4242214431E-01
   -6.9531006131E-01   -7.4810840975E-01   -8.0056943857E-01   -8.5246362824E-01
   -9.0358080967E-01   -9.5373084811E-01   -1.0027438918E+00   -1.0504701943E+00
   -1.0967795271E+00   -1.1415602097E+00   -1.1847177898E+00   -1.2261734144E+00
   -1.2658619398E+00   -1.3037298313E+00   -1.3397329109E+00   -1.3738340114E+00
   -1.4060005991E+00   -1.4362024262E+00   -1.4644092750E+00   -1.4905888526E+00
   -1.5147048918E+00   -1.5367155094E+00   -1.5565718682E+00   -1.5742171810E+00
   -1.5895860889E+00   -1.6026044361E+00   -1.6131894574E+00   -1.6212503822E+00
   -1.6266894520E+00   -1.6294033373E+00   -1.6292849318E+00   -1.6262254917E+00
   -1.6201170804E+00   -1.6108552711E+00   -1.5983420529E+00   -1.5824888794E+00
   -1.5632197963E+00   -1.5404745789E+00   -1.5142118091E+00   -1.4844118225E+00
   -1.4510794533E+00   -1.4142465108E+00   -1.3739739225E+00   -1.3303534848E+00
   -1.2835091672E+00   -1.2335979260E+00   -1.1808099881E+00   -1.1253685785E+00
   -1.0675290729E+00   -1.0075775679E+00   -9.4582887258E-01   -8.8262393639E-01
   -8.1832673826E-01   -7.5332067423E-01   -6.8800448971E-01   -6.2278781287E-01
   -5.5808635420E-01   -4.9431684476E-01   -4.3189179244E-01   -3.7121414037E-01
   -3.1267191558E-01   -2.5663295795E-01   -2.0343982009E-01   -1.5340492788E-01
   -1.0680608835E-01   -6.3882427729E-02   -2.4830836251E-02    1.0197010761E-02
    4.1096994640E-02    6.7814206950E-02    9.0343874655E-02    1.0873152836E-01
    1.2307239742E-01    1.3351002843E-01    1.4023413660E-01    1.4347771245E-01
    1.4351341883E-01    1.4064932563E-01    1.3522404073E-01    1.2760130674E-01
    1.1816414206E-01    1.0730861323E-01    9.5437332276E-02    8.2952777888E-02
    7.0250542649E-02    5.7712610548E-02    4.5700776945E-02    3.4550242091E-02
    2.4568304805E-02    1.6032655654E-02    9.1537328270E-03    4.0956215586E-03
    9.7099313604E-04   -1.4288371665E-04    2.2146420233E-05   -1.9334118901E-06
    0.0000000000E+00    0.0000000000E+00    0.0000000000E+00    0.0000000000E+00
    0.0000000000E+00    0.0000000000E+00    0.0000000000E+00    0.0000000000E+00
    0.0000000000E+00    0.0000000000E+00    0.0000000000E+00    0.0000000000E+00
    0.0000000000E+00    0.0000000000E+00    0.0000000000E+00    0.0000000000E+00
 0. 0. 0. 0.
 0. 0. 0. 0.
 0. 0. 0. 0.
 0. 0. 0. 0.
 0. 0. 0. 0.
 0. 0. 0. 0.
 0. 0. 0. 0.
 0. 0. 0. 0.
 0. 0. 0. 0.
 0. 0. 0. 0.
 0. 0. 0. 0.
 0. 0. 0. 0.
 0. 0. 0. 0.
 0. 0. 0. 0.
 0. 0. 0. 0.
 0. 0. 0. 0.
 0. 0. 0. 0.
 0. 0. 0. 0.
 0. 0. 0. 0.
 0. 0. 0. 0.
 0. 0. 0. 0.
 0. 0. 0. 0.
 0. 0. 0. 0.
 0. 0. 0. 0.
 0. 0. 0. 0.
 0. 0. 0. 0.
 0. 0. 0. 0.
 0. 0. 0. 0.
 0. 0. 0. 0.
 0. 0. 0. 0.
 0. 0. 0. 0.
 0. 0. 0. 0.
 0. 0. 0. 0.
 0. 0. 0. 0.
 0. 0. 0. 0.
 0. 0. 0. 0.
 0. 0. 0. 0.
 0. 0. 0. 0.
 0. 0. 0. 0.
 0. 0. 0. 0.
 0. 0. 0. 0.
 0. 0. 0. 0.
 0. 0. 0. 0.
 0. 0. 0. 0.
 0. 0. 0. 0.
 0. 0. 0. 0.
 0. 0. 0. 0.
 0. 0. 0. 0.
 0. 0. 0. 0.
 0. 0. 0. 0.
 0. 0. 0. 0.
 0. 0. 0. 0.
 0. 0. 0. 0.
 0. 0. 0. 0.
 0. 0. 0. 0.
 0. 0. 0. 0.
 0. 0. 0. 0.
 0. 0. 0. 0.
 0. 0. 0. 0.
 0. 0. 0. 0.
 0. 0. 0. 0.
 0. 0. 0. 0.
 0. 0. 0. 0.
 0. 0. 0. 0.
 0. 0. 0. 0.
 0. 0. 0. 0.
 0. 0. 0. 0.
 0. 0. 0. 0.
 0. 0. 0. 0.
 0. 0. 0. 0.
 0. 0. 0. 0.
 0. 0. 0. 0.
 0. 0. 0. 0.
 0. 0. 0. 0.
 0. 0. 0. 0.
 0. 0. 0. 0.
 0. 0. 0. 0.
 0. 0. 0. 0.
 0. 0. 0. 0.
 0. 0. 0. 0.
 0. 0. 0. 0.
 0. 0. 0. 0.
 0. 0. 0. 0.
 0. 0. 0. 0.
 0. 0. 0. 0.
 0. 0. 0. 0.
 0. 0. 0. 0.
 0. 0. 0. 0.
 0. 0. 0. 0.
 0. 0. 0. 0.
 0. 0. 0. 0.
 0. 0. 0. 0.
 0. 0. 0. 0.
 0. 0. 0. 0.
 0. 0. 0. 0.
 0. 0. 0. 0.
 0. 0. 0. 0.
 0. 0. 0. 0.
 0. 0. 0. 0.
 0. 0. 0. 0.
 0. 0. 0. 0.
 0. 0. 0. 0.
 0. 0. 0. 0.
 0. 0. 0. 0.
 0. 0. 0. 0.
 0. 0. 0. 0.
 0. 0. 0. 0.
 0. 0. 0. 0.
 0. 0. 0. 0.
 0. 0. 0. 0.
 0. 0. 0. 0.
 0. 0. 0. 0.
 0. 0. 0. 0.
 0. 0. 0. 0.
 0. 0. 0. 0.
 0. 0. 0. 0.
 0. 0. 0. 0.
 0. 0. 0. 0.
 0. 0. 0. 0.
 0. 0. 0. 0.
 0. 0. 0. 0.
 0. 0. 0. 0.
 0. 0. 0. 0.
 0. 0. 0. 0.
 0. 0. 0. 0.
 0. 0. 0. 0.
 0. 0. 0. 0.
 0. 0. 0. 0.
 0. 0. 0. 0.
 0. 0. 0. 0.
 0. 0. 0. 0.
 0. 0. 0. 0.
 0. 0. 0. 0.
 0. 0. 0. 0.
 0. 0. 0. 0.
 0. 0. 0. 0.
 0. 0. 0. 0.
 0. 0. 0. 0.
 0. 0. 0. 0.
 0. 0. 0. 0.
 0. 0. 0. 0.
 0. 0. 0. 0.
 0. 0. 0. 0.
 0. 0. 0. 0.
 0. 0. 0. 0.
 0. 0. 0. 0.
 0. 0. 0. 0.
 0. 0. 0. 0.
 0. 0. 0. 0.
   </PP_BETA.3>
   <PP_BETA.4
       type="real"
       size=" 728"
       columns="4"
       index="4"
       angular_momentum="1"
       cutoff_radius_index=" 132"
       cutoff_radius="    1.3100000000E+00" >
   -7.6970984308E-09   -2.2383623424E-03   -8.9355190174E-03   -2.0037927305E-02
   -3.5457172589E-02   -5.5071187429E-02   -7.8725926993E-02   -1.0623747028E-01
   -1.3739450893E-01   -1.7196117836E-01   -2.0968018002E-01   -2.5027613845E-01
   -2.9345913270E-01   -3.3892833915E-01   -3.8637572097E-01   -4.3548969924E-01
   -4.8595874168E-01   -5.3747480712E-01   -5.8973658741E-01   -6.4245249266E-01
   -6.9534333163E-01   -7.4814464542E-01   -8.0060865996E-01   -8.5250583079E-01
   -9.0362596207E-01   -9.5377889071E-01   -1.0027947352E+00   -1.0505237180E+00
   -1.0968355789E+00   -1.1416186048E+00   -1.1847783109E+00   -1.2262358114E+00
   -1.2659259305E+00   -1.3037951023E+00   -1.3397991186E+00   -1.3739007841E+00
   -1.4060675384E+00   -1.4362691101E+00   -1.4644752600E+00   -1.4906536773E+00
   -1.5147680797E+00   -1.5367765729E+00   -1.5566303124E+00   -1.5742725075E+00
   -1.5896377999E+00   -1.6026520385E+00   -1.6132324673E+00   -1.6212883284E+00
   -1.6267218806E+00   -1.6294298150E+00   -1.6293050498E+00   -1.6262388690E+00
   -1.6201233668E+00   -1.6108541502E+00   -1.5983332438E+00   -1.5824721392E+00
   -1.5631949213E+00   -1.5404414054E+00   -1.5141702146E+00   -1.4843617251E+00
   -1.4510208115E+00   -1.4141793230E+00   -1.3738982253E+00   -1.3302693515E+00
   -1.2834167059E+00   -1.2334972770E+00   -1.1807013212E+00   -1.1252520904E+00
   -1.0674049836E+00   -1.0074461177E+00   -9.4569031869E-01   -8.8247854951E-01
   -8.1817479915E-01   -7.5316247041E-01   -6.8784031224E-01   -6.2261795334E-01
   -5.5791110190E-01   -4.9413648412E-01   -4.3170660073E-01   -3.7102438577E-01
   -3.1247785557E-01   -2.5643483804E-01   -2.0323787294E-01   -1.5319937279E-01
   -1.0659713113E-01   -6.3670260945E-02   -2.4615639774E-02    1.0415068821E-02
    4.1317756719E-02    6.8037524532E-02    9.0569606523E-02    1.0895953864E-01
    1.2330255345E-01    1.3374219847E-01    1.4046818746E-01    1.4371350706E-01
    1.4375081374E-01    1.4088816851E-01    1.3546416795E-01    1.2784254092E-01
    1.1840628971E-01    1.0755146248E-01    9.5680650695E-02    8.3196310322E-02
    7.0494009178E-02    5.7955704479E-02    4.5943162844E-02    3.4791553754E-02
    2.4808149110E-02    1.6270621243E-02    9.3893576330E-03    4.3283920993E-03
    1.1960412581E-03    9.0809403932E-05   -9.9810029402E-07    1.8361167606E-07
    0.0000000000E+00    0.0000000000E+00    0.0000000000E+00    0.0000000000E+00
    0.0000000000E+00    0.0000000000E+00    0.0000000000E+00    0.0000000000E+00
    0.0000000000E+00    0.0000000000E+00    0.0000000000E+00    0.0000000000E+00
    0.0000000000E+00    0.0000000000E+00    0.0000000000E+00    0.0000000000E+00
 0. 0. 0. 0.
 0. 0. 0. 0.
 0. 0. 0. 0.
 0. 0. 0. 0.
 0. 0. 0. 0.
 0. 0. 0. 0.
 0. 0. 0. 0.
 0. 0. 0. 0.
 0. 0. 0. 0.
 0. 0. 0. 0.
 0. 0. 0. 0.
 0. 0. 0. 0.
 0. 0. 0. 0.
 0. 0. 0. 0.
 0. 0. 0. 0.
 0. 0. 0. 0.
 0. 0. 0. 0.
 0. 0. 0. 0.
 0. 0. 0. 0.
 0. 0. 0. 0.
 0. 0. 0. 0.
 0. 0. 0. 0.
 0. 0. 0. 0.
 0. 0. 0. 0.
 0. 0. 0. 0.
 0. 0. 0. 0.
 0. 0. 0. 0.
 0. 0. 0. 0.
 0. 0. 0. 0.
 0. 0. 0. 0.
 0. 0. 0. 0.
 0. 0. 0. 0.
 0. 0. 0. 0.
 0. 0. 0. 0.
 0. 0. 0. 0.
 0. 0. 0. 0.
 0. 0. 0. 0.
 0. 0. 0. 0.
 0. 0. 0. 0.
 0. 0. 0. 0.
 0. 0. 0. 0.
 0. 0. 0. 0.
 0. 0. 0. 0.
 0. 0. 0. 0.
 0. 0. 0. 0.
 0. 0. 0. 0.
 0. 0. 0. 0.
 0. 0. 0. 0.
 0. 0. 0. 0.
 0. 0. 0. 0.
 0. 0. 0. 0.
 0. 0. 0. 0.
 0. 0. 0. 0.
 0. 0. 0. 0.
 0. 0. 0. 0.
 0. 0. 0. 0.
 0. 0. 0. 0.
 0. 0. 0. 0.
 0. 0. 0. 0.
 0. 0. 0. 0.
 0. 0. 0. 0.
 0. 0. 0. 0.
 0. 0. 0. 0.
 0. 0. 0. 0.
 0. 0. 0. 0.
 0. 0. 0. 0.
 0. 0. 0. 0.
 0. 0. 0. 0.
 0. 0. 0. 0.
 0. 0. 0. 0.
 0. 0. 0. 0.
 0. 0. 0. 0.
 0. 0. 0. 0.
 0. 0. 0. 0.
 0. 0. 0. 0.
 0. 0. 0. 0.
 0. 0. 0. 0.
 0. 0. 0. 0.
 0. 0. 0. 0.
 0. 0. 0. 0.
 0. 0. 0. 0.
 0. 0. 0. 0.
 0. 0. 0. 0.
 0. 0. 0. 0.
 0. 0. 0. 0.
 0. 0. 0. 0.
 0. 0. 0. 0.
 0. 0. 0. 0.
 0. 0. 0. 0.
 0. 0. 0. 0.
 0. 0. 0. 0.
 0. 0. 0. 0.
 0. 0. 0. 0.
 0. 0. 0. 0.
 0. 0. 0. 0.
 0. 0. 0. 0.
 0. 0. 0. 0.
 0. 0. 0. 0.
 0. 0. 0. 0.
 0. 0. 0. 0.
 0. 0. 0. 0.
 0. 0. 0. 0.
 0. 0. 0. 0.
 0. 0. 0. 0.
 0. 0. 0. 0.
 0. 0. 0. 0.
 0. 0. 0. 0.
 0. 0. 0. 0.
 0. 0. 0. 0.
 0. 0. 0. 0.
 0. 0. 0. 0.
 0. 0. 0. 0.
 0. 0. 0. 0.
 0. 0. 0. 0.
 0. 0. 0. 0.
 0. 0. 0. 0.
 0. 0. 0. 0.
 0. 0. 0. 0.
 0. 0. 0. 0.
 0. 0. 0. 0.
 0. 0. 0. 0.
 0. 0. 0. 0.
 0. 0. 0. 0.
 0. 0. 0. 0.
 0. 0. 0. 0.
 0. 0. 0. 0.
 0. 0. 0. 0.
 0. 0. 0. 0.
 0. 0. 0. 0.
 0. 0. 0. 0.
 0. 0. 0. 0.
 0. 0. 0. 0.
 0. 0. 0. 0.
 0. 0. 0. 0.
 0. 0. 0. 0.
 0. 0. 0. 0.
 0. 0. 0. 0.
 0. 0. 0. 0.
 0. 0. 0. 0.
 0. 0. 0. 0.
 0. 0. 0. 0.
 0. 0. 0. 0.
 0. 0. 0. 0.
 0. 0. 0. 0.
 0. 0. 0. 0.
 0. 0. 0. 0.
 0. 0. 0. 0.
 0. 0. 0. 0.
 0. 0. 0. 0.
   </PP_BETA.4>
   <PP_DIJ type="real"  size="  16" columns="4">
   -7.0509547345E+00    0.0000000000E+00    0.0000000000E+00    0.0000000000E+00
    0.0000000000E+00   -1.6522515849E+00    0.0000000000E+00    0.0000000000E+00
    0.0000000000E+00    0.0000000000E+00   -1.5238790086E+00    0.0000000000E+00
    0.0000000000E+00    0.0000000000E+00    0.0000000000E+00   -1.5227915674E+00
   </PP_DIJ>
 </PP_NONLOCAL>
 <PP_PSWFC>
   <PP_CHI.1
       type="real"
       size=" 728"
       columns="4"
       index="1"
       occupation=" 2.000"
       pseudo_energy="   -0.1158613158E+01"
       label="1S"
       l="0" >
   -8.3157702946E-11    2.9069806041E-02    5.8107447336E-02    8.7080843220E-02
    1.1595808090E-01    1.4470749798E-01    1.7329776347E-01    2.0169795673E-01
    2.2987764395E-01    2.5780695164E-01    2.8545663696E-01    3.1279815442E-01
    3.3980371878E-01    3.6644636395E-01    3.9269999777E-01    4.1853945255E-01
    4.4394053143E-01    4.6888005052E-01    4.9333587691E-01    5.1728696277E-01
    5.4071337547E-01    5.6359632424E-01    5.8591818316E-01    6.0766251108E-01
    6.2881406837E-01    6.4935883094E-01    6.6928400148E-01    6.8857801839E-01
    7.0723056222E-01    7.2523255997E-01    7.4257618724E-01    7.5925486822E-01
    7.7526327367E-01    7.9059731669E-01    8.0525414631E-01    8.1923213880E-01
    8.3253088652E-01    8.4515118424E-01    8.5709501268E-01    8.6836551922E-01
    8.7896699547E-01    8.8890485168E-01    8.9818558779E-01    9.0681676094E-01
    9.1480694956E-01    9.2216571377E-01    9.2890355227E-01    9.3503185567E-01
    9.4056285646E-01    9.4550957578E-01    9.4988576710E-01    9.5370585733E-01
    9.5698488546E-01    9.5973843930E-01    9.6198259066E-01    9.6373382948E-01
    9.6500899745E-01    9.6582522156E-01    9.6619984822E-01    9.6615037840E-01
    9.6569440442E-01    9.6484954876E-01    9.6363340552E-01    9.6206348485E-01
    9.6015716083E-01    9.5793162298E-01    9.5540383190E-01    9.5259047898E-01
    9.4950795049E-01    9.4617229600E-01    9.4259920110E-01    9.3880396438E-01
    9.3480147847E-01    9.3060621481E-01    9.2623221201E-01    9.2169306736E-01
    9.1700193111E-01    9.1217150314E-01    9.0721403158E-01    9.0214131286E-01
    8.9696469296E-01    8.9169506921E-01    8.8634289241E-01    8.8091816886E-01
    8.7543046205E-01    8.6988889371E-01    8.6430214408E-01    8.5867845124E-01
    8.5302560962E-01    8.4735096745E-01    8.4166142348E-01    8.3596342311E-01
    8.3026295398E-01    8.2456554162E-01    8.1887624512E-01    8.1319965359E-01
    8.0753988345E-01    8.0190057723E-01    7.9628490413E-01    7.9069556280E-01
    7.8513478680E-01    7.7960435291E-01    7.7410559276E-01    7.6863940788E-01
    7.6320628847E-01    7.5780633584E-01    7.5243928866E-01    7.4710455286E-01
    7.4180123505E-01    7.3652817922E-01    7.3128400632E-01    7.2606715640E-01
    7.2087593270E-01    7.1570854725E-01    7.1056316731E-01    7.0543796189E-01
    7.0033114791E-01    6.9524103502E-01    6.9016606860E-01    6.8510487006E-01
    6.8005627387E-01    6.7501936060E-01    6.6999348555E-01    6.6497830269E-01
    6.5997378315E-01    6.5498022793E-01    6.4999826309E-01    6.4502871410E-01
    6.4007239585E-01    6.3513009092E-01    6.3020254987E-01    6.2529049239E-01
    6.2039460820E-01    6.1551555797E-01    6.1065397425E-01    6.0581046231E-01
    6.0098560095E-01    5.9617994336E-01    5.9139401787E-01    5.8662832873E-01
    5.8188335684E-01    5.7715956047E-01    5.7245737598E-01    5.6777721846E-01
    5.6311948239E-01    5.5848454233E-01    5.5387275345E-01    5.4928445222E-01
    5.4471995693E-01    5.4017956829E-01    5.3566356997E-01    5.3117222915E-01
    5.2670579700E-01    5.2226450923E-01    5.1784858658E-01    5.1345823526E-01
    5.0909364746E-01    5.0475500175E-01    5.0044246358E-01    4.9615618567E-01
    4.9189630842E-01    4.8766296035E-01    4.8345625845E-01    4.7927630859E-01
    4.7512320589E-01    4.7099703508E-01    4.6689787084E-01    4.6282577815E-01
    4.5878081264E-01    4.5476302089E-01    4.5077244074E-01    4.4680910165E-01
    4.4287302491E-01    4.3896422402E-01    4.3508270490E-01    4.3122846622E-01
    4.2740149963E-01    4.2360179002E-01    4.1982931581E-01    4.1608404914E-01
    4.1236595615E-01    4.0867499720E-01    4.0501112709E-01    4.0137429527E-01
    3.9776444608E-01    3.9418151892E-01    3.9062544849E-01    3.8709616494E-01
    3.8359359410E-01    3.8011765764E-01    3.7666827325E-01    3.7324535482E-01
    3.6984881260E-01    3.6647855337E-01    3.6313448058E-01    3.5981649453E-01
    3.5652449250E-01    3.5325836888E-01    3.5001801535E-01    3.4680332097E-01
    3.4361417234E-01    3.4045045371E-01    3.3731204712E-01    3.3419883249E-01
    3.3111068776E-01    3.2804748900E-01    3.2500911049E-01    3.2199542485E-01
    3.1900630314E-01    3.1604161493E-01    3.1310122842E-01    3.1018501054E-01
    3.0729282698E-01    3.0442454235E-01    3.0158002019E-01    2.9875912311E-01
    2.9596171282E-01    2.9318765022E-01    2.9043679547E-01    2.8770900806E-01
    2.8500414687E-01    2.8232207023E-01    2.7966263598E-01    2.7702570154E-01
    2.7441112395E-01    2.7181875992E-01    2.6924846592E-01    2.6670009818E-01
    2.6417351275E-01    2.6166856556E-01    2.5918511248E-01    2.5672300930E-01
    2.5428211182E-01    2.5186227590E-01    2.4946335744E-01    2.4708521247E-01
    2.4472769716E-01    2.4239066783E-01    2.4007398103E-01    2.3777749354E-01
    2.3550106240E-01    2.3324454493E-01    2.3100779878E-01    2.2879068191E-01
    2.2659305268E-01    2.2441476980E-01    2.2225569240E-01    2.2011568004E-01
    2.1799459271E-01    2.1589229086E-01    2.1380863544E-01    2.1174348787E-01
    2.0969671008E-01    2.0766816455E-01    2.0565771427E-01    2.0366522280E-01
    2.0169055426E-01    1.9973357332E-01    1.9779414528E-01    1.9587213600E-01
    1.9396741196E-01    1.9207984025E-01    1.9020928858E-01    1.8835562532E-01
    1.8651871943E-01    1.8469844055E-01    1.8289465897E-01    1.8110724562E-01
    1.7933607210E-01    1.7758101069E-01    1.7584193434E-01    1.7411871666E-01
    1.7241123197E-01    1.7071935525E-01    1.6904296218E-01    1.6738192912E-01
    1.6573613316E-01    1.6410545204E-01    1.6248976423E-01    1.6088894889E-01
    1.5930288588E-01    1.5773145578E-01    1.5617453985E-01    1.5463202007E-01
    1.5310377914E-01    1.5158970044E-01    1.5008966808E-01    1.4860356687E-01
    1.4713128232E-01    1.4567270067E-01    1.4422770885E-01    1.4279619450E-01
    1.4137804596E-01    1.3997315231E-01    1.3858140329E-01    1.3720268938E-01
    1.3583690174E-01    1.3448393226E-01    1.3314367349E-01    1.3181601873E-01
    1.3050086193E-01    1.2919809779E-01    1.2790762165E-01    1.2662932959E-01
    1.2536311835E-01    1.2410888540E-01    1.2286652885E-01    1.2163594753E-01
    1.2041704096E-01    1.1920970931E-01    1.1801385347E-01    1.1682937498E-01
    1.1565617609E-01    1.1449415968E-01    1.1334322933E-01    1.1220328930E-01
    1.1107424451E-01    1.0995600052E-01    1.0884846360E-01    1.0775154064E-01
    1.0666513922E-01    1.0558916755E-01    1.0452353451E-01    1.0346814964E-01
    1.0242292310E-01    1.0138776572E-01    1.0036258897E-01    9.9347304956E-02
    9.8341826427E-02    9.7346066765E-02    9.6359939986E-02    9.5383360738E-02
    9.4416244296E-02    9.3458506561E-02    9.2510064055E-02    9.1570833922E-02
    9.0640733922E-02    8.9719682428E-02    8.8807598426E-02    8.7904401512E-02
    8.7010011885E-02    8.6124350350E-02    8.5247338309E-02    8.4378897766E-02
    8.3518951315E-02    8.2667422144E-02    8.1824234030E-02    8.0989311336E-02
    8.0162579008E-02    7.9343962571E-02    7.8533388129E-02    7.7730782359E-02
    7.6936072512E-02    7.6149186404E-02    7.5370052420E-02    7.4598599505E-02
    7.3834757166E-02    7.3078455465E-02    7.2329625019E-02    7.1588196996E-02
    7.0854103111E-02    7.0127275625E-02    6.9407647340E-02    6.8695151598E-02
    6.7989722277E-02    6.7291293786E-02    6.6599801068E-02    6.5915179589E-02
    6.5237365342E-02    6.4566294840E-02    6.3901905113E-02    6.3244133709E-02
    6.2592918685E-02    6.1948198609E-02    6.1309912555E-02    6.0678000100E-02
    6.0052401319E-02    5.9433056788E-02    5.8819907574E-02    5.8212895237E-02
    5.7611961823E-02    5.7017049865E-02    5.6428102378E-02    5.5845062856E-02
    5.5267875268E-02    5.4696484056E-02    5.4130834135E-02    5.3570870884E-02
    5.3016540148E-02    5.2467788232E-02    5.1924561901E-02    5.1386808372E-02
    5.0854475318E-02    5.0327510859E-02    4.9805863563E-02    4.9289482439E-02
    4.8778316938E-02    4.8272316949E-02    4.7771432795E-02    4.7275615229E-02
    4.6784815436E-02    4.6298985024E-02    4.5818076025E-02    4.5342040891E-02
    4.4870832489E-02    4.4404404105E-02    4.3942709430E-02    4.3485702568E-02
    4.3033338027E-02    4.2585570717E-02    4.2142355948E-02    4.1703649428E-02
    4.1269407258E-02    4.0839585930E-02    4.0414142325E-02    3.9993033709E-02
    3.9576217732E-02    3.9163652422E-02    3.8755296186E-02    3.8351107804E-02
    3.7951046429E-02    3.7555071581E-02    3.7163143148E-02    3.6775221380E-02
    3.6391266889E-02    3.6011240642E-02    3.5635103965E-02    3.5262818534E-02
    3.4894346376E-02    3.4529649864E-02    3.4168691716E-02    3.3811434991E-02
    3.3457843090E-02    3.3107879747E-02    3.2761509031E-02    3.2418695344E-02
    3.2079403414E-02    3.1743598298E-02    3.1411245373E-02    3.1082310340E-02
    3.0756759217E-02    3.0434558338E-02    3.0115674351E-02    2.9800074215E-02
    2.9487725195E-02    2.9178594864E-02    2.8872651099E-02    2.8569862076E-02
    2.8270196270E-02    2.7973622454E-02    2.7680109690E-02    2.7389627337E-02
    2.7102145039E-02    2.6817632726E-02    2.6536060616E-02    2.6257399203E-02
    2.5981619266E-02    2.5708691858E-02    2.5438588306E-02    2.5171280212E-02
    2.4906739445E-02    2.4644938145E-02    2.4385848716E-02    2.4129443825E-02
    2.3875696400E-02    2.3624579630E-02    2.3376066957E-02    2.3130132081E-02
    2.2886748952E-02    2.2645891772E-02    2.2407534989E-02    2.2171653298E-02
    2.1938221637E-02    2.1707215186E-02    2.1478609366E-02    2.1252379833E-02
    2.1028502478E-02    2.0806953429E-02    2.0587709042E-02    2.0370745902E-02
    2.0156040824E-02    1.9943570845E-02    1.9733313227E-02    1.9525245454E-02
    1.9319345226E-02    1.9115590465E-02    1.8913959305E-02    1.8714430095E-02
    1.8516981393E-02    1.8321591971E-02    1.8128240806E-02    1.7936907080E-02
    1.7747570183E-02    1.7560209703E-02    1.7374805430E-02    1.7191337354E-02
    1.7009785661E-02    1.6830130730E-02    1.6652353136E-02    1.6476433645E-02
    1.6302353211E-02    1.6130092979E-02    1.5959634277E-02    1.5790958619E-02
    1.5624047704E-02    1.5458883408E-02    1.5295447791E-02    1.5133723087E-02
    1.4973691709E-02    1.4815336244E-02    1.4658639451E-02    1.4503584262E-02
    1.4350153777E-02    1.4198331266E-02    1.4048100165E-02    1.3899444074E-02
    1.3752346759E-02    1.3606792146E-02    1.3462764322E-02    1.3320247534E-02
    1.3179226186E-02    1.3039684837E-02    1.2901608203E-02    1.2764981150E-02
    1.2629788699E-02    1.2496016018E-02    1.2363648427E-02    1.2232671392E-02
    1.2103070524E-02    1.1974831580E-02    1.1847940461E-02    1.1722383207E-02
    1.1598146003E-02    1.1475215169E-02    1.1353577165E-02    1.1233218587E-02
    1.1114126167E-02    1.0996286771E-02    1.0879687396E-02    1.0764315173E-02
    1.0650157361E-02    1.0537201349E-02    1.0425434653E-02    1.0314844917E-02
    1.0205419908E-02    1.0097147519E-02    9.9900157648E-03    9.8840127818E-03
    9.7791268272E-03    9.6753462775E-03    9.5726596272E-03    9.4710554878E-03
    9.3705225868E-03    9.2710497663E-03    9.1726259820E-03    9.0752403021E-03
    8.9788819064E-03    8.8835400847E-03    8.7892042364E-03    8.6958638688E-03
    8.6035085965E-03    8.5121281399E-03    8.4217123249E-03    8.3322510809E-03
    8.2437344406E-03    8.1561525385E-03    8.0694956102E-03    7.9837539912E-03
    7.8989181159E-03    7.8149785169E-03    7.7319258238E-03    7.6497507621E-03
    7.5684441526E-03    7.4879969104E-03    7.4084000435E-03    7.3296446527E-03
    7.2517219299E-03    7.1746231576E-03    7.0983397081E-03    7.0228630420E-03
    6.9481847083E-03    6.8742963426E-03    6.8011896667E-03    6.7288564877E-03
    6.6572886971E-03    6.5864782699E-03    6.5164172640E-03    6.4470978189E-03
    6.3785121555E-03    6.3106525748E-03    6.2435114573E-03    6.1770812623E-03
    6.1113545267E-03    6.0463238649E-03    5.9819819673E-03    5.9183216000E-03
    5.8553356041E-03    5.7930168943E-03    5.7313584591E-03    5.6703533593E-03
    5.6099947277E-03    5.5502757680E-03    5.4911897546E-03    5.4327300314E-03
    5.3748900114E-03    5.3176631758E-03    5.2610430735E-03    5.2050233203E-03
    5.1495975982E-03    5.0947596549E-03    5.0405033030E-03    4.9868224192E-03
    4.9337109440E-03    4.8811628808E-03    4.8291722953E-03    4.7777333149E-03
    4.7268401281E-03    4.6764869839E-03    4.6266681910E-03    4.5773781175E-03
    4.5286111899E-03    4.4803618930E-03    4.4326247688E-03    4.3853944164E-03
    4.3386654909E-03    4.2924327033E-03    4.2466908196E-03    4.2014346606E-03
    4.1566591009E-03    4.1123590686E-03    4.0685295447E-03    4.0251655628E-03
    3.9822622080E-03    3.9398146170E-03    3.8978179771E-03    3.8562675260E-03
    3.8151585510E-03    3.7744863889E-03    3.7342464249E-03    3.6944340928E-03
    3.6550448738E-03    3.6160742967E-03    3.5775179368E-03    3.5393714157E-03
    3.5016304011E-03    3.4642906057E-03    3.4273477873E-03    3.3907977480E-03
    3.3546363340E-03    3.3188594349E-03    3.2834629832E-03    3.2484429545E-03
    3.2137953660E-03    3.1795162771E-03    3.1456017883E-03    3.1120480411E-03
    3.0788512172E-03    3.0460075387E-03    3.0135132672E-03    2.9813647035E-03
    2.9495581871E-03    2.9180900962E-03    2.8869568469E-03    2.8561548928E-03
    2.8256807249E-03    2.7955308711E-03    2.7657018956E-03    2.7361903988E-03
    2.7069930168E-03    2.6781064212E-03    2.6495273183E-03    2.6212524493E-03
    2.5932785895E-03    2.5656025482E-03    2.5382211682E-03    2.5111313256E-03
    2.4843299293E-03    2.4578139207E-03    2.4315802735E-03    2.4056259932E-03
    2.3799481167E-03    2.3545437123E-03    2.3294098790E-03    2.3045437466E-03
    2.2799424749E-03    2.2556032536E-03    2.2315233022E-03    2.2076998695E-03
    2.1841302330E-03    2.1608116992E-03    2.1377416029E-03    2.1149173070E-03
    2.0923362022E-03    2.0699957067E-03    2.0478932660E-03    2.0260263524E-03
    2.0043924650E-03    1.9829891294E-03    1.9618138969E-03    1.9408643451E-03
    1.9201380770E-03    1.8996327208E-03    1.8793459297E-03    1.8592753821E-03
    1.8394187804E-03    1.8197738515E-03    1.8003383464E-03    1.7811100396E-03
    1.7620867294E-03    1.7432662372E-03    1.7246464075E-03    1.7062251073E-03
    1.6880002267E-03    1.6699696775E-03    1.6521313940E-03    1.6344833322E-03
    1.6170234696E-03    1.5997498053E-03    1.5826603594E-03    1.5657531731E-03
    1.5490263081E-03    1.5324778468E-03    1.5161058918E-03    1.4999085658E-03
    1.4838840113E-03    1.4680303906E-03    1.4523458853E-03    1.4368286964E-03
   </PP_CHI.1>
 </PP_PSWFC>
 <PP_RHOATOM type="real"  size=" 728" columns="4">
    0.0000000000E+00    1.6901072465E-03    6.7529508718E-03    1.5166146512E-02
    2.6892553051E-02    4.1880519941E-02    6.0064229644E-02    8.1364131499E-02
    1.0568746237E-01    1.3292884863E-01    1.6297098317E-01    1.9568537082E-01
    2.3093313460E-01    2.6856587531E-01    3.0842657650E-01    3.5035054668E-01
    3.9416639090E-01    4.3969700355E-01    4.8676057490E-01    5.3517160369E-01
    5.8474190883E-01    6.3528163339E-01    6.8660023471E-01    7.3850745474E-01
    7.9081426517E-01    8.4333378263E-01    8.9588214928E-01    9.4827937483E-01
    1.0003501363E+00    1.0519245321E+00    1.1028387877E+00    1.1529359098E+00
    1.2020662870E+00    1.2500882343E+00    1.2968684803E+00    1.3422825945E+00
    1.3862153540E+00    1.4285610484E+00    1.4692237215E+00    1.5081173499E+00
    1.5451659582E+00    1.5803036707E+00    1.6134747002E+00    1.6446332758E+00
    1.6737435099E+00    1.7007792073E+00    1.7257236188E+00    1.7485691422E+00
    1.7693169739E+00    1.7879767158E+00    1.8045659411E+00    1.8191097246E+00
    1.8316401420E+00    1.8421957438E+00    1.8508210095E+00    1.8575657882E+00
    1.8624847303E+00    1.8656367172E+00    1.8670842934E+00    1.8668931074E+00
    1.8651313654E+00    1.8618693035E+00    1.8571786805E+00    1.8511322978E+00
    1.8438035470E+00    1.8352659886E+00    1.8255929640E+00    1.8148572413E+00
    1.8031306961E+00    1.7904840274E+00    1.7769865078E+00    1.7627057671E+00
    1.7477076083E+00    1.7320558541E+00    1.7158122211E+00    1.6990362208E+00
    1.6817850833E+00    1.6641137023E+00    1.6460745982E+00    1.6277178967E+00
    1.6090913208E+00    1.5902401929E+00    1.5712074458E+00    1.5520336404E+00
    1.5327569878E+00    1.5134133748E+00    1.4940363925E+00    1.4746573653E+00
    1.4553053814E+00    1.4360073241E+00    1.4167879036E+00    1.3976696895E+00
    1.3786731455E+00    1.3598166648E+00    1.3411166096E+00    1.3225873532E+00
    1.3042413267E+00    1.2860890715E+00    1.2681392971E+00    1.2503989461E+00
    1.2328732669E+00    1.2155658942E+00    1.1984789375E+00    1.1816130787E+00
    1.1649676775E+00    1.1485408853E+00    1.1323297662E+00    1.1163304258E+00
    1.1005381446E+00    1.0849475176E+00    1.0695525958E+00    1.0543470312E+00
    1.0393242207E+00    1.0244774492E+00    1.0098000295E+00    9.9528543615E-01
    9.8092743345E-01    9.6672019356E-01    9.5265840450E-01    9.3873736595E-01
    9.2495307125E-01    9.1130227436E-01    8.9778254135E-01    8.8439228611E-01
    8.7113078887E-01    8.5799819797E-01    8.4499548404E-01    8.3212408404E-01
    8.1938534386E-01    8.0678046478E-01    7.9431050774E-01    7.8197639975E-01
    7.6977893976E-01    7.5771880420E-01    7.4579655254E-01    7.3401263249E-01
    7.2236738511E-01    7.1086104974E-01    6.9949376875E-01    6.8826559214E-01
    6.7717648193E-01    6.6622631649E-01    6.5541489463E-01    6.4474193959E-01
    6.3420710290E-01    6.2380996803E-01    6.1355005403E-01    6.0342681890E-01
    5.9343966295E-01    5.8358793200E-01    5.7387092039E-01    5.6428787403E-01
    5.5483799318E-01    5.4552043521E-01    5.3633431725E-01    5.2727871872E-01
    5.1835268376E-01    5.0955522358E-01    5.0088531871E-01    4.9234192115E-01
    4.8392395648E-01    4.7563032579E-01    4.6745990766E-01    4.5941155995E-01
    4.5148412155E-01    4.4367641411E-01    4.3598724359E-01    4.2841540184E-01
    4.2095966809E-01    4.1361881033E-01    4.0639158667E-01    3.9927674663E-01
    3.9227303239E-01    3.8537917994E-01    3.7859392021E-01    3.7191598016E-01
    3.6534408377E-01    3.5887695302E-01    3.5251330882E-01    3.4625187190E-01
    3.4009136359E-01    3.3403050668E-01    3.2806802614E-01    3.2220264981E-01
    3.1643310913E-01    3.1075813972E-01    3.0517648201E-01    2.9968688182E-01
    2.9428809086E-01    2.8897886729E-01    2.8375797614E-01    2.7862418979E-01
    2.7357628836E-01    2.6861306016E-01    2.6373330198E-01    2.5893581948E-01
    2.5421942750E-01    2.4958295037E-01    2.4502522214E-01    2.4054508687E-01
    2.3614139886E-01    2.3181302286E-01    2.2755883426E-01    2.2337771927E-01
    2.1926857510E-01    2.1523031008E-01    2.1126184380E-01    2.0736210725E-01
    2.0353004288E-01    1.9976460473E-01    1.9606475848E-01    1.9242948152E-01
    1.8885776303E-01    1.8534860397E-01    1.8190101716E-01    1.7851402728E-01
    1.7518667091E-01    1.7191799648E-01    1.6870706433E-01    1.6555294664E-01
    1.6245472747E-01    1.5941150268E-01    1.5642237993E-01    1.5348647863E-01
    1.5060292989E-01    1.4777087649E-01    1.4498947280E-01    1.4225788473E-01
    1.3957528967E-01    1.3694087641E-01    1.3435384506E-01    1.3181340700E-01
    1.2931878479E-01    1.2686921204E-01    1.2446393341E-01    1.2210220445E-01
    1.1978329151E-01    1.1750647170E-01    1.1527103274E-01    1.1307627287E-01
    1.1092150079E-01    1.0880603548E-01    1.0672920619E-01    1.0469035226E-01
    1.0268882304E-01    1.0072397781E-01    9.8795185612E-02    9.6901825201E-02
    9.5043284902E-02    9.3218962510E-02    9.1428265178E-02    8.9670609308E-02
    8.7945420439E-02    8.6252133136E-02    8.4590190881E-02    8.2959045960E-02
    8.1358159353E-02    7.9787000625E-02    7.8245047814E-02    7.6731787321E-02
    7.5246713802E-02    7.3789330058E-02    7.2359146927E-02    7.0955683177E-02
    6.9578465395E-02    6.8227027885E-02    6.6900912558E-02    6.5599668829E-02
    6.4322853513E-02    6.3070030718E-02    6.1840771745E-02    6.0634654986E-02
    5.9451265819E-02    5.8290196512E-02    5.7151046122E-02    5.6033420395E-02
    5.4936931668E-02    5.3861198778E-02    5.2805846958E-02    5.1770507749E-02
    5.0754818900E-02    4.9758424282E-02    4.8780973792E-02    4.7822123262E-02
    4.6881534372E-02    4.5958874559E-02    4.5053816928E-02    4.4166040171E-02
    4.3295228475E-02    4.2441071441E-02    4.1603263999E-02    4.0781506325E-02
    3.9975503761E-02    3.9184966735E-02    3.8409610677E-02    3.7649155947E-02
    3.6903327751E-02    3.6171856070E-02    3.5454475582E-02    3.4750925586E-02
    3.4060949931E-02    3.3384296943E-02    3.2720719352E-02    3.2069974224E-02
    3.1431822887E-02    3.0806030869E-02    3.0192367822E-02    2.9590607464E-02
    2.9000527505E-02    2.8421909588E-02    2.7854539222E-02    2.7298205719E-02
    2.6752702133E-02    2.6217825199E-02    2.5693375271E-02    2.5179156261E-02
    2.4674975586E-02    2.4180644102E-02    2.3695976056E-02    2.3220789022E-02
    2.2754903849E-02    2.2298144607E-02    2.1850338534E-02    2.1411315978E-02
    2.0980910352E-02    2.0558958075E-02    2.0145298529E-02    1.9739774004E-02
    1.9342229650E-02    1.8952513429E-02    1.8570476068E-02    1.8195971011E-02
    1.7828854374E-02    1.7468984897E-02    1.7116223903E-02    1.6770435250E-02
    1.6431485292E-02    1.6099242830E-02    1.5773579076E-02    1.5454367610E-02
    1.5141484336E-02    1.4834807446E-02    1.4534217378E-02    1.4239596776E-02
    1.3950830457E-02    1.3667805368E-02    1.3390410549E-02    1.3118537101E-02
    1.2852078146E-02    1.2590928793E-02    1.2334986102E-02    1.2084149052E-02
    1.1838318507E-02    1.1597397180E-02    1.1361289603E-02    1.1129902096E-02
    1.0903142731E-02    1.0680921306E-02    1.0463149311E-02    1.0249739898E-02
    1.0040607855E-02    9.8356695732E-03    9.6348430186E-03    9.4380477062E-03
    9.2452046705E-03    9.0562364389E-03    8.8710670046E-03    8.6896218006E-03
    8.5118276736E-03    8.3376128587E-03    8.1669069542E-03    7.9996408972E-03
    7.8357469391E-03    7.6751586219E-03    7.5178107551E-03    7.3636393922E-03
    7.2125818084E-03    7.0645764783E-03    6.9195630540E-03    6.7774823436E-03
    6.6382762902E-03    6.5018879507E-03    6.3682614761E-03    6.2373420908E-03
    6.1090760732E-03    5.9834107363E-03    5.8602944083E-03    5.7396764146E-03
    5.6215070586E-03    5.5057376040E-03    5.3923202571E-03    5.2812081493E-03
    5.1723553198E-03    5.0657166986E-03    4.9612480905E-03    4.8589061581E-03
    4.7586484066E-03    4.6604331672E-03    4.5642195825E-03    4.4699675906E-03
    4.3776379108E-03    4.2871920285E-03    4.1985921813E-03    4.1118013442E-03
    4.0267832166E-03    3.9435022078E-03    3.8619234241E-03    3.7820126557E-03
    3.7037363635E-03    3.6270616666E-03    3.5519563297E-03    3.4783887513E-03
    3.4063279509E-03    3.3357435579E-03    3.2666057997E-03    3.1988854905E-03
    3.1325540199E-03    3.0675833421E-03    3.0039459649E-03    2.9416149396E-03
    2.8805638501E-03    2.8207668029E-03    2.7621984173E-03    2.7048338151E-03
    2.6486486115E-03    2.5936189052E-03    2.5397212692E-03    2.4869327420E-03
    2.4352308180E-03    2.3845934394E-03    2.3349989871E-03    2.2864262724E-03
    2.2388545285E-03    2.1922634027E-03    2.1466329480E-03    2.1019436156E-03
    2.0581762468E-03    2.0153120658E-03    1.9733326717E-03    1.9322200321E-03
    1.8919564750E-03    1.8525246825E-03    1.8139076833E-03    1.7760888464E-03
    1.7390518743E-03    1.7027807965E-03    1.6672599630E-03    1.6324740381E-03
    1.5984079943E-03    1.5650471063E-03    1.5323769450E-03    1.5003833713E-03
    1.4690525314E-03    1.4383708501E-03    1.4083250260E-03    1.3789020259E-03
    1.3500890794E-03    1.3218736741E-03    1.2942435500E-03    1.2671866950E-03
    1.2406913396E-03    1.2147459524E-03    1.1893392352E-03    1.1644601186E-03
    1.1400977572E-03    1.1162415254E-03    1.0928810128E-03    1.0700060202E-03
    1.0476065552E-03    1.0256728283E-03    1.0041952485E-03    9.8316441989E-04
    9.6257113716E-04    9.4240638229E-04    9.2266132059E-04    9.0332729710E-04
    8.8439583297E-04    8.6585862202E-04    8.4770752718E-04    8.2993457722E-04
    8.1253196337E-04    7.9549203608E-04    7.7880730183E-04    7.6247042004E-04
    7.4647419996E-04    7.3081159768E-04    7.1547571321E-04    7.0045978754E-04
    6.8575719985E-04    6.7136146472E-04    6.5726622942E-04    6.4346527122E-04
    6.2995249478E-04    6.1672192960E-04    6.0376772747E-04    5.9108416005E-04
    5.7866561644E-04    5.6650660077E-04    5.5460172995E-04    5.4294573131E-04
    5.3153344046E-04    5.2035979900E-04    5.0941985248E-04    4.9870874822E-04
    4.8822173328E-04    4.7795415244E-04    4.6790144622E-04    4.5805914894E-04
    4.4842288680E-04    4.3898837604E-04    4.2975142112E-04    4.2070791288E-04
    4.1185382685E-04    4.0318522148E-04    3.9469823647E-04    3.8638909114E-04
    3.7825408275E-04    3.7028958500E-04    3.6249204639E-04    3.5485798875E-04
    3.4738400573E-04    3.4006676132E-04    3.3290298844E-04    3.2588948753E-04
    3.1902312515E-04    3.1230083265E-04    3.0571960486E-04    2.9927649876E-04
    2.9296863221E-04    2.8679318275E-04    2.8074738632E-04    2.7482853612E-04
    2.6903398141E-04    2.6336112634E-04    2.5780742887E-04    2.5237039965E-04
    2.4704760093E-04    2.4183664550E-04    2.3673519569E-04    2.3174096229E-04
    2.2685170363E-04    2.2206522454E-04    2.1737937542E-04    2.1279205132E-04
    2.0830119101E-04    2.0390477605E-04    1.9960082996E-04    1.9538741734E-04
    1.9126264300E-04    1.8722465118E-04    1.8327162467E-04    1.7940178411E-04
    1.7561338710E-04    1.7190472754E-04    1.6827413481E-04    1.6471997308E-04
    1.6124064058E-04    1.5783456887E-04    1.5450022222E-04    1.5123609685E-04
    1.4804072034E-04    1.4491265094E-04    1.4185047697E-04    1.3885281615E-04
    1.3591831505E-04    1.3304564846E-04    1.3023351881E-04    1.2748065558E-04
    1.2478581480E-04    1.2214777844E-04    1.1956535389E-04    1.1703737344E-04
    1.1456269378E-04    1.1214019546E-04    1.0976878241E-04    1.0744738147E-04
    1.0517494190E-04    1.0295043491E-04    1.0077285322E-04    9.8641210614E-05
    9.6554541481E-05    9.4511900411E-05    9.2512361765E-05    9.0555019264E-05
    8.8638985593E-05    8.6763392001E-05    8.4927387917E-05    8.3130140573E-05
    8.1370834635E-05    7.9648671840E-05    7.7962870635E-05    7.6312665841E-05
    7.4697308302E-05    7.3116064558E-05    7.1568216514E-05    7.0053061123E-05
    6.8569910072E-05    6.7118089475E-05    6.5696939573E-05    6.4305814439E-05
    6.2944081689E-05    6.1611122202E-05    6.0306329842E-05    5.9029111188E-05
    5.7778885269E-05    5.6555083302E-05    5.5357148442E-05    5.4184535529E-05
    5.3036710847E-05    5.1913151883E-05    5.0813347095E-05    4.9736795682E-05
    4.8683007358E-05    4.7651502138E-05    4.6641810115E-05    4.5653471256E-05
    4.4686035193E-05    4.3739061021E-05    4.2812117099E-05    4.1904780860E-05
    4.1016638618E-05    4.0147285384E-05    3.9296324682E-05    3.8463368374E-05
    3.7648036483E-05    3.6849957024E-05    3.6068765835E-05    3.5304106414E-05
    3.4555629762E-05    3.3822994218E-05    3.3105865312E-05    3.2403915615E-05
    3.1716824586E-05    3.1044278432E-05    3.0385969965E-05    2.9741598463E-05
    2.9110869539E-05    2.8493495000E-05    2.7889192724E-05    2.7297686532E-05
    2.6718706059E-05    2.6151986638E-05    2.5597269176E-05    2.5054300037E-05
    2.4522830932E-05    2.4002618802E-05    2.3493425710E-05    2.2995018736E-05
    2.2507169867E-05    2.2029655897E-05    2.1562258324E-05    2.1104763257E-05
    2.0656961309E-05    2.0218647513E-05    1.9789621221E-05    1.9369686020E-05
    1.8958649636E-05    1.8556323852E-05    1.8162524423E-05    1.7777070990E-05
    1.7399786998E-05    1.7030499619E-05    1.6669039671E-05    1.6315241543E-05
    1.5968943118E-05    1.5629985702E-05    1.5298213950E-05    1.4973475797E-05
    1.4655622386E-05    1.4344508006E-05    1.4039990021E-05    1.3741928806E-05
    1.3450187686E-05    1.3164632871E-05    1.2885133398E-05    1.2611561069E-05
    1.2343790395E-05    1.2081698538E-05    1.1825165253E-05    1.1574072838E-05
    1.1328306076E-05    1.1087752186E-05    1.0852300769E-05    1.0621843760E-05
    1.0396275377E-05    1.0175492075E-05    9.9593924968E-06    9.7478774273E-06
    9.5408497494E-06    9.3382143990E-06    9.1398783218E-06    8.9457504311E-06
    8.7557415662E-06    8.5697644517E-06    8.3877336576E-06    8.2095655611E-06
    8.0351783077E-06    7.8644917743E-06    7.6974275322E-06    7.5339088124E-06
    7.3738604693E-06    7.2172089475E-06    7.0638822473E-06    6.9138098927E-06
    6.7669228991E-06    6.6231537413E-06    6.4824363228E-06    6.3447059465E-06
    6.2098992841E-06    6.0779543478E-06    5.9488104615E-06    5.8224082338E-06
    5.6986895303E-06    5.5775974475E-06    5.4590762860E-06    5.3430715262E-06
    5.2295298024E-06    5.1183988791E-06    5.0096276267E-06    4.9031659982E-06
    4.7989650065E-06    4.6969767019E-06    4.5971541503E-06    4.4994514114E-06
    4.4038235180E-06    4.3102264554E-06    4.2186171413E-06    4.1289534058E-06
 </PP_RHOATOM>
 <PP_SPIN_ORB>
   <PP_RELBETA.1  index="1"  lll="0" jjj="0.5"/>
   <PP_RELBETA.2  index="2"  lll="0" jjj="0.5"/>
   <PP_RELBETA.3  index="3"  lll="1" jjj="0.5"/>
   <PP_RELBETA.4  index="4"  lll="1" jjj="1.5"/>
   <PP_RELWFC.1  index="1"  lchi="0" jchi="0.5" nn="1"/>
 </PP_SPIN_ORB>
</UPF>

