<UPF version="2.0.1">
  <PP_INFO>

 This pseudopotential file has been produced using the code
 ONCVPSP  (Optimized Norm-Conservinng Vanderbilt PSeudopotential)
 fully-relativistic version 4.0.1 06/20/2107 by D. R. Hamann
 The code is available through a link at URL www.mat-simresearch.com.
 Documentation with the package provides a full discription of the
 input data below.


 While it is not required under the terms of the GNU GPL, it is
 suggested that you cite D. R. Hamann, Phys. Rev. B 88, 085117 (2013)
 in any publication using these pseudopotentials.

    <PP_INPUTFILE>
# ATOM AND REFERENCE CONFIGURATION
# atsym  z   nc   nv     iexc    psfile
  Kr 36.00    6    2       4      upf
#
#   n    l    f        energy (Ha)
    1    0    2.00
    2    0    2.00
    2    1    6.00
    3    0    2.00
    3    1    6.00
    3    2   10.00
    4    0    2.00
    4    1    6.00
#
# PSEUDOPOTENTIAL AND OPTIMIZATION
# lmax
    2
#
#   l,   rc,     ep,   ncon, nbas, qcut
    0   2.10000  -0.84704    4    8   6.10000
    1   1.70000  -0.33984    4    7   7.00000
    2   2.30000   0.10000    4    7   7.60000
#
# LOCAL POTENTIAL
# lloc, lpopt,  rc(5),   dvloc0
    4    5   1.50000      0.00000
#
# VANDERBILT-KLEINMAN-BYLANDER PROJECTORs
# l, nproj, debl
    0    2   3.00000
    1    2   3.00000
    2    2   4.00000
#
# MODEL CORE CHARGE
# icmod, fcfact, rcfact
    3   7.00000   1.24000
#
# LOG DERIVATIVE ANALYSIS
# epsh1, epsh2, depsh
  -12.00   12.00    0.02
#
# OUTPUT GRID
# rlmax, drl
    6.00    0.01
#
# TEST CONFIGURATIONS
# ncnf
    0
# nvcnf
#   n    l    f
    </PP_INPUTFILE>
  </PP_INFO>
  <!--                               -->
  <!-- END OF HUMAN READABLE SECTION -->
  <!--                               -->
    <PP_HEADER
       generated="Generated using ONCVPSP code by D. R. Hamann"
       author="anonymous"
       date="260612"
       comment=""
       element="Kr"
       pseudo_type="NC"
       relativistic="full"
       is_ultrasoft="F"
       is_paw="F"
       is_coulomb="F"
       has_so="T"
       has_wfc="F"
       has_gipaw="F"
       core_correction="T"
       functional="PBE"
       z_valence="    8.00"
       total_psenergy="  -3.71192638642E+01"
       rho_cutoff="   1.02100000000E+01"
       l_max="2"
       l_local="-1"
       mesh_size="  1022"
       number_of_wfc="3"
       number_of_proj="10"/>
 <PP_MESH>
   <PP_R type="real"  size="1022" columns="8">
    0.0000    0.0100    0.0200    0.0300    0.0400    0.0500    0.0600    0.0700
    0.0800    0.0900    0.1000    0.1100    0.1200    0.1300    0.1400    0.1500
    0.1600    0.1700    0.1800    0.1900    0.2000    0.2100    0.2200    0.2300
    0.2400    0.2500    0.2600    0.2700    0.2800    0.2900    0.3000    0.3100
    0.3200    0.3300    0.3400    0.3500    0.3600    0.3700    0.3800    0.3900
    0.4000    0.4100    0.4200    0.4300    0.4400    0.4500    0.4600    0.4700
    0.4800    0.4900    0.5000    0.5100    0.5200    0.5300    0.5400    0.5500
    0.5600    0.5700    0.5800    0.5900    0.6000    0.6100    0.6200    0.6300
    0.6400    0.6500    0.6600    0.6700    0.6800    0.6900    0.7000    0.7100
    0.7200    0.7300    0.7400    0.7500    0.7600    0.7700    0.7800    0.7900
    0.8000    0.8100    0.8200    0.8300    0.8400    0.8500    0.8600    0.8700
    0.8800    0.8900    0.9000    0.9100    0.9200    0.9300    0.9400    0.9500
    0.9600    0.9700    0.9800    0.9900    1.0000    1.0100    1.0200    1.0300
    1.0400    1.0500    1.0600    1.0700    1.0800    1.0900    1.1000    1.1100
    1.1200    1.1300    1.1400    1.1500    1.1600    1.1700    1.1800    1.1900
    1.2000    1.2100    1.2200    1.2300    1.2400    1.2500    1.2600    1.2700
    1.2800    1.2900    1.3000    1.3100    1.3200    1.3300    1.3400    1.3500
    1.3600    1.3700    1.3800    1.3900    1.4000    1.4100    1.4200    1.4300
    1.4400    1.4500    1.4600    1.4700    1.4800    1.4900    1.5000    1.5100
    1.5200    1.5300    1.5400    1.5500    1.5600    1.5700    1.5800    1.5900
    1.6000    1.6100    1.6200    1.6300    1.6400    1.6500    1.6600    1.6700
    1.6800    1.6900    1.7000    1.7100    1.7200    1.7300    1.7400    1.7500
    1.7600    1.7700    1.7800    1.7900    1.8000    1.8100    1.8200    1.8300
    1.8400    1.8500    1.8600    1.8700    1.8800    1.8900    1.9000    1.9100
    1.9200    1.9300    1.9400    1.9500    1.9600    1.9700    1.9800    1.9900
    2.0000    2.0100    2.0200    2.0300    2.0400    2.0500    2.0600    2.0700
    2.0800    2.0900    2.1000    2.1100    2.1200    2.1300    2.1400    2.1500
    2.1600    2.1700    2.1800    2.1900    2.2000    2.2100    2.2200    2.2300
    2.2400    2.2500    2.2600    2.2700    2.2800    2.2900    2.3000    2.3100
    2.3200    2.3300    2.3400    2.3500    2.3600    2.3700    2.3800    2.3900
    2.4000    2.4100    2.4200    2.4300    2.4400    2.4500    2.4600    2.4700
    2.4800    2.4900    2.5000    2.5100    2.5200    2.5300    2.5400    2.5500
    2.5600    2.5700    2.5800    2.5900    2.6000    2.6100    2.6200    2.6300
    2.6400    2.6500    2.6600    2.6700    2.6800    2.6900    2.7000    2.7100
    2.7200    2.7300    2.7400    2.7500    2.7600    2.7700    2.7800    2.7900
    2.8000    2.8100    2.8200    2.8300    2.8400    2.8500    2.8600    2.8700
    2.8800    2.8900    2.9000    2.9100    2.9200    2.9300    2.9400    2.9500
    2.9600    2.9700    2.9800    2.9900    3.0000    3.0100    3.0200    3.0300
    3.0400    3.0500    3.0600    3.0700    3.0800    3.0900    3.1000    3.1100
    3.1200    3.1300    3.1400    3.1500    3.1600    3.1700    3.1800    3.1900
    3.2000    3.2100    3.2200    3.2300    3.2400    3.2500    3.2600    3.2700
    3.2800    3.2900    3.3000    3.3100    3.3200    3.3300    3.3400    3.3500
    3.3600    3.3700    3.3800    3.3900    3.4000    3.4100    3.4200    3.4300
    3.4400    3.4500    3.4600    3.4700    3.4800    3.4900    3.5000    3.5100
    3.5200    3.5300    3.5400    3.5500    3.5600    3.5700    3.5800    3.5900
    3.6000    3.6100    3.6200    3.6300    3.6400    3.6500    3.6600    3.6700
    3.6800    3.6900    3.7000    3.7100    3.7200    3.7300    3.7400    3.7500
    3.7600    3.7700    3.7800    3.7900    3.8000    3.8100    3.8200    3.8300
    3.8400    3.8500    3.8600    3.8700    3.8800    3.8900    3.9000    3.9100
    3.9200    3.9300    3.9400    3.9500    3.9600    3.9700    3.9800    3.9900
    4.0000    4.0100    4.0200    4.0300    4.0400    4.0500    4.0600    4.0700
    4.0800    4.0900    4.1000    4.1100    4.1200    4.1300    4.1400    4.1500
    4.1600    4.1700    4.1800    4.1900    4.2000    4.2100    4.2200    4.2300
    4.2400    4.2500    4.2600    4.2700    4.2800    4.2900    4.3000    4.3100
    4.3200    4.3300    4.3400    4.3500    4.3600    4.3700    4.3800    4.3900
    4.4000    4.4100    4.4200    4.4300    4.4400    4.4500    4.4600    4.4700
    4.4800    4.4900    4.5000    4.5100    4.5200    4.5300    4.5400    4.5500
    4.5600    4.5700    4.5800    4.5900    4.6000    4.6100    4.6200    4.6300
    4.6400    4.6500    4.6600    4.6700    4.6800    4.6900    4.7000    4.7100
    4.7200    4.7300    4.7400    4.7500    4.7600    4.7700    4.7800    4.7900
    4.8000    4.8100    4.8200    4.8300    4.8400    4.8500    4.8600    4.8700
    4.8800    4.8900    4.9000    4.9100    4.9200    4.9300    4.9400    4.9500
    4.9600    4.9700    4.9800    4.9900    5.0000    5.0100    5.0200    5.0300
    5.0400    5.0500    5.0600    5.0700    5.0800    5.0900    5.1000    5.1100
    5.1200    5.1300    5.1400    5.1500    5.1600    5.1700    5.1800    5.1900
    5.2000    5.2100    5.2200    5.2300    5.2400    5.2500    5.2600    5.2700
    5.2800    5.2900    5.3000    5.3100    5.3200    5.3300    5.3400    5.3500
    5.3600    5.3700    5.3800    5.3900    5.4000    5.4100    5.4200    5.4300
    5.4400    5.4500    5.4600    5.4700    5.4800    5.4900    5.5000    5.5100
    5.5200    5.5300    5.5400    5.5500    5.5600    5.5700    5.5800    5.5900
    5.6000    5.6100    5.6200    5.6300    5.6400    5.6500    5.6600    5.6700
    5.6800    5.6900    5.7000    5.7100    5.7200    5.7300    5.7400    5.7500
    5.7600    5.7700    5.7800    5.7900    5.8000    5.8100    5.8200    5.8300
    5.8400    5.8500    5.8600    5.8700    5.8800    5.8900    5.9000    5.9100
    5.9200    5.9300    5.9400    5.9500    5.9600    5.9700    5.9800    5.9900
    6.0000    6.0100    6.0200    6.0300    6.0400    6.0500    6.0600    6.0700
    6.0800    6.0900    6.1000    6.1100    6.1200    6.1300    6.1400    6.1500
    6.1600    6.1700    6.1800    6.1900    6.2000    6.2100    6.2200    6.2300
    6.2400    6.2500    6.2600    6.2700    6.2800    6.2900    6.3000    6.3100
    6.3200    6.3300    6.3400    6.3500    6.3600    6.3700    6.3800    6.3900
    6.4000    6.4100    6.4200    6.4300    6.4400    6.4500    6.4600    6.4700
    6.4800    6.4900    6.5000    6.5100    6.5200    6.5300    6.5400    6.5500
    6.5600    6.5700    6.5800    6.5900    6.6000    6.6100    6.6200    6.6300
    6.6400    6.6500    6.6600    6.6700    6.6800    6.6900    6.7000    6.7100
    6.7200    6.7300    6.7400    6.7500    6.7600    6.7700    6.7800    6.7900
    6.8000    6.8100    6.8200    6.8300    6.8400    6.8500    6.8600    6.8700
    6.8800    6.8900    6.9000    6.9100    6.9200    6.9300    6.9400    6.9500
    6.9600    6.9700    6.9800    6.9900    7.0000    7.0100    7.0200    7.0300
    7.0400    7.0500    7.0600    7.0700    7.0800    7.0900    7.1000    7.1100
    7.1200    7.1300    7.1400    7.1500    7.1600    7.1700    7.1800    7.1900
    7.2000    7.2100    7.2200    7.2300    7.2400    7.2500    7.2600    7.2700
    7.2800    7.2900    7.3000    7.3100    7.3200    7.3300    7.3400    7.3500
    7.3600    7.3700    7.3800    7.3900    7.4000    7.4100    7.4200    7.4300
    7.4400    7.4500    7.4600    7.4700    7.4800    7.4900    7.5000    7.5100
    7.5200    7.5300    7.5400    7.5500    7.5600    7.5700    7.5800    7.5900
    7.6000    7.6100    7.6200    7.6300    7.6400    7.6500    7.6600    7.6700
    7.6800    7.6900    7.7000    7.7100    7.7200    7.7300    7.7400    7.7500
    7.7600    7.7700    7.7800    7.7900    7.8000    7.8100    7.8200    7.8300
    7.8400    7.8500    7.8600    7.8700    7.8800    7.8900    7.9000    7.9100
    7.9200    7.9300    7.9400    7.9500    7.9600    7.9700    7.9800    7.9900
    8.0000    8.0100    8.0200    8.0300    8.0400    8.0500    8.0600    8.0700
    8.0800    8.0900    8.1000    8.1100    8.1200    8.1300    8.1400    8.1500
    8.1600    8.1700    8.1800    8.1900    8.2000    8.2100    8.2200    8.2300
    8.2400    8.2500    8.2600    8.2700    8.2800    8.2900    8.3000    8.3100
    8.3200    8.3300    8.3400    8.3500    8.3600    8.3700    8.3800    8.3900
    8.4000    8.4100    8.4200    8.4300    8.4400    8.4500    8.4600    8.4700
    8.4800    8.4900    8.5000    8.5100    8.5200    8.5300    8.5400    8.5500
    8.5600    8.5700    8.5800    8.5900    8.6000    8.6100    8.6200    8.6300
    8.6400    8.6500    8.6600    8.6700    8.6800    8.6900    8.7000    8.7100
    8.7200    8.7300    8.7400    8.7500    8.7600    8.7700    8.7800    8.7900
    8.8000    8.8100    8.8200    8.8300    8.8400    8.8500    8.8600    8.8700
    8.8800    8.8900    8.9000    8.9100    8.9200    8.9300    8.9400    8.9500
    8.9600    8.9700    8.9800    8.9900    9.0000    9.0100    9.0200    9.0300
    9.0400    9.0500    9.0600    9.0700    9.0800    9.0900    9.1000    9.1100
    9.1200    9.1300    9.1400    9.1500    9.1600    9.1700    9.1800    9.1900
    9.2000    9.2100    9.2200    9.2300    9.2400    9.2500    9.2600    9.2700
    9.2800    9.2900    9.3000    9.3100    9.3200    9.3300    9.3400    9.3500
    9.3600    9.3700    9.3800    9.3900    9.4000    9.4100    9.4200    9.4300
    9.4400    9.4500    9.4600    9.4700    9.4800    9.4900    9.5000    9.5100
    9.5200    9.5300    9.5400    9.5500    9.5600    9.5700    9.5800    9.5900
    9.6000    9.6100    9.6200    9.6300    9.6400    9.6500    9.6600    9.6700
    9.6800    9.6900    9.7000    9.7100    9.7200    9.7300    9.7400    9.7500
    9.7600    9.7700    9.7800    9.7900    9.8000    9.8100    9.8200    9.8300
    9.8400    9.8500    9.8600    9.8700    9.8800    9.8900    9.9000    9.9100
    9.9200    9.9300    9.9400    9.9500    9.9600    9.9700    9.9800    9.9900
   10.0000   10.0100   10.0200   10.0300   10.0400   10.0500   10.0600   10.0700
   10.0800   10.0900   10.1000   10.1100   10.1200   10.1300   10.1400   10.1500
   10.1600   10.1700   10.1800   10.1900   10.2000   10.2100
   </PP_R>
   <PP_RAB type="real"  size="1022" columns="8">
    0.0100    0.0100    0.0100    0.0100    0.0100    0.0100    0.0100    0.0100
    0.0100    0.0100    0.0100    0.0100    0.0100    0.0100    0.0100    0.0100
    0.0100    0.0100    0.0100    0.0100    0.0100    0.0100    0.0100    0.0100
    0.0100    0.0100    0.0100    0.0100    0.0100    0.0100    0.0100    0.0100
    0.0100    0.0100    0.0100    0.0100    0.0100    0.0100    0.0100    0.0100
    0.0100    0.0100    0.0100    0.0100    0.0100    0.0100    0.0100    0.0100
    0.0100    0.0100    0.0100    0.0100    0.0100    0.0100    0.0100    0.0100
    0.0100    0.0100    0.0100    0.0100    0.0100    0.0100    0.0100    0.0100
    0.0100    0.0100    0.0100    0.0100    0.0100    0.0100    0.0100    0.0100
    0.0100    0.0100    0.0100    0.0100    0.0100    0.0100    0.0100    0.0100
    0.0100    0.0100    0.0100    0.0100    0.0100    0.0100    0.0100    0.0100
    0.0100    0.0100    0.0100    0.0100    0.0100    0.0100    0.0100    0.0100
    0.0100    0.0100    0.0100    0.0100    0.0100    0.0100    0.0100    0.0100
    0.0100    0.0100    0.0100    0.0100    0.0100    0.0100    0.0100    0.0100
    0.0100    0.0100    0.0100    0.0100    0.0100    0.0100    0.0100    0.0100
    0.0100    0.0100    0.0100    0.0100    0.0100    0.0100    0.0100    0.0100
    0.0100    0.0100    0.0100    0.0100    0.0100    0.0100    0.0100    0.0100
    0.0100    0.0100    0.0100    0.0100    0.0100    0.0100    0.0100    0.0100
    0.0100    0.0100    0.0100    0.0100    0.0100    0.0100    0.0100    0.0100
    0.0100    0.0100    0.0100    0.0100    0.0100    0.0100    0.0100    0.0100
    0.0100    0.0100    0.0100    0.0100    0.0100    0.0100    0.0100    0.0100
    0.0100    0.0100    0.0100    0.0100    0.0100    0.0100    0.0100    0.0100
    0.0100    0.0100    0.0100    0.0100    0.0100    0.0100    0.0100    0.0100
    0.0100    0.0100    0.0100    0.0100    0.0100    0.0100    0.0100    0.0100
    0.0100    0.0100    0.0100    0.0100    0.0100    0.0100    0.0100    0.0100
    0.0100    0.0100    0.0100    0.0100    0.0100    0.0100    0.0100    0.0100
    0.0100    0.0100    0.0100    0.0100    0.0100    0.0100    0.0100    0.0100
    0.0100    0.0100    0.0100    0.0100    0.0100    0.0100    0.0100    0.0100
    0.0100    0.0100    0.0100    0.0100    0.0100    0.0100    0.0100    0.0100
    0.0100    0.0100    0.0100    0.0100    0.0100    0.0100    0.0100    0.0100
    0.0100    0.0100    0.0100    0.0100    0.0100    0.0100    0.0100    0.0100
    0.0100    0.0100    0.0100    0.0100    0.0100    0.0100    0.0100    0.0100
    0.0100    0.0100    0.0100    0.0100    0.0100    0.0100    0.0100    0.0100
    0.0100    0.0100    0.0100    0.0100    0.0100    0.0100    0.0100    0.0100
    0.0100    0.0100    0.0100    0.0100    0.0100    0.0100    0.0100    0.0100
    0.0100    0.0100    0.0100    0.0100    0.0100    0.0100    0.0100    0.0100
    0.0100    0.0100    0.0100    0.0100    0.0100    0.0100    0.0100    0.0100
    0.0100    0.0100    0.0100    0.0100    0.0100    0.0100    0.0100    0.0100
    0.0100    0.0100    0.0100    0.0100    0.0100    0.0100    0.0100    0.0100
    0.0100    0.0100    0.0100    0.0100    0.0100    0.0100    0.0100    0.0100
    0.0100    0.0100    0.0100    0.0100    0.0100    0.0100    0.0100    0.0100
    0.0100    0.0100    0.0100    0.0100    0.0100    0.0100    0.0100    0.0100
    0.0100    0.0100    0.0100    0.0100    0.0100    0.0100    0.0100    0.0100
    0.0100    0.0100    0.0100    0.0100    0.0100    0.0100    0.0100    0.0100
    0.0100    0.0100    0.0100    0.0100    0.0100    0.0100    0.0100    0.0100
    0.0100    0.0100    0.0100    0.0100    0.0100    0.0100    0.0100    0.0100
    0.0100    0.0100    0.0100    0.0100    0.0100    0.0100    0.0100    0.0100
    0.0100    0.0100    0.0100    0.0100    0.0100    0.0100    0.0100    0.0100
    0.0100    0.0100    0.0100    0.0100    0.0100    0.0100    0.0100    0.0100
    0.0100    0.0100    0.0100    0.0100    0.0100    0.0100    0.0100    0.0100
    0.0100    0.0100    0.0100    0.0100    0.0100    0.0100    0.0100    0.0100
    0.0100    0.0100    0.0100    0.0100    0.0100    0.0100    0.0100    0.0100
    0.0100    0.0100    0.0100    0.0100    0.0100    0.0100    0.0100    0.0100
    0.0100    0.0100    0.0100    0.0100    0.0100    0.0100    0.0100    0.0100
    0.0100    0.0100    0.0100    0.0100    0.0100    0.0100    0.0100    0.0100
    0.0100    0.0100    0.0100    0.0100    0.0100    0.0100    0.0100    0.0100
    0.0100    0.0100    0.0100    0.0100    0.0100    0.0100    0.0100    0.0100
    0.0100    0.0100    0.0100    0.0100    0.0100    0.0100    0.0100    0.0100
    0.0100    0.0100    0.0100    0.0100    0.0100    0.0100    0.0100    0.0100
    0.0100    0.0100    0.0100    0.0100    0.0100    0.0100    0.0100    0.0100
    0.0100    0.0100    0.0100    0.0100    0.0100    0.0100    0.0100    0.0100
    0.0100    0.0100    0.0100    0.0100    0.0100    0.0100    0.0100    0.0100
    0.0100    0.0100    0.0100    0.0100    0.0100    0.0100    0.0100    0.0100
    0.0100    0.0100    0.0100    0.0100    0.0100    0.0100    0.0100    0.0100
    0.0100    0.0100    0.0100    0.0100    0.0100    0.0100    0.0100    0.0100
    0.0100    0.0100    0.0100    0.0100    0.0100    0.0100    0.0100    0.0100
    0.0100    0.0100    0.0100    0.0100    0.0100    0.0100    0.0100    0.0100
    0.0100    0.0100    0.0100    0.0100    0.0100    0.0100    0.0100    0.0100
    0.0100    0.0100    0.0100    0.0100    0.0100    0.0100    0.0100    0.0100
    0.0100    0.0100    0.0100    0.0100    0.0100    0.0100    0.0100    0.0100
    0.0100    0.0100    0.0100    0.0100    0.0100    0.0100    0.0100    0.0100
    0.0100    0.0100    0.0100    0.0100    0.0100    0.0100    0.0100    0.0100
    0.0100    0.0100    0.0100    0.0100    0.0100    0.0100    0.0100    0.0100
    0.0100    0.0100    0.0100    0.0100    0.0100    0.0100    0.0100    0.0100
    0.0100    0.0100    0.0100    0.0100    0.0100    0.0100    0.0100    0.0100
    0.0100    0.0100    0.0100    0.0100    0.0100    0.0100    0.0100    0.0100
    0.0100    0.0100    0.0100    0.0100    0.0100    0.0100    0.0100    0.0100
    0.0100    0.0100    0.0100    0.0100    0.0100    0.0100    0.0100    0.0100
    0.0100    0.0100    0.0100    0.0100    0.0100    0.0100    0.0100    0.0100
    0.0100    0.0100    0.0100    0.0100    0.0100    0.0100    0.0100    0.0100
    0.0100    0.0100    0.0100    0.0100    0.0100    0.0100    0.0100    0.0100
    0.0100    0.0100    0.0100    0.0100    0.0100    0.0100    0.0100    0.0100
    0.0100    0.0100    0.0100    0.0100    0.0100    0.0100    0.0100    0.0100
    0.0100    0.0100    0.0100    0.0100    0.0100    0.0100    0.0100    0.0100
    0.0100    0.0100    0.0100    0.0100    0.0100    0.0100    0.0100    0.0100
    0.0100    0.0100    0.0100    0.0100    0.0100    0.0100    0.0100    0.0100
    0.0100    0.0100    0.0100    0.0100    0.0100    0.0100    0.0100    0.0100
    0.0100    0.0100    0.0100    0.0100    0.0100    0.0100    0.0100    0.0100
    0.0100    0.0100    0.0100    0.0100    0.0100    0.0100    0.0100    0.0100
    0.0100    0.0100    0.0100    0.0100    0.0100    0.0100    0.0100    0.0100
    0.0100    0.0100    0.0100    0.0100    0.0100    0.0100    0.0100    0.0100
    0.0100    0.0100    0.0100    0.0100    0.0100    0.0100    0.0100    0.0100
    0.0100    0.0100    0.0100    0.0100    0.0100    0.0100    0.0100    0.0100
    0.0100    0.0100    0.0100    0.0100    0.0100    0.0100    0.0100    0.0100
    0.0100    0.0100    0.0100    0.0100    0.0100    0.0100    0.0100    0.0100
    0.0100    0.0100    0.0100    0.0100    0.0100    0.0100    0.0100    0.0100
    0.0100    0.0100    0.0100    0.0100    0.0100    0.0100    0.0100    0.0100
    0.0100    0.0100    0.0100    0.0100    0.0100    0.0100    0.0100    0.0100
    0.0100    0.0100    0.0100    0.0100    0.0100    0.0100    0.0100    0.0100
    0.0100    0.0100    0.0100    0.0100    0.0100    0.0100    0.0100    0.0100
    0.0100    0.0100    0.0100    0.0100    0.0100    0.0100    0.0100    0.0100
    0.0100    0.0100    0.0100    0.0100    0.0100    0.0100    0.0100    0.0100
    0.0100    0.0100    0.0100    0.0100    0.0100    0.0100    0.0100    0.0100
    0.0100    0.0100    0.0100    0.0100    0.0100    0.0100    0.0100    0.0100
    0.0100    0.0100    0.0100    0.0100    0.0100    0.0100    0.0100    0.0100
    0.0100    0.0100    0.0100    0.0100    0.0100    0.0100    0.0100    0.0100
    0.0100    0.0100    0.0100    0.0100    0.0100    0.0100    0.0100    0.0100
    0.0100    0.0100    0.0100    0.0100    0.0100    0.0100    0.0100    0.0100
    0.0100    0.0100    0.0100    0.0100    0.0100    0.0100    0.0100    0.0100
    0.0100    0.0100    0.0100    0.0100    0.0100    0.0100    0.0100    0.0100
    0.0100    0.0100    0.0100    0.0100    0.0100    0.0100    0.0100    0.0100
    0.0100    0.0100    0.0100    0.0100    0.0100    0.0100    0.0100    0.0100
    0.0100    0.0100    0.0100    0.0100    0.0100    0.0100    0.0100    0.0100
    0.0100    0.0100    0.0100    0.0100    0.0100    0.0100    0.0100    0.0100
    0.0100    0.0100    0.0100    0.0100    0.0100    0.0100    0.0100    0.0100
    0.0100    0.0100    0.0100    0.0100    0.0100    0.0100    0.0100    0.0100
    0.0100    0.0100    0.0100    0.0100    0.0100    0.0100    0.0100    0.0100
    0.0100    0.0100    0.0100    0.0100    0.0100    0.0100    0.0100    0.0100
    0.0100    0.0100    0.0100    0.0100    0.0100    0.0100    0.0100    0.0100
    0.0100    0.0100    0.0100    0.0100    0.0100    0.0100    0.0100    0.0100
    0.0100    0.0100    0.0100    0.0100    0.0100    0.0100    0.0100    0.0100
    0.0100    0.0100    0.0100    0.0100    0.0100    0.0100    0.0100    0.0100
    0.0100    0.0100    0.0100    0.0100    0.0100    0.0100    0.0100    0.0100
    0.0100    0.0100    0.0100    0.0100    0.0100    0.0100    0.0100    0.0100
    0.0100    0.0100    0.0100    0.0100    0.0100    0.0100    0.0100    0.0100
    0.0100    0.0100    0.0100    0.0100    0.0100    0.0100    0.0100    0.0100
    0.0100    0.0100    0.0100    0.0100    0.0100    0.0100    0.0100    0.0100
    0.0100    0.0100    0.0100    0.0100    0.0100    0.0100
   </PP_RAB>
 </PP_MESH>
  <PP_LOCAL type="real"  size="1022" columns="4">
   -2.2385212891E+01   -2.2384302967E+01   -2.2381573518E+01   -2.2377025540E+01
   -2.2370660686E+01   -2.2362481270E+01   -2.2352490263E+01   -2.2340691288E+01
   -2.2327088617E+01   -2.2311687169E+01   -2.2294492503E+01   -2.2275510810E+01
   -2.2254748909E+01   -2.2232214238E+01   -2.2207914846E+01   -2.2181859385E+01
   -2.2154057101E+01   -2.2124517821E+01   -2.2093251944E+01   -2.2060270429E+01
   -2.2025584783E+01   -2.1989207048E+01   -2.1951149788E+01   -2.1911426074E+01
   -2.1870049471E+01   -2.1827034020E+01   -2.1782394226E+01   -2.1736145043E+01
   -2.1688301852E+01   -2.1638880452E+01   -2.1587897038E+01   -2.1535368188E+01
   -2.1481310841E+01   -2.1425742289E+01   -2.1368680149E+01   -2.1310142358E+01
   -2.1250147145E+01   -2.1188713026E+01   -2.1125858778E+01   -2.1061603430E+01
   -2.0995966246E+01   -2.0928966708E+01   -2.0860624507E+01   -2.0790959523E+01
   -2.0719991818E+01   -2.0647741619E+01   -2.0574229312E+01   -2.0499475424E+01
   -2.0423500622E+01   -2.0346325695E+01   -2.0267971553E+01   -2.0188459217E+01
   -2.0107809811E+01   -2.0026044562E+01   -1.9943184790E+01   -1.9859251907E+01
   -1.9774267418E+01   -1.9688252915E+01   -1.9601230078E+01   -1.9513220678E+01
   -1.9424246576E+01   -1.9334329729E+01   -1.9243492192E+01   -1.9151756120E+01
   -1.9059143781E+01   -1.8965677554E+01   -1.8871379944E+01   -1.8776273584E+01
   -1.8680381249E+01   -1.8583725864E+01   -1.8486330513E+01   -1.8388218452E+01
   -1.8289413120E+01   -1.8189938150E+01   -1.8089817383E+01   -1.7989074880E+01
   -1.7887734934E+01   -1.7785822082E+01   -1.7683361122E+01   -1.7580377120E+01
   -1.7476895426E+01   -1.7372941682E+01   -1.7268541837E+01   -1.7163722156E+01
   -1.7058509225E+01   -1.6952929968E+01   -1.6847011643E+01   -1.6740781855E+01
   -1.6634268559E+01   -1.6527500056E+01   -1.6420505001E+01   -1.6313312393E+01
   -1.6205951577E+01   -1.6098452233E+01   -1.5990844364E+01   -1.5883158292E+01
   -1.5775424633E+01   -1.5667674287E+01   -1.5559938413E+01   -1.5452248406E+01
   -1.5344635870E+01   -1.5237132593E+01   -1.5129770508E+01   -1.5022581663E+01
   -1.4915598185E+01   -1.4808852235E+01   -1.4702375972E+01   -1.4596201507E+01
   -1.4490360857E+01   -1.4384885899E+01   -1.4279808321E+01   -1.4175159573E+01
   -1.4070970815E+01   -1.3967272869E+01   -1.3864096162E+01   -1.3761470680E+01
   -1.3659425909E+01   -1.3557990789E+01   -1.3457193654E+01   -1.3357062189E+01
   -1.3257623368E+01   -1.3158903411E+01   -1.3060927725E+01   -1.2963720860E+01
   -1.2867306455E+01   -1.2771707189E+01   -1.2676944730E+01   -1.2583039691E+01
   -1.2490011579E+01   -1.2397878746E+01   -1.2306658348E+01   -1.2216366294E+01
   -1.2127017202E+01   -1.2038624357E+01   -1.1951199666E+01   -1.1864753613E+01
   -1.1779295220E+01   -1.1694832007E+01   -1.1611369946E+01   -1.1528913429E+01
   -1.1447465223E+01   -1.1367026436E+01   -1.1287596481E+01   -1.1209173039E+01
   -1.1131752022E+01   -1.1055327546E+01   -1.0979891890E+01   -1.0905435468E+01
   -1.0831946801E+01   -1.0759412479E+01   -1.0687817144E+01   -1.0617143432E+01
   -1.0547372526E+01   -1.0478485579E+01   -1.0410464298E+01   -1.0343290902E+01
   -1.0276948116E+01   -1.0211419165E+01   -1.0146687758E+01   -1.0082738081E+01
   -1.0019554787E+01   -9.9571229865E+00   -9.8954282436E+00   -9.8344565750E+00
   -9.7741944352E+00   -9.7146286812E+00   -9.6557465915E+00   -9.5975358807E+00
   -9.5399846948E+00   -9.4830815650E+00   -9.4268153293E+00   -9.3711774413E+00
   -9.3161652301E+00   -9.2617761235E+00   -9.2080009256E+00   -9.1548301094E+00
   -9.1022563652E+00   -9.0502713704E+00   -8.9988672735E+00   -8.9480362943E+00
   -8.8977707778E+00   -8.8480631764E+00   -8.7989060408E+00   -8.7502920101E+00
   -8.7022138040E+00   -8.6546642150E+00   -8.6076361010E+00   -8.5611223795E+00
   -8.5151160219E+00   -8.4696100486E+00   -8.4245975251E+00   -8.3800715583E+00
   -8.3360252936E+00   -8.2924519134E+00   -8.2493446341E+00   -8.2066967075E+00
   -8.1645014187E+00   -8.1227520858E+00   -8.0814420627E+00   -8.0405647391E+00
   -8.0001135404E+00   -7.9600819262E+00   -7.9204633998E+00   -7.8812515208E+00
   -7.8424399065E+00   -7.8040222173E+00   -7.7659921686E+00   -7.7283435482E+00
   -7.6910701879E+00   -7.6541659567E+00   -7.6176250107E+00   -7.5814428155E+00
   -7.5456169385E+00   -7.5101438608E+00   -7.4750169435E+00   -7.4402306607E+00
   -7.4057794596E+00   -7.3716578025E+00   -7.3378602580E+00   -7.3043814756E+00
   -7.2712161935E+00   -7.2383592424E+00   -7.2058055483E+00   -7.1735501361E+00
   -7.1415881321E+00   -7.1099147668E+00   -7.0785253768E+00   -7.0474154065E+00
   -7.0165804101E+00   -6.9860160522E+00   -6.9557181087E+00   -6.9256824671E+00
   -6.8959051269E+00   -6.8663821989E+00   -6.8371099047E+00   -6.8080845758E+00
   -6.7793026516E+00   -6.7507606785E+00   -6.7224553085E+00   -6.6943832959E+00
   -6.6665414948E+00   -6.6389268571E+00   -6.6115364294E+00   -6.5843673495E+00
   -6.5574168434E+00   -6.5306822218E+00   -6.5041608760E+00   -6.4778502751E+00
   -6.4517479610E+00   -6.4258515456E+00   -6.4001587059E+00   -6.3746671809E+00
   -6.3493747670E+00   -6.3242793142E+00   -6.2993787223E+00   -6.2746709373E+00
   -6.2501539470E+00   -6.2258257781E+00   -6.2016844922E+00   -6.1777281828E+00
   -6.1539549718E+00   -6.1303630067E+00   -6.1069504576E+00   -6.0837155149E+00
   -6.0606563865E+00   -6.0377712959E+00   -6.0150584804E+00   -5.9925161887E+00
   -5.9701426803E+00   -5.9479362238E+00   -5.9258950957E+00   -5.9040175802E+00
   -5.8823019682E+00   -5.8607465572E+00   -5.8393496510E+00   -5.8181095600E+00
   -5.7970246015E+00   -5.7760930998E+00   -5.7553133873E+00   -5.7346838049E+00
   -5.7142027030E+00   -5.6938684424E+00   -5.6736793954E+00   -5.6536339471E+00
   -5.6337304964E+00   -5.6139674572E+00   -5.5943432595E+00   -5.5748563512E+00
   -5.5555051984E+00   -5.5362882873E+00   -5.5172041248E+00   -5.4982512398E+00
   -5.4794281839E+00   -5.4607335325E+00   -5.4421658853E+00   -5.4237238667E+00
   -5.4054061270E+00   -5.3872113419E+00   -5.3691382132E+00   -5.3511854691E+00
   -5.3333518636E+00   -5.3156361766E+00   -5.2980372138E+00   -5.2805538061E+00
   -5.2631848090E+00   -5.2459291021E+00   -5.2287855885E+00   -5.2117531937E+00
   -5.1948308649E+00   -5.1780175699E+00   -5.1613122964E+00   -5.1447140505E+00
   -5.1282218559E+00   -5.1118347528E+00   -5.0955517966E+00   -5.0793720570E+00
   -5.0632946166E+00   -5.0473185702E+00   -5.0314430234E+00   -5.0156670918E+00
   -4.9999899000E+00   -4.9844105807E+00   -4.9689282740E+00   -4.9535421264E+00
   -4.9382512902E+00   -4.9230549232E+00   -4.9079521878E+00   -4.8929422508E+00
   -4.8780242829E+00   -4.8631974589E+00   -4.8484609569E+00   -4.8338139586E+00
   -4.8192556493E+00   -4.8047852181E+00   -4.7904018576E+00   -4.7761047646E+00
   -4.7618931401E+00   -4.7477661900E+00   -4.7337231249E+00   -4.7197631612E+00
   -4.7058855210E+00   -4.6920894330E+00   -4.6783741328E+00   -4.6647388634E+00
   -4.6511828758E+00   -4.6377054297E+00   -4.6243057935E+00   -4.6109832452E+00
   -4.5977370727E+00   -4.5845665744E+00   -4.5714710592E+00   -4.5584498472E+00
   -4.5455022697E+00   -4.5326276698E+00   -4.5198254021E+00   -4.5070948333E+00
   -4.4944353418E+00   -4.4818463181E+00   -4.4693271645E+00   -4.4568772952E+00
   -4.4444961358E+00   -4.4321831234E+00   -4.4199377060E+00   -4.4077593424E+00
   -4.3956475020E+00   -4.3836016637E+00   -4.3716213163E+00   -4.3597059573E+00
   -4.3478550929E+00   -4.3360682371E+00   -4.3243449115E+00   -4.3126846442E+00
   -4.3010869700E+00   -4.2895514290E+00   -4.2780775669E+00   -4.2666649337E+00
   -4.2553130836E+00   -4.2440215745E+00   -4.2327899672E+00   -4.2216178254E+00
   -4.2105047150E+00   -4.1994502040E+00   -4.1884538612E+00   -4.1775152540E+00
   -4.1666339559E+00   -4.1558095525E+00   -4.1450415751E+00   -4.1343296664E+00
   -4.1236736925E+00   -4.1130724556E+00   -4.1025245086E+00   -4.0920311363E+00
   -4.0815970444E+00   -4.0712255433E+00   -4.0609082396E+00   -4.0506364051E+00
   -4.0404093991E+00   -4.0302310653E+00   -4.0201043548E+00   -4.0100287011E+00
   -4.0000034313E+00   -3.9900283384E+00   -3.9801028871E+00   -3.9702266257E+00
   -3.9603992288E+00   -3.9506203897E+00   -3.9408897267E+00   -3.9312068818E+00
   -3.9215715034E+00   -3.9119832438E+00   -3.9024417582E+00   -3.8929467052E+00
   -3.8834977465E+00   -3.8740945473E+00   -3.8647367761E+00   -3.8554241043E+00
   -3.8461562067E+00   -3.8369327612E+00   -3.8277534486E+00   -3.8186179530E+00
   -3.8095259612E+00   -3.8004771634E+00   -3.7914712524E+00   -3.7825079239E+00
   -3.7735868767E+00   -3.7647078123E+00   -3.7558704350E+00   -3.7470744518E+00
   -3.7383195726E+00   -3.7296055099E+00   -3.7209319790E+00   -3.7122986976E+00
   -3.7037053862E+00   -3.6951517679E+00   -3.6866375683E+00   -3.6781625154E+00
   -3.6697263399E+00   -3.6613287749E+00   -3.6529695559E+00   -3.6446484208E+00
   -3.6363651099E+00   -3.6281193659E+00   -3.6199109338E+00   -3.6117395609E+00
   -3.6036049968E+00   -3.5955069932E+00   -3.5874453043E+00   -3.5794196863E+00
   -3.5714298977E+00   -3.5634756989E+00   -3.5555568528E+00   -3.5476731241E+00
   -3.5398242798E+00   -3.5320100888E+00   -3.5242303221E+00   -3.5164847528E+00
   -3.5087731557E+00   -3.5010953079E+00   -3.4934509883E+00   -3.4858399778E+00
   -3.4782620591E+00   -3.4707170168E+00   -3.4632046374E+00   -3.4557247094E+00
   -3.4482770228E+00   -3.4408613696E+00   -3.4334775436E+00   -3.4261253403E+00
   -3.4188045571E+00   -3.4115149928E+00   -3.4042564483E+00   -3.3970287259E+00
   -3.3898316298E+00   -3.3826649656E+00   -3.3755285408E+00   -3.3684221643E+00
   -3.3613456467E+00   -3.3542988004E+00   -3.3472814389E+00   -3.3402933778E+00
   -3.3333344337E+00   -3.3264044252E+00   -3.3195031720E+00   -3.3126304957E+00
   -3.3057862190E+00   -3.2989701662E+00   -3.2921821633E+00   -3.2854220372E+00
   -3.2786896168E+00   -3.2719847319E+00   -3.2653072140E+00   -3.2586568960E+00
   -3.2520336118E+00   -3.2454371970E+00   -3.2388674885E+00   -3.2323243244E+00
   -3.2258075440E+00   -3.2193169882E+00   -3.2128524990E+00   -3.2064139196E+00
   -3.2000010946E+00   -3.1936138697E+00   -3.1872520920E+00   -3.1809156098E+00
   -3.1746042723E+00   -3.1683179303E+00   -3.1620564355E+00   -3.1558196409E+00
   -3.1496074007E+00   -3.1434195700E+00   -3.1372560055E+00   -3.1311165644E+00
   -3.1250011056E+00   -3.1189094888E+00   -3.1128415747E+00   -3.1067972254E+00
   -3.1007763038E+00   -3.0947786740E+00   -3.0888042010E+00   -3.0828527511E+00
   -3.0769241913E+00   -3.0710183899E+00   -3.0651352162E+00   -3.0592745402E+00
   -3.0534362332E+00   -3.0476201673E+00   -3.0418262158E+00   -3.0360542526E+00
   -3.0303041530E+00   -3.0245757928E+00   -3.0188690491E+00   -3.0131837997E+00
   -3.0075199234E+00   -3.0018772998E+00   -2.9962558097E+00   -2.9906553345E+00
   -2.9850757565E+00   -2.9795169591E+00   -2.9739788263E+00   -2.9684612431E+00
   -2.9629640954E+00   -2.9574872698E+00   -2.9520306539E+00   -2.9465941360E+00
   -2.9411776053E+00   -2.9357809517E+00   -2.9304040660E+00   -2.9250468398E+00
   -2.9197091655E+00   -2.9143909363E+00   -2.9090920460E+00   -2.9038123895E+00
   -2.8985518620E+00   -2.8933103600E+00   -2.8880877803E+00   -2.8828840207E+00
   -2.8776989796E+00   -2.8725325562E+00   -2.8673846504E+00   -2.8622551628E+00
   -2.8571439948E+00   -2.8520510484E+00   -2.8469762263E+00   -2.8419194319E+00
   -2.8368805694E+00   -2.8318595436E+00   -2.8268562598E+00   -2.8218706243E+00
   -2.8169025438E+00   -2.8119519257E+00   -2.8070186782E+00   -2.8021027100E+00
   -2.7972039305E+00   -2.7923222496E+00   -2.7874575780E+00   -2.7826098269E+00
   -2.7777789083E+00   -2.7729647346E+00   -2.7681672189E+00   -2.7633862749E+00
   -2.7586218169E+00   -2.7538737597E+00   -2.7491420188E+00   -2.7444265103E+00
   -2.7397271507E+00   -2.7350438573E+00   -2.7303765478E+00   -2.7257251405E+00
   -2.7210895543E+00   -2.7164697085E+00   -2.7118655232E+00   -2.7072769189E+00
   -2.7027038166E+00   -2.6981461378E+00   -2.6936038048E+00   -2.6890767400E+00
   -2.6845648667E+00   -2.6800681086E+00   -2.6755863897E+00   -2.6711196348E+00
   -2.6666677690E+00   -2.6622307181E+00   -2.6578084081E+00   -2.6534007658E+00
   -2.6490077184E+00   -2.6446291933E+00   -2.6402651188E+00   -2.6359154235E+00
   -2.6315800363E+00   -2.6272588868E+00   -2.6229519049E+00   -2.6186590212E+00
   -2.6143801665E+00   -2.6101152721E+00   -2.6058642699E+00   -2.6016270920E+00
   -2.5974036712E+00   -2.5931939405E+00   -2.5889978335E+00   -2.5848152842E+00
   -2.5806462269E+00   -2.5764905966E+00   -2.5723483283E+00   -2.5682193579E+00
   -2.5641036213E+00   -2.5600010550E+00   -2.5559115959E+00   -2.5518351814E+00
   -2.5477717490E+00   -2.5437212369E+00   -2.5396835835E+00   -2.5356587277E+00
   -2.5316466088E+00   -2.5276471664E+00   -2.5236603406E+00   -2.5196860716E+00
   -2.5157243003E+00   -2.5117749678E+00   -2.5078380156E+00   -2.5039133857E+00
   -2.5000010202E+00   -2.4961008617E+00   -2.4922128533E+00   -2.4883369381E+00
   -2.4844730600E+00   -2.4806211628E+00   -2.4767811910E+00   -2.4729530893E+00
   -2.4691368027E+00   -2.4653322765E+00   -2.4615394566E+00   -2.4577582890E+00
   -2.4539887200E+00   -2.4502306963E+00   -2.4464841651E+00   -2.4427490737E+00
   -2.4390253697E+00   -2.4353130011E+00   -2.4316119164E+00   -2.4279220640E+00
   -2.4242433930E+00   -2.4205758526E+00   -2.4169193924E+00   -2.4132739622E+00
   -2.4096395122E+00   -2.4060159929E+00   -2.4024033550E+00   -2.3988015496E+00
   -2.3952105280E+00   -2.3916302419E+00   -2.3880606431E+00   -2.3845016841E+00
   -2.3809533171E+00   -2.3774154950E+00   -2.3738881710E+00   -2.3703712982E+00
   -2.3668648304E+00   -2.3633687214E+00   -2.3598829254E+00   -2.3564073968E+00
   -2.3529420904E+00   -2.3494869610E+00   -2.3460419640E+00   -2.3426070548E+00
   -2.3391821892E+00   -2.3357673232E+00   -2.3323624130E+00   -2.3289674153E+00
   -2.3255822867E+00   -2.3222069843E+00   -2.3188414654E+00   -2.3154856875E+00
   -2.3121396084E+00   -2.3088031860E+00   -2.3054763787E+00   -2.3021591450E+00
   -2.2988514435E+00   -2.2955532332E+00   -2.2922644734E+00   -2.2889851235E+00
   -2.2857151431E+00   -2.2824544922E+00   -2.2792031309E+00   -2.2759610195E+00
   -2.2727281187E+00   -2.2695043893E+00   -2.2662897922E+00   -2.2630842887E+00
   -2.2598878403E+00   -2.2567004087E+00   -2.2535219557E+00   -2.2503524436E+00
   -2.2471918346E+00   -2.2440400912E+00   -2.2408971762E+00   -2.2377630526E+00
   -2.2346376835E+00   -2.2315210323E+00   -2.2284130626E+00   -2.2253137382E+00
   -2.2222230229E+00   -2.2191408811E+00   -2.2160672771E+00   -2.2130021754E+00
   -2.2099455409E+00   -2.2068973384E+00   -2.2038575332E+00   -2.2008260906E+00
   -2.1978029761E+00   -2.1947881555E+00   -2.1917815946E+00   -2.1887832597E+00
   -2.1857931169E+00   -2.1828111327E+00   -2.1798372738E+00   -2.1768715071E+00
   -2.1739137995E+00   -2.1709641183E+00   -2.1680224307E+00   -2.1650887045E+00
   -2.1621629072E+00   -2.1592450068E+00   -2.1563349713E+00   -2.1534327691E+00
   -2.1505383685E+00   -2.1476517380E+00   -2.1447728466E+00   -2.1419016630E+00
   -2.1390381563E+00   -2.1361822959E+00   -2.1333340511E+00   -2.1304933915E+00
   -2.1276602868E+00   -2.1248347070E+00   -2.1220166221E+00   -2.1192060023E+00
   -2.1164028181E+00   -2.1136070398E+00   -2.1108186383E+00   -2.1080375843E+00
   -2.1052638489E+00   -2.1024974032E+00   -2.0997382185E+00   -2.0969862663E+00
   -2.0942415182E+00   -2.0915039458E+00   -2.0887735212E+00   -2.0860502163E+00
   -2.0833340034E+00   -2.0806248547E+00   -2.0779227428E+00   -2.0752276402E+00
   -2.0725395198E+00   -2.0698583544E+00   -2.0671841171E+00   -2.0645167810E+00
   -2.0618563195E+00   -2.0592027061E+00   -2.0565559142E+00   -2.0539159178E+00
   -2.0512826905E+00   -2.0486562065E+00   -2.0460364398E+00   -2.0434233648E+00
   -2.0408169557E+00   -2.0382171872E+00   -2.0356240339E+00   -2.0330374705E+00
   -2.0304574720E+00   -2.0278840135E+00   -2.0253170700E+00   -2.0227566169E+00
   -2.0202026296E+00   -2.0176550836E+00   -2.0151139547E+00   -2.0125792185E+00
   -2.0100508509E+00   -2.0075288281E+00   -2.0050131262E+00   -2.0025037214E+00
   -2.0000005901E+00   -1.9975037088E+00   -1.9950130541E+00   -1.9925286028E+00
   -1.9900503318E+00   -1.9875782179E+00   -1.9851122384E+00   -1.9826523703E+00
   -1.9801985909E+00   -1.9777508778E+00   -1.9753092085E+00   -1.9728735605E+00
   -1.9704439116E+00   -1.9680202397E+00   -1.9656025228E+00   -1.9631907390E+00
   -1.9607848664E+00   -1.9583848833E+00   -1.9559907682E+00   -1.9536024995E+00
   -1.9512200558E+00   -1.9488434159E+00   -1.9464725586E+00   -1.9441074628E+00
   -1.9417481075E+00   -1.9393944718E+00   -1.9370465351E+00   -1.9347042765E+00
   -1.9323676756E+00   -1.9300367118E+00   -1.9277113648E+00   -1.9253916143E+00
   -1.9230774402E+00   -1.9207688223E+00   -1.9184657406E+00   -1.9161681753E+00
   -1.9138761066E+00   -1.9115895147E+00   -1.9093083801E+00   -1.9070326833E+00
   -1.9047624048E+00   -1.9024975252E+00   -1.9002380255E+00   -1.8979838863E+00
   -1.8957350888E+00   -1.8934916138E+00   -1.8912534425E+00   -1.8890205562E+00
   -1.8867929362E+00   -1.8845705637E+00   -1.8823534204E+00   -1.8801414878E+00
   -1.8779347475E+00   -1.8757331813E+00   -1.8735367709E+00   -1.8713454984E+00
   -1.8691593457E+00   -1.8669782948E+00   -1.8648023280E+00   -1.8626314274E+00
   -1.8604655755E+00   -1.8583047546E+00   -1.8561489472E+00   -1.8539981358E+00
   -1.8518523033E+00   -1.8497114321E+00   -1.8475755053E+00   -1.8454445056E+00
   -1.8433184160E+00   -1.8411972197E+00   -1.8390808997E+00   -1.8369694391E+00
   -1.8348628214E+00   -1.8327610299E+00   -1.8306640479E+00   -1.8285718591E+00
   -1.8264844469E+00   -1.8244017951E+00   -1.8223238873E+00   -1.8202507075E+00
   -1.8181822394E+00   -1.8161184671E+00   -1.8140593745E+00   -1.8120049458E+00
   -1.8099551651E+00   -1.8079100167E+00   -1.8058694849E+00   -1.8038335540E+00
   -1.8018022086E+00   -1.7997754332E+00   -1.7977532123E+00   -1.7957355306E+00
   -1.7937223729E+00   -1.7917137239E+00   -1.7897095685E+00   -1.7877098918E+00
   -1.7857146785E+00   -1.7837239140E+00   -1.7817375832E+00   -1.7797556713E+00
   -1.7777781638E+00   -1.7758050458E+00   -1.7738363028E+00   -1.7718719202E+00
   -1.7699118837E+00   -1.7679561787E+00   -1.7660047909E+00   -1.7640577061E+00
   -1.7621149101E+00   -1.7601763886E+00   -1.7582421276E+00   -1.7563121130E+00
   -1.7543863310E+00   -1.7524647675E+00   -1.7505474088E+00   -1.7486342410E+00
   -1.7467252505E+00   -1.7448204235E+00   -1.7429197465E+00   -1.7410232058E+00
   -1.7391307881E+00   -1.7372424799E+00   -1.7353582678E+00   -1.7334781385E+00
   -1.7316020787E+00   -1.7297300753E+00   -1.7278621151E+00   -1.7259981850E+00
   -1.7241382720E+00   -1.7222823631E+00   -1.7204304455E+00   -1.7185825061E+00
   -1.7167385324E+00   -1.7148985114E+00   -1.7130624304E+00   -1.7112302770E+00
   -1.7094020384E+00   -1.7075777021E+00   -1.7057572557E+00   -1.7039406867E+00
   -1.7021279827E+00   -1.7003191315E+00   -1.6985141207E+00   -1.6967129381E+00
   -1.6949155716E+00   -1.6931220091E+00   -1.6913322384E+00   -1.6895462477E+00
   -1.6877640248E+00   -1.6859855580E+00   -1.6842108353E+00   -1.6824398449E+00
   -1.6806725751E+00   -1.6789090141E+00   -1.6771491504E+00   -1.6753929722E+00
   -1.6736404681E+00   -1.6718916264E+00   -1.6701464358E+00   -1.6684048848E+00
   -1.6666669620E+00   -1.6649326561E+00   -1.6632019558E+00   -1.6614748500E+00
   -1.6597513273E+00   -1.6580313768E+00   -1.6563149872E+00   -1.6546021475E+00
   -1.6528928468E+00   -1.6511870740E+00   -1.6494848183E+00   -1.6477860688E+00
   -1.6460908146E+00   -1.6443990451E+00   -1.6427107494E+00   -1.6410259169E+00
   -1.6393445369E+00   -1.6376665989E+00   -1.6359920922E+00   -1.6343210063E+00
   -1.6326533309E+00   -1.6309890554E+00   -1.6293281695E+00   -1.6276706627E+00
   -1.6260165249E+00   -1.6243657458E+00   -1.6227183151E+00   -1.6210742227E+00
   -1.6194334584E+00   -1.6177960121E+00   -1.6161618738E+00   -1.6145310334E+00
   -1.6129034811E+00   -1.6112792068E+00   -1.6096582006E+00   -1.6080404528E+00
   -1.6064259535E+00   -1.6048146928E+00   -1.6032066612E+00   -1.6016018488E+00
   -1.6000002461E+00   -1.5984018434E+00   -1.5968066311E+00   -1.5952145996E+00
   -1.5936257396E+00   -1.5920400415E+00   -1.5904574959E+00   -1.5888780933E+00
   -1.5873018245E+00   -1.5857286801E+00   -1.5841586509E+00   -1.5825917275E+00
   -1.5810279009E+00   -1.5794671617E+00   -1.5779095009E+00   -1.5763549095E+00
   -1.5748033782E+00   -1.5732548982E+00   -1.5717094603E+00   -1.5701670557E+00
   -1.5686276754E+00   -1.5670913106E+00
  </PP_LOCAL>
 <PP_NONLOCAL>
   <PP_BETA.1
       type="real"
       size="1022"
       columns="4"
       index="1"
       angular_momentum="0"
       cutoff_radius_index=" 236"
       cutoff_radius="    2.3500000000E+00" >
    3.2371161307E-11    3.8454270810E-02    7.6888275044E-02    1.1528165111E-01
    1.5361384835E-01    1.9186403507E-01    2.3001100939E-01    2.6803311413E-01
    3.0590815645E-01    3.4361333324E-01    3.8112516298E-01    4.1841942497E-01
    4.5547110657E-01    4.9225435906E-01    5.2874246280E-01    5.6490780214E-01
    6.0072185045E-01    6.3615516568E-01    6.7117739670E-01    7.0575730045E-01
    7.3986277019E-01    7.7346087464E-01    8.0651790793E-01    8.3899945026E-01
    8.7087043886E-01    9.0209524894E-01    9.3263778415E-01    9.6246157601E-01
    9.9152989167E-01    1.0198058494E+00    1.0472525411E+00    1.0738331606E+00
    1.0995111376E+00    1.1242502758E+00    1.1480148948E+00    1.1707699738E+00
    1.1924812971E+00    1.2131156010E+00    1.2326407184E+00    1.2510257235E+00
    1.2682410731E+00    1.2842587450E+00    1.2990523713E+00    1.3125973672E+00
    1.3248710531E+00    1.3358527700E+00    1.3455239867E+00    1.3538683992E+00
    1.3608720204E+00    1.3665232610E+00    1.3708129990E+00    1.3737346399E+00
    1.3752841656E+00    1.3754601717E+00    1.3742638945E+00    1.3716992257E+00
    1.3677727167E+00    1.3624935707E+00    1.3558736245E+00    1.3479273192E+00
    1.3386716602E+00    1.3281261675E+00    1.3163128165E+00    1.3032559685E+00
    1.2889822948E+00    1.2735206907E+00    1.2569021839E+00    1.2391598354E+00
    1.2203286355E+00    1.2004453940E+00    1.1795486266E+00    1.1576784380E+00
    1.1348764020E+00    1.1111854401E+00    1.0866496984E+00    1.0613144248E+00
    1.0352258462E+00    1.0084310466E+00    9.8097784715E-01    9.5291468795E-01
    9.2429051302E-01    8.9515465823E-01    8.6555674297E-01    8.3554656574E-01
    8.0517400401E-01    7.7448891860E-01    7.4354106265E-01    7.1237999535E-01
    6.8105500041E-01    6.4961500925E-01    6.1810852878E-01    5.8658357365E-01
    5.5508760269E-01    5.2366745936E-01    4.9236931588E-01    4.6123862060E-01
    4.3032004837E-01    3.9965745341E-01    3.6929382432E-01    3.3927124067E-01
    3.0963083093E-01    2.8041273110E-01    2.5165604373E-01    2.2339879689E-01
    1.9567790270E-01    1.6852911501E-01    1.4198698607E-01    1.1608482172E-01
    9.0854635005E-02    6.6327098051E-02    4.2531491998E-02    1.9495655053E-02
   -2.7540713672E-03   -2.4192898302E-02   -4.4797646551E-02   -6.4546805384E-02
   -8.3420592347E-02   -1.0140101379E-01   -1.1847192567E-01   -1.3461909412E-01
   -1.4983025521E-01   -1.6409517326E-01   -1.7740569709E-01   -1.8975581332E-01
   -2.0114169621E-01   -2.1156175298E-01   -2.2101666398E-01   -2.2950941683E-01
   -2.3704533360E-01   -2.4363209041E-01   -2.4927972839E-01   -2.5400065540E-01
   -2.5780963766E-01   -2.6072378055E-01   -2.6276249807E-01   -2.6394747016E-01
   -2.6430258746E-01   -2.6385388311E-01   -2.6262945114E-01   -2.6065935117E-01
   -2.5797549938E-01   -2.5461154555E-01   -2.5060273634E-01   -2.4598576486E-01
   -2.4079860697E-01   -2.3508034451E-01   -2.2887097623E-01   -2.2221121682E-01
   -2.1514228495E-01   -2.0770568109E-01   -1.9994295826E-01   -1.9189547557E-01
   -1.8360430354E-01   -1.7511038475E-01   -1.6645452048E-01   -1.5767720376E-01
   -1.4881845826E-01   -1.3991767340E-01   -1.3101343879E-01   -1.2214337920E-01
   -1.1334399136E-01   -1.0465048372E-01   -9.6096620593E-02   -8.7714571841E-02
   -7.9534769353E-02   -7.1585771593E-02   -6.3894137351E-02   -5.6484309800E-02
   -4.9378511978E-02   -4.2596654615E-02   -3.6156257242E-02   -3.0072383389E-02
   -2.4357590562E-02   -1.9021895604E-02   -1.4072755939E-02   -9.5150670356E-03
   -5.3511763487E-03   -1.5809138367E-03    1.7983609579E-03    4.7916954212E-03
    7.4064642713E-03    9.6522742498E-03    1.1540853657E-02    1.3085927417E-02
    1.4303078436E-02    1.5209596196E-02    1.5824313583E-02    1.6167433074E-02
    1.6260343510E-02    1.6125428738E-02    1.5785869505E-02    1.5265440048E-02
    1.4588300857E-02    1.3778789087E-02    1.2861208595E-02    1.1859619847E-02
    1.0797635574E-02    9.6982072299E-03    8.5834379977E-03    7.4744359654E-03
    6.3906560336E-03    5.3458038085E-03    4.3541886660E-03    3.4341648937E-03
    2.6012220189E-03    1.8687276057E-03    1.2476639749E-03    7.4672518341E-04
    3.7110820951E-04    1.2503657422E-04    1.4841729862E-05   -4.7796483295E-06
    1.2620103489E-06   -5.4494679312E-08   -1.2270047944E-07    5.2357321260E-11
    0.0000000000E+00    0.0000000000E+00    0.0000000000E+00    0.0000000000E+00
    0.0000000000E+00    0.0000000000E+00    0.0000000000E+00    0.0000000000E+00
    0.0000000000E+00    0.0000000000E+00    0.0000000000E+00    0.0000000000E+00
    0.0000000000E+00    0.0000000000E+00    0.0000000000E+00    0.0000000000E+00
    0.0000000000E+00    0.0000000000E+00    0.0000000000E+00    0.0000000000E+00
 0. 0. 0. 0.
 0. 0. 0. 0.
 0. 0. 0. 0.
 0. 0. 0. 0.
 0. 0. 0. 0.
 0. 0. 0. 0.
 0. 0. 0. 0.
 0. 0. 0. 0.
 0. 0. 0. 0.
 0. 0. 0. 0.
 0. 0. 0. 0.
 0. 0. 0. 0.
 0. 0. 0. 0.
 0. 0. 0. 0.
 0. 0. 0. 0.
 0. 0. 0. 0.
 0. 0. 0. 0.
 0. 0. 0. 0.
 0. 0. 0. 0.
 0. 0. 0. 0.
 0. 0. 0. 0.
 0. 0. 0. 0.
 0. 0. 0. 0.
 0. 0. 0. 0.
 0. 0. 0. 0.
 0. 0. 0. 0.
 0. 0. 0. 0.
 0. 0. 0. 0.
 0. 0. 0. 0.
 0. 0. 0. 0.
 0. 0. 0. 0.
 0. 0. 0. 0.
 0. 0. 0. 0.
 0. 0. 0. 0.
 0. 0. 0. 0.
 0. 0. 0. 0.
 0. 0. 0. 0.
 0. 0. 0. 0.
 0. 0. 0. 0.
 0. 0. 0. 0.
 0. 0. 0. 0.
 0. 0. 0. 0.
 0. 0. 0. 0.
 0. 0. 0. 0.
 0. 0. 0. 0.
 0. 0. 0. 0.
 0. 0. 0. 0.
 0. 0. 0. 0.
 0. 0. 0. 0.
 0. 0. 0. 0.
 0. 0. 0. 0.
 0. 0. 0. 0.
 0. 0. 0. 0.
 0. 0. 0. 0.
 0. 0. 0. 0.
 0. 0. 0. 0.
 0. 0. 0. 0.
 0. 0. 0. 0.
 0. 0. 0. 0.
 0. 0. 0. 0.
 0. 0. 0. 0.
 0. 0. 0. 0.
 0. 0. 0. 0.
 0. 0. 0. 0.
 0. 0. 0. 0.
 0. 0. 0. 0.
 0. 0. 0. 0.
 0. 0. 0. 0.
 0. 0. 0. 0.
 0. 0. 0. 0.
 0. 0. 0. 0.
 0. 0. 0. 0.
 0. 0. 0. 0.
 0. 0. 0. 0.
 0. 0. 0. 0.
 0. 0. 0. 0.
 0. 0. 0. 0.
 0. 0. 0. 0.
 0. 0. 0. 0.
 0. 0. 0. 0.
 0. 0. 0. 0.
 0. 0. 0. 0.
 0. 0. 0. 0.
 0. 0. 0. 0.
 0. 0. 0. 0.
 0. 0. 0. 0.
 0. 0. 0. 0.
 0. 0. 0. 0.
 0. 0. 0. 0.
 0. 0. 0. 0.
 0. 0. 0. 0.
 0. 0. 0. 0.
 0. 0. 0. 0.
 0. 0. 0. 0.
 0. 0. 0. 0.
 0. 0. 0. 0.
 0. 0. 0. 0.
 0. 0. 0. 0.
 0. 0. 0. 0.
 0. 0. 0. 0.
 0. 0. 0. 0.
 0. 0. 0. 0.
 0. 0. 0. 0.
 0. 0. 0. 0.
 0. 0. 0. 0.
 0. 0. 0. 0.
 0. 0. 0. 0.
 0. 0. 0. 0.
 0. 0. 0. 0.
 0. 0. 0. 0.
 0. 0. 0. 0.
 0. 0. 0. 0.
 0. 0. 0. 0.
 0. 0. 0. 0.
 0. 0. 0. 0.
 0. 0. 0. 0.
 0. 0. 0. 0.
 0. 0. 0. 0.
 0. 0. 0. 0.
 0. 0. 0. 0.
 0. 0. 0. 0.
 0. 0. 0. 0.
 0. 0. 0. 0.
 0. 0. 0. 0.
 0. 0. 0. 0.
 0. 0. 0. 0.
 0. 0. 0. 0.
 0. 0. 0. 0.
 0. 0. 0. 0.
 0. 0. 0. 0.
 0. 0. 0. 0.
 0. 0. 0. 0.
 0. 0. 0. 0.
 0. 0. 0. 0.
 0. 0. 0. 0.
 0. 0. 0. 0.
 0. 0. 0. 0.
 0. 0. 0. 0.
 0. 0. 0. 0.
 0. 0. 0. 0.
 0. 0. 0. 0.
 0. 0. 0. 0.
 0. 0. 0. 0.
 0. 0. 0. 0.
 0. 0. 0. 0.
 0. 0. 0. 0.
 0. 0. 0. 0.
 0. 0. 0. 0.
 0. 0. 0. 0.
 0. 0. 0. 0.
 0. 0. 0. 0.
 0. 0. 0. 0.
 0. 0. 0. 0.
 0. 0. 0. 0.
 0. 0. 0. 0.
 0. 0. 0. 0.
 0. 0. 0. 0.
 0. 0. 0. 0.
 0. 0. 0. 0.
 0. 0. 0. 0.
 0. 0. 0. 0.
 0. 0. 0. 0.
 0. 0. 0. 0.
 0. 0. 0. 0.
 0. 0. 0. 0.
 0. 0. 0. 0.
 0. 0. 0. 0.
 0. 0. 0. 0.
 0. 0. 0. 0.
 0. 0. 0. 0.
 0. 0. 0. 0.
 0. 0. 0. 0.
 0. 0. 0. 0.
 0. 0. 0. 0.
 0. 0. 0. 0.
 0. 0. 0. 0.
 0. 0. 0. 0.
 0. 0. 0. 0.
 0. 0. 0. 0.
 0. 0. 0. 0.
 0. 0. 0. 0.
 0. 0. 0. 0.
 0. 0. 0. 0.
 0. 0. 0. 0.
 0. 0. 0. 0.
 0. 0. 0. 0.
 0. 0. 0. 0.
 0. 0. 0. 0.
 0. 0. 0. 0.
 0. 0. 0. 0.
 0. 0. 0. 0.
 0. 0. 0. 0.
 0. 0. 0. 0.
 0. 0. 0. 0.
 0. 0. 0. 0.
 0. 0. 0. 0.
 0. 0.
   </PP_BETA.1>
   <PP_BETA.2
       type="real"
       size="1022"
       columns="4"
       index="2"
       angular_momentum="0"
       cutoff_radius_index=" 236"
       cutoff_radius="    2.3500000000E+00" >
   -8.4785400922E-11   -1.5797316751E-02   -3.1583924486E-02   -4.7348888494E-02
   -6.3080825117E-02   -7.8767683340E-02   -9.4396533607E-02   -1.0995336617E-01
   -1.2542290119E-01   -1.4078841269E-01   -1.5603156842E-01   -1.7113228737E-01
   -1.8606861675E-01   -2.0081662990E-01   -2.1535034645E-01   -2.2964167587E-01
   -2.4366038542E-01   -2.5737409304E-01   -2.7074828587E-01   -2.8374636445E-01
   -2.9632971280E-01   -3.0845779400E-01   -3.2008827099E-01   -3.3117715182E-01
   -3.4167895841E-01   -3.5154691789E-01   -3.6073317496E-01   -3.6918902398E-01
   -3.7686515897E-01   -3.8371193964E-01   -3.8967967152E-01   -3.9471889800E-01
   -3.9878070197E-01   -4.0181701473E-01   -4.0378092980E-01   -4.0462701894E-01
   -4.0431164805E-01   -4.0279329029E-01   -4.0003283396E-01   -3.9599388251E-01
   -3.9064304439E-01   -3.8395021028E-01   -3.7588881543E-01   -3.6643608495E-01
   -3.5557326004E-01   -3.4328580328E-01   -3.2956358131E-01   -3.1440102325E-01
   -2.9779725373E-01   -2.7975619930E-01   -2.6028666723E-01   -2.3940239631E-01
   -2.1712207889E-01   -1.9346935414E-01   -1.6847277255E-01   -1.4216573184E-01
   -1.1458638489E-01   -8.5777520266E-02   -5.5786416458E-02   -2.4664670843E-02
    7.5319952307E-03    4.0743953697E-02    7.4907907668E-02    1.0995714811E-01
    1.4582182730E-01    1.8242924698E-01    2.1970415890E-01    2.5756907563E-01
    2.9594458909E-01    3.3474969462E-01    3.7390211806E-01    4.1331864353E-01
    4.5291543959E-01    4.9260838136E-01    5.3231336667E-01    5.7194662380E-01
    6.1142500903E-01    6.5066629218E-01    6.8958942820E-01    7.2811481356E-01
    7.6616452586E-01    8.0366254566E-01    8.4053495945E-01    8.7671014307E-01
    9.1211892509E-01    9.4669472966E-01    9.8037369895E-01    1.0130947951E+00
    1.0447998823E+00    1.0754337887E+00    1.1049443506E+00    1.1332824375E+00
    1.1604019613E+00    1.1862598693E+00    1.2108161235E+00    1.2340336665E+00
    1.2558783773E+00    1.2763190170E+00    1.2953271671E+00    1.3128771623E+00
    1.3289460184E+00    1.3435133594E+00    1.3565613430E+00    1.3680745879E+00
    1.3780401042E+00    1.3864472280E+00    1.3932875621E+00    1.3985549242E+00
    1.4022453028E+00    1.4043568233E+00    1.4048897235E+00    1.4038463400E+00
    1.4012311061E+00    1.3970505602E+00    1.3913133654E+00    1.3840303406E+00
    1.3752145008E+00    1.3648811078E+00    1.3530477287E+00    1.3397343018E+00
    1.3249632088E+00    1.3087593509E+00    1.2911502273E+00    1.2721660140E+00
    1.2518396419E+00    1.2302068706E+00    1.2073063556E+00    1.1831797083E+00
    1.1578715442E+00    1.1314295182E+00    1.1039043445E+00    1.0753497979E+00
    1.0458226954E+00    1.0153828546E+00    9.8409302826E-01    9.5201881148E-01
    9.1922852133E-01    8.8579304620E-01    8.5178566415E-01    8.1728182907E-01
    7.8235892385E-01    7.4709598001E-01    7.1157336370E-01    6.7587242812E-01
    6.4007513271E-01    6.0426363018E-01    5.6851982208E-01    5.3292488470E-01
    4.9755876677E-01    4.6249966069E-01    4.2782346265E-01    3.9360315859E-01
    3.5990911140E-01    3.2681073908E-01    2.9437703215E-01    2.6267614571E-01
    2.3177503334E-01    2.0173905876E-01    1.7263160181E-01    1.4451366172E-01
    1.1744346136E-01    9.1476055921E-02    6.6662949733E-02    4.3051724831E-02
    2.0685684838E-02   -3.9648232802E-04   -2.0161019542E-02   -3.8579390157E-02
   -5.5628539133E-02   -7.1291122847E-02   -8.5555704925E-02   -9.8416915660E-02
   -1.0987557301E-01   -1.1993876331E-01   -1.2861988028E-01   -1.3593862109E-01
   -1.4192093873E-01   -1.4659895034E-01   -1.5001080118E-01   -1.5220048478E-01
   -1.5321761978E-01   -1.5311718450E-01   -1.5195921070E-01   -1.4980843814E-01
   -1.4673393222E-01   -1.4280866686E-01   -1.3810907553E-01   -1.3271457340E-01
   -1.2670705379E-01   -1.2017036255E-01   -1.1318975400E-01   -1.0585133241E-01
   -9.8241483061E-02   -9.0446296794E-02   -8.2550993992E-02   -7.4639346981E-02
   -6.6793119589E-02   -5.9091482094E-02   -5.1610495870E-02   -4.4422709246E-02
   -3.7595371448E-02   -3.1179279647E-02   -2.5226010542E-02   -1.9797290604E-02
   -1.4946273011E-02   -1.0719535729E-02   -7.1563597722E-03   -4.2895095604E-03
   -2.1383503414E-03   -7.2385338495E-04   -8.6569609309E-05    2.7882425334E-05
   -7.3354947287E-06    3.1543839129E-07    7.1030687251E-07   -1.6541807997E-10
    0.0000000000E+00    0.0000000000E+00    0.0000000000E+00    0.0000000000E+00
    0.0000000000E+00    0.0000000000E+00    0.0000000000E+00    0.0000000000E+00
    0.0000000000E+00    0.0000000000E+00    0.0000000000E+00    0.0000000000E+00
    0.0000000000E+00    0.0000000000E+00    0.0000000000E+00    0.0000000000E+00
    0.0000000000E+00    0.0000000000E+00    0.0000000000E+00    0.0000000000E+00
 0. 0. 0. 0.
 0. 0. 0. 0.
 0. 0. 0. 0.
 0. 0. 0. 0.
 0. 0. 0. 0.
 0. 0. 0. 0.
 0. 0. 0. 0.
 0. 0. 0. 0.
 0. 0. 0. 0.
 0. 0. 0. 0.
 0. 0. 0. 0.
 0. 0. 0. 0.
 0. 0. 0. 0.
 0. 0. 0. 0.
 0. 0. 0. 0.
 0. 0. 0. 0.
 0. 0. 0. 0.
 0. 0. 0. 0.
 0. 0. 0. 0.
 0. 0. 0. 0.
 0. 0. 0. 0.
 0. 0. 0. 0.
 0. 0. 0. 0.
 0. 0. 0. 0.
 0. 0. 0. 0.
 0. 0. 0. 0.
 0. 0. 0. 0.
 0. 0. 0. 0.
 0. 0. 0. 0.
 0. 0. 0. 0.
 0. 0. 0. 0.
 0. 0. 0. 0.
 0. 0. 0. 0.
 0. 0. 0. 0.
 0. 0. 0. 0.
 0. 0. 0. 0.
 0. 0. 0. 0.
 0. 0. 0. 0.
 0. 0. 0. 0.
 0. 0. 0. 0.
 0. 0. 0. 0.
 0. 0. 0. 0.
 0. 0. 0. 0.
 0. 0. 0. 0.
 0. 0. 0. 0.
 0. 0. 0. 0.
 0. 0. 0. 0.
 0. 0. 0. 0.
 0. 0. 0. 0.
 0. 0. 0. 0.
 0. 0. 0. 0.
 0. 0. 0. 0.
 0. 0. 0. 0.
 0. 0. 0. 0.
 0. 0. 0. 0.
 0. 0. 0. 0.
 0. 0. 0. 0.
 0. 0. 0. 0.
 0. 0. 0. 0.
 0. 0. 0. 0.
 0. 0. 0. 0.
 0. 0. 0. 0.
 0. 0. 0. 0.
 0. 0. 0. 0.
 0. 0. 0. 0.
 0. 0. 0. 0.
 0. 0. 0. 0.
 0. 0. 0. 0.
 0. 0. 0. 0.
 0. 0. 0. 0.
 0. 0. 0. 0.
 0. 0. 0. 0.
 0. 0. 0. 0.
 0. 0. 0. 0.
 0. 0. 0. 0.
 0. 0. 0. 0.
 0. 0. 0. 0.
 0. 0. 0. 0.
 0. 0. 0. 0.
 0. 0. 0. 0.
 0. 0. 0. 0.
 0. 0. 0. 0.
 0. 0. 0. 0.
 0. 0. 0. 0.
 0. 0. 0. 0.
 0. 0. 0. 0.
 0. 0. 0. 0.
 0. 0. 0. 0.
 0. 0. 0. 0.
 0. 0. 0. 0.
 0. 0. 0. 0.
 0. 0. 0. 0.
 0. 0. 0. 0.
 0. 0. 0. 0.
 0. 0. 0. 0.
 0. 0. 0. 0.
 0. 0. 0. 0.
 0. 0. 0. 0.
 0. 0. 0. 0.
 0. 0. 0. 0.
 0. 0. 0. 0.
 0. 0. 0. 0.
 0. 0. 0. 0.
 0. 0. 0. 0.
 0. 0. 0. 0.
 0. 0. 0. 0.
 0. 0. 0. 0.
 0. 0. 0. 0.
 0. 0. 0. 0.
 0. 0. 0. 0.
 0. 0. 0. 0.
 0. 0. 0. 0.
 0. 0. 0. 0.
 0. 0. 0. 0.
 0. 0. 0. 0.
 0. 0. 0. 0.
 0. 0. 0. 0.
 0. 0. 0. 0.
 0. 0. 0. 0.
 0. 0. 0. 0.
 0. 0. 0. 0.
 0. 0. 0. 0.
 0. 0. 0. 0.
 0. 0. 0. 0.
 0. 0. 0. 0.
 0. 0. 0. 0.
 0. 0. 0. 0.
 0. 0. 0. 0.
 0. 0. 0. 0.
 0. 0. 0. 0.
 0. 0. 0. 0.
 0. 0. 0. 0.
 0. 0. 0. 0.
 0. 0. 0. 0.
 0. 0. 0. 0.
 0. 0. 0. 0.
 0. 0. 0. 0.
 0. 0. 0. 0.
 0. 0. 0. 0.
 0. 0. 0. 0.
 0. 0. 0. 0.
 0. 0. 0. 0.
 0. 0. 0. 0.
 0. 0. 0. 0.
 0. 0. 0. 0.
 0. 0. 0. 0.
 0. 0. 0. 0.
 0. 0. 0. 0.
 0. 0. 0. 0.
 0. 0. 0. 0.
 0. 0. 0. 0.
 0. 0. 0. 0.
 0. 0. 0. 0.
 0. 0. 0. 0.
 0. 0. 0. 0.
 0. 0. 0. 0.
 0. 0. 0. 0.
 0. 0. 0. 0.
 0. 0. 0. 0.
 0. 0. 0. 0.
 0. 0. 0. 0.
 0. 0. 0. 0.
 0. 0. 0. 0.
 0. 0. 0. 0.
 0. 0. 0. 0.
 0. 0. 0. 0.
 0. 0. 0. 0.
 0. 0. 0. 0.
 0. 0. 0. 0.
 0. 0. 0. 0.
 0. 0. 0. 0.
 0. 0. 0. 0.
 0. 0. 0. 0.
 0. 0. 0. 0.
 0. 0. 0. 0.
 0. 0. 0. 0.
 0. 0. 0. 0.
 0. 0. 0. 0.
 0. 0. 0. 0.
 0. 0. 0. 0.
 0. 0. 0. 0.
 0. 0. 0. 0.
 0. 0. 0. 0.
 0. 0. 0. 0.
 0. 0. 0. 0.
 0. 0. 0. 0.
 0. 0. 0. 0.
 0. 0. 0. 0.
 0. 0. 0. 0.
 0. 0. 0. 0.
 0. 0. 0. 0.
 0. 0. 0. 0.
 0. 0. 0. 0.
 0. 0. 0. 0.
 0. 0. 0. 0.
 0. 0. 0. 0.
 0. 0.
   </PP_BETA.2>
   <PP_BETA.3
       type="real"
       size="1022"
       columns="4"
       index="3"
       angular_momentum="1"
       cutoff_radius_index=" 236"
       cutoff_radius="    2.3500000000E+00" >
    1.7381646816E-10    9.3271932245E-04    3.7282528909E-03    8.3787387648E-03
    1.4871111133E-02    2.3187156118E-02    3.3303589231E-02    4.5192153834E-02
    5.8819739773E-02    7.4148521193E-02    9.1136112386E-02    1.0973574039E-01
    1.2989643296E-01    1.5156322028E-01    1.7467734905E-01    1.9917650697E-01
    2.2499505612E-01    2.5206427341E-01    2.8031259629E-01    3.0966587205E-01
    3.4004760878E-01    3.7137922668E-01    4.0358030764E-01    4.3656884193E-01
    4.7026147044E-01    5.0457372108E-01    5.3942023835E-01    5.7471500485E-01
    6.1037155403E-01    6.4630317330E-01    6.8242309712E-01    7.1864468951E-01
    7.5488161599E-01    7.9104800468E-01    8.2705859693E-01    8.6282888756E-01
    8.9827525541E-01    9.3331508451E-01    9.6786687693E-01    1.0018503578E+00
    1.0351865739E+00    1.0677979863E+00    1.0996085588E+00    1.1305438427E+00
    1.1605310597E+00    1.1894991836E+00    1.2173790220E+00    1.2441033003E+00
    1.2696067466E+00    1.2938261817E+00    1.3167006121E+00    1.3381713291E+00
    1.3581820135E+00    1.3766788461E+00    1.3936106264E+00    1.4089288964E+00
    1.4225880731E+00    1.4345455865E+00    1.4447620245E+00    1.4532012842E+00
    1.4598307274E+00    1.4646213408E+00    1.4675478989E+00    1.4685891292E+00
    1.4677278770E+00    1.4649512691E+00    1.4602508744E+00    1.4536228596E+00
    1.4450681372E+00    1.4345925056E+00    1.4222067773E+00    1.4079268936E+00
    1.3917740250E+00    1.3737746531E+00    1.3539606337E+00    1.3323692376E+00
    1.3090431696E+00    1.2840305609E+00    1.2573849358E+00    1.2291651508E+00
    1.1994353042E+00    1.1682646156E+00    1.1357272756E+00    1.1019022636E+00
    1.0668731353E+00    1.0307277784E+00    9.9355813883E-01    9.5545991606E-01
    9.1653223089E-01    8.7687726508E-01    8.3659987576E-01    7.9580718593E-01
    7.5460815344E-01    7.1311312097E-01    6.7143334950E-01    6.2968053844E-01
    5.8796633523E-01    5.4640183784E-01    5.0509709362E-01    4.6416059767E-01
    4.2369879472E-01    3.8381558770E-01    3.4461185685E-01    3.0618499286E-01
    2.6862844744E-01    2.3203130476E-01    1.9647787703E-01    1.6204732718E-01
    1.2881332160E-01    9.6843715506E-02    6.6200273251E-02    3.6938425801E-02
    9.1070669936E-03   -1.7251609891E-02   -4.2102234167E-02   -6.5416337636E-02
   -8.7172391931E-02   -1.0735580331E-01   -1.2595886519E-01   -1.4298066919E-01
   -1.5842697561E-01   -1.7231004491E-01   -1.8464843167E-01   -1.9546674328E-01
   -2.0479536554E-01   -2.1267015767E-01   -2.1913211971E-01   -2.2422703512E-01
   -2.2800509181E-01   -2.3052048489E-01   -2.3183100458E-01   -2.3199761256E-01
   -2.3108401044E-01   -2.2915620367E-01   -2.2628206433E-01   -2.2253089615E-01
   -2.1797300489E-01   -2.1267927725E-01   -2.0672077099E-01   -2.0016831906E-01
   -1.9309215012E-01   -1.8556152747E-01   -1.7764440847E-01   -1.6940712577E-01
   -1.6091409182E-01   -1.5222752747E-01   -1.4340721534E-01   -1.3451027817E-01
   -1.2559098225E-01   -1.1670056529E-01   -1.0788709153E-01   -9.9195316786E-02
   -9.0666800713E-02   -8.2340416724E-02   -7.4252651905E-02   -6.6437713867E-02
   -5.8927663898E-02   -5.1752558199E-02   -4.4940597217E-02   -3.8518277533E-02
   -3.2510570138E-02   -2.6941020958E-02   -2.1831954956E-02   -1.7210120694E-02
   -1.3102808889E-02   -9.5255930294E-03   -6.4934954294E-03   -4.0208689997E-03
   -2.1223650564E-03   -8.0680358763E-04   -1.0921843180E-04    3.7679184379E-05
   -7.5307823329E-06    1.3299637499E-06   -6.4520456248E-08    0.0000000000E+00
    0.0000000000E+00    0.0000000000E+00    0.0000000000E+00    0.0000000000E+00
    0.0000000000E+00    0.0000000000E+00    0.0000000000E+00    0.0000000000E+00
    0.0000000000E+00    0.0000000000E+00    0.0000000000E+00    0.0000000000E+00
    0.0000000000E+00    0.0000000000E+00    0.0000000000E+00    0.0000000000E+00
    0.0000000000E+00    0.0000000000E+00    0.0000000000E+00    0.0000000000E+00
    0.0000000000E+00    0.0000000000E+00    0.0000000000E+00    0.0000000000E+00
    0.0000000000E+00    0.0000000000E+00    0.0000000000E+00    0.0000000000E+00
    0.0000000000E+00    0.0000000000E+00    0.0000000000E+00    0.0000000000E+00
    0.0000000000E+00    0.0000000000E+00    0.0000000000E+00    0.0000000000E+00
    0.0000000000E+00    0.0000000000E+00    0.0000000000E+00    0.0000000000E+00
    0.0000000000E+00    0.0000000000E+00    0.0000000000E+00    0.0000000000E+00
    0.0000000000E+00    0.0000000000E+00    0.0000000000E+00    0.0000000000E+00
    0.0000000000E+00    0.0000000000E+00    0.0000000000E+00    0.0000000000E+00
    0.0000000000E+00    0.0000000000E+00    0.0000000000E+00    0.0000000000E+00
    0.0000000000E+00    0.0000000000E+00    0.0000000000E+00    0.0000000000E+00
 0. 0. 0. 0.
 0. 0. 0. 0.
 0. 0. 0. 0.
 0. 0. 0. 0.
 0. 0. 0. 0.
 0. 0. 0. 0.
 0. 0. 0. 0.
 0. 0. 0. 0.
 0. 0. 0. 0.
 0. 0. 0. 0.
 0. 0. 0. 0.
 0. 0. 0. 0.
 0. 0. 0. 0.
 0. 0. 0. 0.
 0. 0. 0. 0.
 0. 0. 0. 0.
 0. 0. 0. 0.
 0. 0. 0. 0.
 0. 0. 0. 0.
 0. 0. 0. 0.
 0. 0. 0. 0.
 0. 0. 0. 0.
 0. 0. 0. 0.
 0. 0. 0. 0.
 0. 0. 0. 0.
 0. 0. 0. 0.
 0. 0. 0. 0.
 0. 0. 0. 0.
 0. 0. 0. 0.
 0. 0. 0. 0.
 0. 0. 0. 0.
 0. 0. 0. 0.
 0. 0. 0. 0.
 0. 0. 0. 0.
 0. 0. 0. 0.
 0. 0. 0. 0.
 0. 0. 0. 0.
 0. 0. 0. 0.
 0. 0. 0. 0.
 0. 0. 0. 0.
 0. 0. 0. 0.
 0. 0. 0. 0.
 0. 0. 0. 0.
 0. 0. 0. 0.
 0. 0. 0. 0.
 0. 0. 0. 0.
 0. 0. 0. 0.
 0. 0. 0. 0.
 0. 0. 0. 0.
 0. 0. 0. 0.
 0. 0. 0. 0.
 0. 0. 0. 0.
 0. 0. 0. 0.
 0. 0. 0. 0.
 0. 0. 0. 0.
 0. 0. 0. 0.
 0. 0. 0. 0.
 0. 0. 0. 0.
 0. 0. 0. 0.
 0. 0. 0. 0.
 0. 0. 0. 0.
 0. 0. 0. 0.
 0. 0. 0. 0.
 0. 0. 0. 0.
 0. 0. 0. 0.
 0. 0. 0. 0.
 0. 0. 0. 0.
 0. 0. 0. 0.
 0. 0. 0. 0.
 0. 0. 0. 0.
 0. 0. 0. 0.
 0. 0. 0. 0.
 0. 0. 0. 0.
 0. 0. 0. 0.
 0. 0. 0. 0.
 0. 0. 0. 0.
 0. 0. 0. 0.
 0. 0. 0. 0.
 0. 0. 0. 0.
 0. 0. 0. 0.
 0. 0. 0. 0.
 0. 0. 0. 0.
 0. 0. 0. 0.
 0. 0. 0. 0.
 0. 0. 0. 0.
 0. 0. 0. 0.
 0. 0. 0. 0.
 0. 0. 0. 0.
 0. 0. 0. 0.
 0. 0. 0. 0.
 0. 0. 0. 0.
 0. 0. 0. 0.
 0. 0. 0. 0.
 0. 0. 0. 0.
 0. 0. 0. 0.
 0. 0. 0. 0.
 0. 0. 0. 0.
 0. 0. 0. 0.
 0. 0. 0. 0.
 0. 0. 0. 0.
 0. 0. 0. 0.
 0. 0. 0. 0.
 0. 0. 0. 0.
 0. 0. 0. 0.
 0. 0. 0. 0.
 0. 0. 0. 0.
 0. 0. 0. 0.
 0. 0. 0. 0.
 0. 0. 0. 0.
 0. 0. 0. 0.
 0. 0. 0. 0.
 0. 0. 0. 0.
 0. 0. 0. 0.
 0. 0. 0. 0.
 0. 0. 0. 0.
 0. 0. 0. 0.
 0. 0. 0. 0.
 0. 0. 0. 0.
 0. 0. 0. 0.
 0. 0. 0. 0.
 0. 0. 0. 0.
 0. 0. 0. 0.
 0. 0. 0. 0.
 0. 0. 0. 0.
 0. 0. 0. 0.
 0. 0. 0. 0.
 0. 0. 0. 0.
 0. 0. 0. 0.
 0. 0. 0. 0.
 0. 0. 0. 0.
 0. 0. 0. 0.
 0. 0. 0. 0.
 0. 0. 0. 0.
 0. 0. 0. 0.
 0. 0. 0. 0.
 0. 0. 0. 0.
 0. 0. 0. 0.
 0. 0. 0. 0.
 0. 0. 0. 0.
 0. 0. 0. 0.
 0. 0. 0. 0.
 0. 0. 0. 0.
 0. 0. 0. 0.
 0. 0. 0. 0.
 0. 0. 0. 0.
 0. 0. 0. 0.
 0. 0. 0. 0.
 0. 0. 0. 0.
 0. 0. 0. 0.
 0. 0. 0. 0.
 0. 0. 0. 0.
 0. 0. 0. 0.
 0. 0. 0. 0.
 0. 0. 0. 0.
 0. 0. 0. 0.
 0. 0. 0. 0.
 0. 0. 0. 0.
 0. 0. 0. 0.
 0. 0. 0. 0.
 0. 0. 0. 0.
 0. 0. 0. 0.
 0. 0. 0. 0.
 0. 0. 0. 0.
 0. 0. 0. 0.
 0. 0. 0. 0.
 0. 0. 0. 0.
 0. 0. 0. 0.
 0. 0. 0. 0.
 0. 0. 0. 0.
 0. 0. 0. 0.
 0. 0. 0. 0.
 0. 0. 0. 0.
 0. 0. 0. 0.
 0. 0. 0. 0.
 0. 0. 0. 0.
 0. 0. 0. 0.
 0. 0. 0. 0.
 0. 0. 0. 0.
 0. 0. 0. 0.
 0. 0. 0. 0.
 0. 0. 0. 0.
 0. 0. 0. 0.
 0. 0. 0. 0.
 0. 0. 0. 0.
 0. 0. 0. 0.
 0. 0. 0. 0.
 0. 0. 0. 0.
 0. 0. 0. 0.
 0. 0. 0. 0.
 0. 0. 0. 0.
 0. 0. 0. 0.
 0. 0. 0. 0.
 0. 0. 0. 0.
 0. 0. 0. 0.
 0. 0. 0. 0.
 0. 0. 0. 0.
 0. 0.
   </PP_BETA.3>
   <PP_BETA.4
       type="real"
       size="1022"
       columns="4"
       index="4"
       angular_momentum="1"
       cutoff_radius_index=" 236"
       cutoff_radius="    2.3500000000E+00" >
    2.1899218550E-12    8.6637751798E-04    3.4635509466E-03    7.7856464963E-03
    1.3822886470E-02    2.1561607193E-02    3.0984284100E-02    4.2069563993E-02
    5.4792304447E-02    6.9123620352E-02    8.5030937593E-02    1.0247805383E-01
    1.2142520640E-01    1.4182914722E-01    1.6364322478E-01    1.8681747313E-01
    2.1129870773E-01    2.3703062831E-01    2.6395392846E-01    2.9200641202E-01
    3.2112311607E-01    3.5123644059E-01    3.8227628444E-01    4.1417018774E-01
    4.4684348040E-01    4.8021943662E-01    5.1421943530E-01    5.4876312600E-01
    5.8376860036E-01    6.1915256865E-01    6.5483054131E-01    6.9071701499E-01
    7.2672566305E-01    7.6276952999E-01    7.9876122950E-01    8.3461314589E-01
    8.7023763826E-01    9.0554724725E-01    9.4045490377E-01    9.7487413924E-01
    1.0087192970E+00    1.0419057441E+00    1.0743500834E+00    1.1059703650E+00
    1.1366862966E+00    1.1664194522E+00    1.1950934784E+00    1.2226342987E+00
    1.2489703130E+00    1.2740325940E+00    1.2977550786E+00    1.3200747539E+00
    1.3409318375E+00    1.3602699502E+00    1.3780362830E+00    1.3941817550E+00
    1.4086611630E+00    1.4214333224E+00    1.4324611980E+00    1.4417120247E+00
    1.4491574175E+00    1.4547734694E+00    1.4585408389E+00    1.4604448232E+00
    1.4604754208E+00    1.4586273788E+00    1.4549002285E+00    1.4492983058E+00
    1.4418307582E+00    1.4325115372E+00    1.4213593761E+00    1.4083977531E+00
    1.3936548400E+00    1.3771634354E+00    1.3589608836E+00    1.3390889790E+00
    1.3175938555E+00    1.2945258615E+00    1.2699394215E+00    1.2438928832E+00
    1.2164483513E+00    1.1876715089E+00    1.1576314256E+00    1.1264003543E+00
    1.0940535164E+00    1.0606688763E+00    1.0263269056E+00    9.9111033889E-01
    9.5510392030E-01    9.1839414266E-01    8.8106898001E-01    8.4321761421E-01
    8.0493015665E-01    7.6629736610E-01    7.2741036353E-01    6.8836034515E-01
    6.4923829456E-01    6.1013469497E-01    5.7113924287E-01    5.3234056379E-01
    4.9382593156E-01    4.5568099190E-01    4.1798949152E-01    3.8083301366E-01
    3.4429072110E-01    3.0843910771E-01    2.7335175934E-01    2.3909912515E-01
    2.0574830005E-01    1.7336281937E-01    1.4200246630E-01    1.1172309302E-01
    8.2576456164E-02    5.4610067272E-02    2.7867058869E-02    2.3860666325E-03
   -2.1798871818E-02   -4.4658401106E-02   -6.6167914921E-02   -8.6307605180E-02
   -1.0506249332E-01   -1.2242244357E-01   -1.3838215807E-01   -1.5294115395E-01
   -1.6610372221E-01   -1.7787886870E-01   -1.8828023734E-01   -1.9732601567E-01
   -2.0503882331E-01   -2.1144558340E-01   -2.1657737770E-01   -2.2046928559E-01
   -2.2316020776E-01   -2.2469267496E-01   -2.2511264251E-01   -2.2446927135E-01
   -2.2281469618E-01   -2.2020378159E-01   -2.1669386695E-01   -2.1234450080E-01
   -2.0721716573E-01   -2.0137499459E-01   -1.9488247891E-01   -1.8780517047E-01
   -1.8020937706E-01   -1.7216185322E-01   -1.6372948711E-01   -1.5497898439E-01
   -1.4597655003E-01   -1.3678756907E-01   -1.2747629007E-01   -1.1810549780E-01
   -1.0873638963E-01   -9.9428797080E-02   -9.0241212262E-02   -8.1230633002E-02
   -7.2452424058E-02   -6.3960181025E-02   -5.5805599688E-02   -4.8038348748E-02
   -4.0705969229E-02   -3.3853714585E-02   -2.7524480912E-02   -2.1763514178E-02
   -1.6614918794E-02   -1.2110706185E-02   -8.2801822511E-03   -5.1497248078E-03
   -2.7438605138E-03   -1.0758084098E-03   -1.9817032888E-04    9.7097861490E-06
   -4.0765488796E-06    5.9853252005E-07    3.0297284505E-08    0.0000000000E+00
    0.0000000000E+00    0.0000000000E+00    0.0000000000E+00    0.0000000000E+00
    0.0000000000E+00    0.0000000000E+00    0.0000000000E+00    0.0000000000E+00
    0.0000000000E+00    0.0000000000E+00    0.0000000000E+00    0.0000000000E+00
    0.0000000000E+00    0.0000000000E+00    0.0000000000E+00    0.0000000000E+00
    0.0000000000E+00    0.0000000000E+00    0.0000000000E+00    0.0000000000E+00
    0.0000000000E+00    0.0000000000E+00    0.0000000000E+00    0.0000000000E+00
    0.0000000000E+00    0.0000000000E+00    0.0000000000E+00    0.0000000000E+00
    0.0000000000E+00    0.0000000000E+00    0.0000000000E+00    0.0000000000E+00
    0.0000000000E+00    0.0000000000E+00    0.0000000000E+00    0.0000000000E+00
    0.0000000000E+00    0.0000000000E+00    0.0000000000E+00    0.0000000000E+00
    0.0000000000E+00    0.0000000000E+00    0.0000000000E+00    0.0000000000E+00
    0.0000000000E+00    0.0000000000E+00    0.0000000000E+00    0.0000000000E+00
    0.0000000000E+00    0.0000000000E+00    0.0000000000E+00    0.0000000000E+00
    0.0000000000E+00    0.0000000000E+00    0.0000000000E+00    0.0000000000E+00
    0.0000000000E+00    0.0000000000E+00    0.0000000000E+00    0.0000000000E+00
 0. 0. 0. 0.
 0. 0. 0. 0.
 0. 0. 0. 0.
 0. 0. 0. 0.
 0. 0. 0. 0.
 0. 0. 0. 0.
 0. 0. 0. 0.
 0. 0. 0. 0.
 0. 0. 0. 0.
 0. 0. 0. 0.
 0. 0. 0. 0.
 0. 0. 0. 0.
 0. 0. 0. 0.
 0. 0. 0. 0.
 0. 0. 0. 0.
 0. 0. 0. 0.
 0. 0. 0. 0.
 0. 0. 0. 0.
 0. 0. 0. 0.
 0. 0. 0. 0.
 0. 0. 0. 0.
 0. 0. 0. 0.
 0. 0. 0. 0.
 0. 0. 0. 0.
 0. 0. 0. 0.
 0. 0. 0. 0.
 0. 0. 0. 0.
 0. 0. 0. 0.
 0. 0. 0. 0.
 0. 0. 0. 0.
 0. 0. 0. 0.
 0. 0. 0. 0.
 0. 0. 0. 0.
 0. 0. 0. 0.
 0. 0. 0. 0.
 0. 0. 0. 0.
 0. 0. 0. 0.
 0. 0. 0. 0.
 0. 0. 0. 0.
 0. 0. 0. 0.
 0. 0. 0. 0.
 0. 0. 0. 0.
 0. 0. 0. 0.
 0. 0. 0. 0.
 0. 0. 0. 0.
 0. 0. 0. 0.
 0. 0. 0. 0.
 0. 0. 0. 0.
 0. 0. 0. 0.
 0. 0. 0. 0.
 0. 0. 0. 0.
 0. 0. 0. 0.
 0. 0. 0. 0.
 0. 0. 0. 0.
 0. 0. 0. 0.
 0. 0. 0. 0.
 0. 0. 0. 0.
 0. 0. 0. 0.
 0. 0. 0. 0.
 0. 0. 0. 0.
 0. 0. 0. 0.
 0. 0. 0. 0.
 0. 0. 0. 0.
 0. 0. 0. 0.
 0. 0. 0. 0.
 0. 0. 0. 0.
 0. 0. 0. 0.
 0. 0. 0. 0.
 0. 0. 0. 0.
 0. 0. 0. 0.
 0. 0. 0. 0.
 0. 0. 0. 0.
 0. 0. 0. 0.
 0. 0. 0. 0.
 0. 0. 0. 0.
 0. 0. 0. 0.
 0. 0. 0. 0.
 0. 0. 0. 0.
 0. 0. 0. 0.
 0. 0. 0. 0.
 0. 0. 0. 0.
 0. 0. 0. 0.
 0. 0. 0. 0.
 0. 0. 0. 0.
 0. 0. 0. 0.
 0. 0. 0. 0.
 0. 0. 0. 0.
 0. 0. 0. 0.
 0. 0. 0. 0.
 0. 0. 0. 0.
 0. 0. 0. 0.
 0. 0. 0. 0.
 0. 0. 0. 0.
 0. 0. 0. 0.
 0. 0. 0. 0.
 0. 0. 0. 0.
 0. 0. 0. 0.
 0. 0. 0. 0.
 0. 0. 0. 0.
 0. 0. 0. 0.
 0. 0. 0. 0.
 0. 0. 0. 0.
 0. 0. 0. 0.
 0. 0. 0. 0.
 0. 0. 0. 0.
 0. 0. 0. 0.
 0. 0. 0. 0.
 0. 0. 0. 0.
 0. 0. 0. 0.
 0. 0. 0. 0.
 0. 0. 0. 0.
 0. 0. 0. 0.
 0. 0. 0. 0.
 0. 0. 0. 0.
 0. 0. 0. 0.
 0. 0. 0. 0.
 0. 0. 0. 0.
 0. 0. 0. 0.
 0. 0. 0. 0.
 0. 0. 0. 0.
 0. 0. 0. 0.
 0. 0. 0. 0.
 0. 0. 0. 0.
 0. 0. 0. 0.
 0. 0. 0. 0.
 0. 0. 0. 0.
 0. 0. 0. 0.
 0. 0. 0. 0.
 0. 0. 0. 0.
 0. 0. 0. 0.
 0. 0. 0. 0.
 0. 0. 0. 0.
 0. 0. 0. 0.
 0. 0. 0. 0.
 0. 0. 0. 0.
 0. 0. 0. 0.
 0. 0. 0. 0.
 0. 0. 0. 0.
 0. 0. 0. 0.
 0. 0. 0. 0.
 0. 0. 0. 0.
 0. 0. 0. 0.
 0. 0. 0. 0.
 0. 0. 0. 0.
 0. 0. 0. 0.
 0. 0. 0. 0.
 0. 0. 0. 0.
 0. 0. 0. 0.
 0. 0. 0. 0.
 0. 0. 0. 0.
 0. 0. 0. 0.
 0. 0. 0. 0.
 0. 0. 0. 0.
 0. 0. 0. 0.
 0. 0. 0. 0.
 0. 0. 0. 0.
 0. 0. 0. 0.
 0. 0. 0. 0.
 0. 0. 0. 0.
 0. 0. 0. 0.
 0. 0. 0. 0.
 0. 0. 0. 0.
 0. 0. 0. 0.
 0. 0. 0. 0.
 0. 0. 0. 0.
 0. 0. 0. 0.
 0. 0. 0. 0.
 0. 0. 0. 0.
 0. 0. 0. 0.
 0. 0. 0. 0.
 0. 0. 0. 0.
 0. 0. 0. 0.
 0. 0. 0. 0.
 0. 0. 0. 0.
 0. 0. 0. 0.
 0. 0. 0. 0.
 0. 0. 0. 0.
 0. 0. 0. 0.
 0. 0. 0. 0.
 0. 0. 0. 0.
 0. 0. 0. 0.
 0. 0. 0. 0.
 0. 0. 0. 0.
 0. 0. 0. 0.
 0. 0. 0. 0.
 0. 0. 0. 0.
 0. 0. 0. 0.
 0. 0. 0. 0.
 0. 0. 0. 0.
 0. 0. 0. 0.
 0. 0. 0. 0.
 0. 0. 0. 0.
 0. 0. 0. 0.
 0. 0. 0. 0.
 0. 0. 0. 0.
 0. 0. 0. 0.
 0. 0.
   </PP_BETA.4>
   <PP_BETA.5
       type="real"
       size="1022"
       columns="4"
       index="5"
       angular_momentum="1"
       cutoff_radius_index=" 236"
       cutoff_radius="    2.3500000000E+00" >
   -4.3395992355E-10   -5.8111044414E-04   -2.3212697956E-03   -5.2109841614E-03
   -9.2345036447E-03   -1.4369931392E-02   -2.0589374590E-02   -2.7859135762E-02
   -3.6139942303E-02   -4.5387211737E-02   -5.5551349871E-02   -6.6578078613E-02
   -7.8408789978E-02   -9.0980922507E-02   -1.0422835615E-01   -1.1808182150E-01
   -1.3246931913E-01   -1.4731654479E-01   -1.6254731617E-01   -1.7808399706E-01
   -1.9384791472E-01   -2.0975976665E-01   -2.2574001291E-01   -2.4170925060E-01
   -2.5758856737E-01   -2.7329987107E-01   -2.8876619311E-01   -3.0391196363E-01
   -3.1866325673E-01   -3.3294800470E-01   -3.4669618067E-01   -3.5983994925E-01
   -3.7231378577E-01   -3.8405456456E-01   -3.9500161764E-01   -4.0509676557E-01
   -4.1428432216E-01   -4.2251107598E-01   -4.2972625098E-01   -4.3588144967E-01
   -4.4093058204E-01   -4.4482978385E-01   -4.4753732794E-01   -4.4901353259E-01
   -4.4922067049E-01   -4.4812288253E-01   -4.4568609993E-01   -4.4187797846E-01
   -4.3666784830E-01   -4.3002668265E-01   -4.2192708797E-01   -4.1234331861E-01
   -4.0125131781E-01   -3.8862878690E-01   -3.7445528390E-01   -3.5871235235E-01
   -3.4138368053E-01   -3.2245529073E-01   -3.0191575776E-01   -2.7975645521E-01
   -2.5597182743E-01   -2.3055968475E-01   -2.0352151890E-01   -1.7486283490E-01
   -1.4459349564E-01   -1.1272807454E-01   -7.9286211453E-02   -4.4292966885E-02
   -7.7791688713E-03    3.0218252877E-02    6.9655951358E-02    1.1048387095E-01
    1.5264498609E-01    1.9607507566E-01    2.4070253854E-01    2.8644825552E-01
    3.3322550259E-01    3.8093992002E-01    4.2948954137E-01    4.7876488590E-01
    5.2864911742E-01    5.7901827173E-01    6.2974155443E-01    6.8068170983E-01
    7.3169546126E-01    7.8263402186E-01    8.3334367465E-01    8.8366641939E-01
    9.3344068332E-01    9.8250209168E-01    1.0306842937E+00    1.0778198381E+00
    1.1237410930E+00    1.1682812022E+00    1.2112750719E+00    1.2525603787E+00
    1.2919785918E+00    1.3293760000E+00    1.3646047345E+00    1.3975237792E+00
    1.4279999584E+00    1.4559088928E+00    1.4811359157E+00    1.5035769391E+00
    1.5231392618E+00    1.5397423112E+00    1.5533183114E+00    1.5638128697E+00
    1.5711854756E+00    1.5754099065E+00    1.5764745346E+00    1.5743825322E+00
    1.5691519703E+00    1.5608158104E+00    1.5494217868E+00    1.5350321798E+00
    1.5177234808E+00    1.4975859512E+00    1.4747230771E+00    1.4492509256E+00
    1.4212974053E+00    1.3910014384E+00    1.3585120510E+00    1.3239873875E+00
    1.2875936593E+00    1.2495040351E+00    1.2098974825E+00    1.1689575713E+00
    1.1268712470E+00    1.0838275872E+00    1.0400165486E+00    9.9562771754E-01
    9.5084907220E-01    9.0586576851E-01    8.6085895812E-01    8.1600464847E-01
    7.7147261350E-01    7.2742536331E-01    6.8401718004E-01    6.4139322678E-01
    5.9968873516E-01    5.5902827647E-01    5.1952512020E-01    4.8128068284E-01
    4.4438406863E-01    4.0891170314E-01    3.7492705922E-01    3.4248047395E-01
    3.1160905408E-01    2.8233666584E-01    2.5467402523E-01    2.2861877955E-01
    2.0415711481E-01    1.8126767528E-01    1.5992375343E-01    1.4009408493E-01
    1.2174375756E-01    1.0483511821E-01    8.9328687746E-02    7.5184065659E-02
    6.2360893828E-02    5.0819562498E-02    4.0522231357E-02    3.1449868475E-02
    2.3590758556E-02    1.6904737949E-02    1.1357088200E-02    6.9182893429E-03
    3.5660402940E-03    1.2782789102E-03    6.7769913331E-05   -1.3844071657E-04
    2.3488666125E-05   -4.3951655018E-06    3.2954712860E-07    0.0000000000E+00
    0.0000000000E+00    0.0000000000E+00    0.0000000000E+00    0.0000000000E+00
    0.0000000000E+00    0.0000000000E+00    0.0000000000E+00    0.0000000000E+00
    0.0000000000E+00    0.0000000000E+00    0.0000000000E+00    0.0000000000E+00
    0.0000000000E+00    0.0000000000E+00    0.0000000000E+00    0.0000000000E+00
    0.0000000000E+00    0.0000000000E+00    0.0000000000E+00    0.0000000000E+00
    0.0000000000E+00    0.0000000000E+00    0.0000000000E+00    0.0000000000E+00
    0.0000000000E+00    0.0000000000E+00    0.0000000000E+00    0.0000000000E+00
    0.0000000000E+00    0.0000000000E+00    0.0000000000E+00    0.0000000000E+00
    0.0000000000E+00    0.0000000000E+00    0.0000000000E+00    0.0000000000E+00
    0.0000000000E+00    0.0000000000E+00    0.0000000000E+00    0.0000000000E+00
    0.0000000000E+00    0.0000000000E+00    0.0000000000E+00    0.0000000000E+00
    0.0000000000E+00    0.0000000000E+00    0.0000000000E+00    0.0000000000E+00
    0.0000000000E+00    0.0000000000E+00    0.0000000000E+00    0.0000000000E+00
    0.0000000000E+00    0.0000000000E+00    0.0000000000E+00    0.0000000000E+00
    0.0000000000E+00    0.0000000000E+00    0.0000000000E+00    0.0000000000E+00
 0. 0. 0. 0.
 0. 0. 0. 0.
 0. 0. 0. 0.
 0. 0. 0. 0.
 0. 0. 0. 0.
 0. 0. 0. 0.
 0. 0. 0. 0.
 0. 0. 0. 0.
 0. 0. 0. 0.
 0. 0. 0. 0.
 0. 0. 0. 0.
 0. 0. 0. 0.
 0. 0. 0. 0.
 0. 0. 0. 0.
 0. 0. 0. 0.
 0. 0. 0. 0.
 0. 0. 0. 0.
 0. 0. 0. 0.
 0. 0. 0. 0.
 0. 0. 0. 0.
 0. 0. 0. 0.
 0. 0. 0. 0.
 0. 0. 0. 0.
 0. 0. 0. 0.
 0. 0. 0. 0.
 0. 0. 0. 0.
 0. 0. 0. 0.
 0. 0. 0. 0.
 0. 0. 0. 0.
 0. 0. 0. 0.
 0. 0. 0. 0.
 0. 0. 0. 0.
 0. 0. 0. 0.
 0. 0. 0. 0.
 0. 0. 0. 0.
 0. 0. 0. 0.
 0. 0. 0. 0.
 0. 0. 0. 0.
 0. 0. 0. 0.
 0. 0. 0. 0.
 0. 0. 0. 0.
 0. 0. 0. 0.
 0. 0. 0. 0.
 0. 0. 0. 0.
 0. 0. 0. 0.
 0. 0. 0. 0.
 0. 0. 0. 0.
 0. 0. 0. 0.
 0. 0. 0. 0.
 0. 0. 0. 0.
 0. 0. 0. 0.
 0. 0. 0. 0.
 0. 0. 0. 0.
 0. 0. 0. 0.
 0. 0. 0. 0.
 0. 0. 0. 0.
 0. 0. 0. 0.
 0. 0. 0. 0.
 0. 0. 0. 0.
 0. 0. 0. 0.
 0. 0. 0. 0.
 0. 0. 0. 0.
 0. 0. 0. 0.
 0. 0. 0. 0.
 0. 0. 0. 0.
 0. 0. 0. 0.
 0. 0. 0. 0.
 0. 0. 0. 0.
 0. 0. 0. 0.
 0. 0. 0. 0.
 0. 0. 0. 0.
 0. 0. 0. 0.
 0. 0. 0. 0.
 0. 0. 0. 0.
 0. 0. 0. 0.
 0. 0. 0. 0.
 0. 0. 0. 0.
 0. 0. 0. 0.
 0. 0. 0. 0.
 0. 0. 0. 0.
 0. 0. 0. 0.
 0. 0. 0. 0.
 0. 0. 0. 0.
 0. 0. 0. 0.
 0. 0. 0. 0.
 0. 0. 0. 0.
 0. 0. 0. 0.
 0. 0. 0. 0.
 0. 0. 0. 0.
 0. 0. 0. 0.
 0. 0. 0. 0.
 0. 0. 0. 0.
 0. 0. 0. 0.
 0. 0. 0. 0.
 0. 0. 0. 0.
 0. 0. 0. 0.
 0. 0. 0. 0.
 0. 0. 0. 0.
 0. 0. 0. 0.
 0. 0. 0. 0.
 0. 0. 0. 0.
 0. 0. 0. 0.
 0. 0. 0. 0.
 0. 0. 0. 0.
 0. 0. 0. 0.
 0. 0. 0. 0.
 0. 0. 0. 0.
 0. 0. 0. 0.
 0. 0. 0. 0.
 0. 0. 0. 0.
 0. 0. 0. 0.
 0. 0. 0. 0.
 0. 0. 0. 0.
 0. 0. 0. 0.
 0. 0. 0. 0.
 0. 0. 0. 0.
 0. 0. 0. 0.
 0. 0. 0. 0.
 0. 0. 0. 0.
 0. 0. 0. 0.
 0. 0. 0. 0.
 0. 0. 0. 0.
 0. 0. 0. 0.
 0. 0. 0. 0.
 0. 0. 0. 0.
 0. 0. 0. 0.
 0. 0. 0. 0.
 0. 0. 0. 0.
 0. 0. 0. 0.
 0. 0. 0. 0.
 0. 0. 0. 0.
 0. 0. 0. 0.
 0. 0. 0. 0.
 0. 0. 0. 0.
 0. 0. 0. 0.
 0. 0. 0. 0.
 0. 0. 0. 0.
 0. 0. 0. 0.
 0. 0. 0. 0.
 0. 0. 0. 0.
 0. 0. 0. 0.
 0. 0. 0. 0.
 0. 0. 0. 0.
 0. 0. 0. 0.
 0. 0. 0. 0.
 0. 0. 0. 0.
 0. 0. 0. 0.
 0. 0. 0. 0.
 0. 0. 0. 0.
 0. 0. 0. 0.
 0. 0. 0. 0.
 0. 0. 0. 0.
 0. 0. 0. 0.
 0. 0. 0. 0.
 0. 0. 0. 0.
 0. 0. 0. 0.
 0. 0. 0. 0.
 0. 0. 0. 0.
 0. 0. 0. 0.
 0. 0. 0. 0.
 0. 0. 0. 0.
 0. 0. 0. 0.
 0. 0. 0. 0.
 0. 0. 0. 0.
 0. 0. 0. 0.
 0. 0. 0. 0.
 0. 0. 0. 0.
 0. 0. 0. 0.
 0. 0. 0. 0.
 0. 0. 0. 0.
 0. 0. 0. 0.
 0. 0. 0. 0.
 0. 0. 0. 0.
 0. 0. 0. 0.
 0. 0. 0. 0.
 0. 0. 0. 0.
 0. 0. 0. 0.
 0. 0. 0. 0.
 0. 0. 0. 0.
 0. 0. 0. 0.
 0. 0. 0. 0.
 0. 0. 0. 0.
 0. 0. 0. 0.
 0. 0. 0. 0.
 0. 0. 0. 0.
 0. 0. 0. 0.
 0. 0. 0. 0.
 0. 0. 0. 0.
 0. 0. 0. 0.
 0. 0. 0. 0.
 0. 0. 0. 0.
 0. 0. 0. 0.
 0. 0. 0. 0.
 0. 0. 0. 0.
 0. 0. 0. 0.
 0. 0. 0. 0.
 0. 0.
   </PP_BETA.5>
   <PP_BETA.6
       type="real"
       size="1022"
       columns="4"
       index="6"
       angular_momentum="1"
       cutoff_radius_index=" 236"
       cutoff_radius="    2.3500000000E+00" >
    4.9507266342E-11   -4.8629687128E-04   -1.9435636026E-03   -4.3669298206E-03
   -7.7482825119E-03   -1.2076272530E-02   -1.7336323897E-02   -2.3510646078E-02
   -3.0578249473E-02   -3.8514964409E-02   -4.7293463945E-02   -5.6883290876E-02
   -6.7250889328E-02   -7.8359641375E-02   -9.0169909148E-02   -1.0263908291E-01
   -1.1572163560E-01   -1.2936918431E-01   -1.4353055933E-01   -1.5815188102E-01
   -1.7317664532E-01   -1.8854581807E-01   -2.0419793881E-01   -2.2006923434E-01
   -2.3609374248E-01   -2.5220344643E-01   -2.6832841982E-01   -2.8439698288E-01
   -3.0033586981E-01   -3.1607040744E-01   -3.3152470518E-01   -3.4662185624E-01
   -3.6128415004E-01   -3.7543329540E-01   -3.8899065436E-01   -4.0187748621E-01
   -4.1401520111E-01   -4.2532562282E-01   -4.3573125979E-01   -4.4515558389E-01
   -4.5352331580E-01   -4.6076071617E-01   -4.6679588149E-01   -4.7155904346E-01
   -4.7498287081E-01   -4.7700277197E-01   -4.7755719760E-01   -4.7658794128E-01
   -4.7404043693E-01   -4.6986405158E-01   -4.6401237171E-01   -4.5644348175E-01
   -4.4712023300E-01   -4.3601050144E-01   -4.2308743269E-01   -4.0832967271E-01
   -3.9172158239E-01   -3.7325343471E-01   -3.5292159284E-01   -3.3072866779E-01
   -3.0668365411E-01   -2.8080204253E-01   -2.5310590814E-01   -2.2362397313E-01
   -1.9239164296E-01   -1.5945101521E-01   -1.2485086025E-01   -8.8646573124E-02
   -5.0900096200E-02   -1.1679812263E-02    2.8939592178E-02    7.0877293335E-02
    1.1404652619E-01    1.5835480988E-01    2.0370420181E-01    2.4999158004E-01
    2.9710895289E-01    3.4494379498E-01    3.9337940839E-01    4.4229530773E-01
    4.9156762766E-01    5.4106955112E-01    5.9067175670E-01    6.4024288309E-01
    6.8965000877E-01    7.3875914464E-01    7.8743573754E-01    8.3554518224E-01
    8.8295333962E-01    9.2952705844E-01    9.7513469842E-01    1.0196466519E+00
    1.0629358617E+00    1.1048783327E+00    1.1453536341E+00    1.1842453907E+00
    1.2214417601E+00    1.2568358935E+00    1.2903263782E+00    1.3218176587E+00
    1.3512204358E+00    1.3784520392E+00    1.4034367750E+00    1.4261062425E+00
    1.4463996228E+00    1.4642639338E+00    1.4796542535E+00    1.4925339081E+00
    1.5028746260E+00    1.5106566547E+00    1.5158688424E+00    1.5185086819E+00
    1.5185823180E+00    1.5161045170E+00    1.5110986003E+00    1.5035963404E+00
    1.4936378215E+00    1.4812712644E+00    1.4665528167E+00    1.4495463097E+00
    1.4303229826E+00    1.4089611761E+00    1.3855459951E+00    1.3601689449E+00
    1.3329275389E+00    1.3039248829E+00    1.2732692354E+00    1.2410735465E+00
    1.2074549784E+00    1.1725344067E+00    1.1364359079E+00    1.0992862319E+00
    1.0612142632E+00    1.0223504725E+00    9.8282636007E-01    9.4277389298E-01
    9.0232493824E-01    8.6161069306E-01    8.2076111427E-01    7.7990434831E-01
    7.3916616331E-01    6.9866938459E-01    6.5853333499E-01    6.1887328116E-01
    5.7979988687E-01    5.4141867446E-01    5.0382949523E-01    4.6712600961E-01
    4.3139517761E-01    3.9671675961E-01    3.6316284814E-01    3.3079732824E-01
    2.9967678966E-01    2.6985368149E-01    2.4137772725E-01    2.1429593178E-01
    1.8865267670E-01    1.6448979870E-01    1.4184666950E-01    1.2076026868E-01
    1.0126532193E-01    8.3394222873E-02    6.7177254752E-02    5.2657783391E-02
    3.9881171752E-02    2.8860812821E-02    1.9608742358E-02    1.2135022386E-02
    6.4506182522E-03    2.5445722256E-03    5.0958917516E-04    1.0134115412E-05
    4.7457768073E-06   -4.5964295167E-07   -1.6580938720E-07    0.0000000000E+00
    0.0000000000E+00    0.0000000000E+00    0.0000000000E+00    0.0000000000E+00
    0.0000000000E+00    0.0000000000E+00    0.0000000000E+00    0.0000000000E+00
    0.0000000000E+00    0.0000000000E+00    0.0000000000E+00    0.0000000000E+00
    0.0000000000E+00    0.0000000000E+00    0.0000000000E+00    0.0000000000E+00
    0.0000000000E+00    0.0000000000E+00    0.0000000000E+00    0.0000000000E+00
    0.0000000000E+00    0.0000000000E+00    0.0000000000E+00    0.0000000000E+00
    0.0000000000E+00    0.0000000000E+00    0.0000000000E+00    0.0000000000E+00
    0.0000000000E+00    0.0000000000E+00    0.0000000000E+00    0.0000000000E+00
    0.0000000000E+00    0.0000000000E+00    0.0000000000E+00    0.0000000000E+00
    0.0000000000E+00    0.0000000000E+00    0.0000000000E+00    0.0000000000E+00
    0.0000000000E+00    0.0000000000E+00    0.0000000000E+00    0.0000000000E+00
    0.0000000000E+00    0.0000000000E+00    0.0000000000E+00    0.0000000000E+00
    0.0000000000E+00    0.0000000000E+00    0.0000000000E+00    0.0000000000E+00
    0.0000000000E+00    0.0000000000E+00    0.0000000000E+00    0.0000000000E+00
    0.0000000000E+00    0.0000000000E+00    0.0000000000E+00    0.0000000000E+00
 0. 0. 0. 0.
 0. 0. 0. 0.
 0. 0. 0. 0.
 0. 0. 0. 0.
 0. 0. 0. 0.
 0. 0. 0. 0.
 0. 0. 0. 0.
 0. 0. 0. 0.
 0. 0. 0. 0.
 0. 0. 0. 0.
 0. 0. 0. 0.
 0. 0. 0. 0.
 0. 0. 0. 0.
 0. 0. 0. 0.
 0. 0. 0. 0.
 0. 0. 0. 0.
 0. 0. 0. 0.
 0. 0. 0. 0.
 0. 0. 0. 0.
 0. 0. 0. 0.
 0. 0. 0. 0.
 0. 0. 0. 0.
 0. 0. 0. 0.
 0. 0. 0. 0.
 0. 0. 0. 0.
 0. 0. 0. 0.
 0. 0. 0. 0.
 0. 0. 0. 0.
 0. 0. 0. 0.
 0. 0. 0. 0.
 0. 0. 0. 0.
 0. 0. 0. 0.
 0. 0. 0. 0.
 0. 0. 0. 0.
 0. 0. 0. 0.
 0. 0. 0. 0.
 0. 0. 0. 0.
 0. 0. 0. 0.
 0. 0. 0. 0.
 0. 0. 0. 0.
 0. 0. 0. 0.
 0. 0. 0. 0.
 0. 0. 0. 0.
 0. 0. 0. 0.
 0. 0. 0. 0.
 0. 0. 0. 0.
 0. 0. 0. 0.
 0. 0. 0. 0.
 0. 0. 0. 0.
 0. 0. 0. 0.
 0. 0. 0. 0.
 0. 0. 0. 0.
 0. 0. 0. 0.
 0. 0. 0. 0.
 0. 0. 0. 0.
 0. 0. 0. 0.
 0. 0. 0. 0.
 0. 0. 0. 0.
 0. 0. 0. 0.
 0. 0. 0. 0.
 0. 0. 0. 0.
 0. 0. 0. 0.
 0. 0. 0. 0.
 0. 0. 0. 0.
 0. 0. 0. 0.
 0. 0. 0. 0.
 0. 0. 0. 0.
 0. 0. 0. 0.
 0. 0. 0. 0.
 0. 0. 0. 0.
 0. 0. 0. 0.
 0. 0. 0. 0.
 0. 0. 0. 0.
 0. 0. 0. 0.
 0. 0. 0. 0.
 0. 0. 0. 0.
 0. 0. 0. 0.
 0. 0. 0. 0.
 0. 0. 0. 0.
 0. 0. 0. 0.
 0. 0. 0. 0.
 0. 0. 0. 0.
 0. 0. 0. 0.
 0. 0. 0. 0.
 0. 0. 0. 0.
 0. 0. 0. 0.
 0. 0. 0. 0.
 0. 0. 0. 0.
 0. 0. 0. 0.
 0. 0. 0. 0.
 0. 0. 0. 0.
 0. 0. 0. 0.
 0. 0. 0. 0.
 0. 0. 0. 0.
 0. 0. 0. 0.
 0. 0. 0. 0.
 0. 0. 0. 0.
 0. 0. 0. 0.
 0. 0. 0. 0.
 0. 0. 0. 0.
 0. 0. 0. 0.
 0. 0. 0. 0.
 0. 0. 0. 0.
 0. 0. 0. 0.
 0. 0. 0. 0.
 0. 0. 0. 0.
 0. 0. 0. 0.
 0. 0. 0. 0.
 0. 0. 0. 0.
 0. 0. 0. 0.
 0. 0. 0. 0.
 0. 0. 0. 0.
 0. 0. 0. 0.
 0. 0. 0. 0.
 0. 0. 0. 0.
 0. 0. 0. 0.
 0. 0. 0. 0.
 0. 0. 0. 0.
 0. 0. 0. 0.
 0. 0. 0. 0.
 0. 0. 0. 0.
 0. 0. 0. 0.
 0. 0. 0. 0.
 0. 0. 0. 0.
 0. 0. 0. 0.
 0. 0. 0. 0.
 0. 0. 0. 0.
 0. 0. 0. 0.
 0. 0. 0. 0.
 0. 0. 0. 0.
 0. 0. 0. 0.
 0. 0. 0. 0.
 0. 0. 0. 0.
 0. 0. 0. 0.
 0. 0. 0. 0.
 0. 0. 0. 0.
 0. 0. 0. 0.
 0. 0. 0. 0.
 0. 0. 0. 0.
 0. 0. 0. 0.
 0. 0. 0. 0.
 0. 0. 0. 0.
 0. 0. 0. 0.
 0. 0. 0. 0.
 0. 0. 0. 0.
 0. 0. 0. 0.
 0. 0. 0. 0.
 0. 0. 0. 0.
 0. 0. 0. 0.
 0. 0. 0. 0.
 0. 0. 0. 0.
 0. 0. 0. 0.
 0. 0. 0. 0.
 0. 0. 0. 0.
 0. 0. 0. 0.
 0. 0. 0. 0.
 0. 0. 0. 0.
 0. 0. 0. 0.
 0. 0. 0. 0.
 0. 0. 0. 0.
 0. 0. 0. 0.
 0. 0. 0. 0.
 0. 0. 0. 0.
 0. 0. 0. 0.
 0. 0. 0. 0.
 0. 0. 0. 0.
 0. 0. 0. 0.
 0. 0. 0. 0.
 0. 0. 0. 0.
 0. 0. 0. 0.
 0. 0. 0. 0.
 0. 0. 0. 0.
 0. 0. 0. 0.
 0. 0. 0. 0.
 0. 0. 0. 0.
 0. 0. 0. 0.
 0. 0. 0. 0.
 0. 0. 0. 0.
 0. 0. 0. 0.
 0. 0. 0. 0.
 0. 0. 0. 0.
 0. 0. 0. 0.
 0. 0. 0. 0.
 0. 0. 0. 0.
 0. 0. 0. 0.
 0. 0. 0. 0.
 0. 0. 0. 0.
 0. 0. 0. 0.
 0. 0. 0. 0.
 0. 0. 0. 0.
 0. 0. 0. 0.
 0. 0. 0. 0.
 0. 0. 0. 0.
 0. 0. 0. 0.
 0. 0. 0. 0.
 0. 0. 0. 0.
 0. 0.
   </PP_BETA.6>
   <PP_BETA.7
       type="real"
       size="1022"
       columns="4"
       index="7"
       angular_momentum="2"
       cutoff_radius_index=" 236"
       cutoff_radius="    2.3500000000E+00" >
    2.3089009003E-11    1.2413292561E-05    9.9241586223E-05    3.3457639811E-04
    7.9186361705E-04    1.5435840328E-03    2.6609378608E-03    4.2135345678E-03
    6.2690892789E-03    8.8931270204E-03    1.2148696017E-02    1.6096091220E-02
    2.0792589212E-02    2.6292195552E-02    3.2645405625E-02    3.9898979936E-02
    4.8095734782E-02    5.7274349139E-02    6.7469188534E-02    7.8710146615E-02
    9.1022505033E-02    1.0442681218E-01    1.1893878129E-01    1.3456920819E-01
    1.5132390912E-01    1.6920367877E-01    1.8820426866E-01    2.0831638591E-01
    2.2952571241E-01    2.5181294418E-01    2.7515385074E-01    2.9951935425E-01
    3.2487562797E-01    3.5118421359E-01    3.7840215695E-01    4.0648216148E-01
    4.3537275874E-01    4.6501849522E-01    4.9536013478E-01    5.2633487553E-01
    5.5787658063E-01    5.8991602163E-01    6.2238113364E-01    6.5519728106E-01
    6.8828753280E-01    7.2157294592E-01    7.5497285647E-01    7.8840517622E-01
    8.2178669434E-01    8.5503338248E-01    8.8806070230E-01    9.2078391401E-01
    9.5311838483E-01    9.8497989602E-01    1.0162849474E+00    1.0469510581E+00
    1.0768970624E+00    1.1060433993E+00    1.1343123955E+00    1.1616285392E+00
    1.1879187456E+00    1.2131126117E+00    1.2371426598E+00    1.2599445691E+00
    1.2814573947E+00    1.3016237722E+00    1.3203901092E+00    1.3377067603E+00
    1.3535281876E+00    1.3678131050E+00    1.3805246055E+00    1.3916302722E+00
    1.4011022714E+00    1.4089174295E+00    1.4150572908E+00    1.4195081589E+00
    1.4222611196E+00    1.4233120469E+00    1.4226615907E+00    1.4203151480E+00
    1.4162828162E+00    1.4105793305E+00    1.4032239842E+00    1.3942405337E+00
    1.3836570875E+00    1.3715059808E+00    1.3578236356E+00    1.3426504069E+00
    1.3260304168E+00    1.3080113754E+00    1.2886443910E+00    1.2679837694E+00
    1.2460868036E+00    1.2230135546E+00    1.1988266240E+00    1.1735909199E+00
    1.1473734166E+00    1.1202429090E+00    1.0922697629E+00    1.0635256623E+00
    1.0340833539E+00    1.0040163911E+00    9.7339887718E-01    9.4230520945E-01
    9.1080982479E-01    8.7898694801E-01    8.4691034370E-01    8.1465307246E-01
    7.8228725249E-01    7.4988382738E-01    7.1751234095E-01    6.8524071991E-01
    6.5313506516E-01    6.2125945253E-01    5.8967574352E-01    5.5844340685E-01
    5.2761935143E-01    4.9725777128E-01    4.6741000306E-01    4.3812439664E-01
    4.0944619917E-01    3.8141745315E-01    3.5407690877E-01    3.2745995102E-01
    3.0159854155E-01    2.7652117589E-01    2.5225285587E-01    2.2881507760E-01
    2.0622583503E-01    1.8449963902E-01    1.6364755209E-01    1.4367723863E-01
    1.2459303058E-01    1.0639600825E-01    8.9084096259E-02    7.2652174206E-02
    5.7092201785E-02    4.2393358017E-02    2.8542194169E-02    1.5522799917E-02
    3.3169822545E-03   -8.0955433927E-03   -1.8736950426E-02   -2.8631087340E-02
   -3.7803253664E-02   -4.6279966279E-02   -5.4088716864E-02   -6.1257721260E-02
   -6.7815661541E-02   -7.3791421626E-02   -7.9213818410E-02   -8.4111324143E-02
   -8.8511856482E-02   -9.2442746448E-02   -9.5930730009E-02   -9.9001901191E-02
   -1.0168167094E-01   -1.0399472872E-01   -1.0596500714E-01   -1.0761564968E-01
   -1.0896898131E-01   -1.1004648208E-01   -1.1086876359E-01   -1.1145554833E-01
   -1.1182565190E-01   -1.1199696808E-01   -1.1198645678E-01   -1.1181013486E-01
   -1.1148306977E-01   -1.1101937616E-01   -1.1043221528E-01   -1.0973379739E-01
   -1.0893538697E-01   -1.0804731092E-01   -1.0707896960E-01   -1.0603885088E-01
   -1.0493454699E-01   -1.0377277440E-01   -1.0255939651E-01   -1.0129944926E-01
   -9.9997169634E-02   -9.8656026973E-02   -9.7278757146E-02   -9.5867399497E-02
   -9.4423336544E-02   -9.2947336397E-02   -9.1439597829E-02   -8.9899797942E-02
   -8.8327142376E-02   -8.6720417973E-02   -8.5078047831E-02   -8.3398148636E-02
   -8.1678590189E-02   -7.9917057124E-02   -7.8111112014E-02   -7.6258261897E-02
   -7.4356024707E-02   -7.2401997031E-02   -7.0393926411E-02   -6.8329781290E-02
   -6.6207823937E-02   -6.4026683940E-02   -6.1785432384E-02   -5.9483656621E-02
   -5.7121535406E-02   -5.4699914176E-02   -5.2220380295E-02   -4.9685338019E-02
   -4.7098082992E-02   -4.4462876040E-02   -4.1785016038E-02   -3.9070911622E-02
   -3.6328151527E-02   -3.3565573327E-02   -3.0793330338E-02   -2.8022933114E-02
   -2.5267501060E-02   -2.2541257897E-02   -1.9860343865E-02   -1.7246221418E-02
   -1.4738995184E-02   -1.2363232342E-02   -1.0129384840E-02   -8.0544589577E-03
   -6.1577381150E-03   -4.4616154803E-03   -2.9914761254E-03   -1.7765220542E-03
   -8.4127701985E-04   -2.4193824687E-04    6.4180894988E-06    2.2254593939E-05
   -7.2167132858E-06    3.0518132532E-07    8.5916423150E-07   -5.1998254539E-08
 0. 0. 0. 0.
 0. 0. 0. 0.
 0. 0. 0. 0.
 0. 0. 0. 0.
 0. 0. 0. 0.
 0. 0. 0. 0.
 0. 0. 0. 0.
 0. 0. 0. 0.
 0. 0. 0. 0.
 0. 0. 0. 0.
 0. 0. 0. 0.
 0. 0. 0. 0.
 0. 0. 0. 0.
 0. 0. 0. 0.
 0. 0. 0. 0.
 0. 0. 0. 0.
 0. 0. 0. 0.
 0. 0. 0. 0.
 0. 0. 0. 0.
 0. 0. 0. 0.
 0. 0. 0. 0.
 0. 0. 0. 0.
 0. 0. 0. 0.
 0. 0. 0. 0.
 0. 0. 0. 0.
 0. 0. 0. 0.
 0. 0. 0. 0.
 0. 0. 0. 0.
 0. 0. 0. 0.
 0. 0. 0. 0.
 0. 0. 0. 0.
 0. 0. 0. 0.
 0. 0. 0. 0.
 0. 0. 0. 0.
 0. 0. 0. 0.
 0. 0. 0. 0.
 0. 0. 0. 0.
 0. 0. 0. 0.
 0. 0. 0. 0.
 0. 0. 0. 0.
 0. 0. 0. 0.
 0. 0. 0. 0.
 0. 0. 0. 0.
 0. 0. 0. 0.
 0. 0. 0. 0.
 0. 0. 0. 0.
 0. 0. 0. 0.
 0. 0. 0. 0.
 0. 0. 0. 0.
 0. 0. 0. 0.
 0. 0. 0. 0.
 0. 0. 0. 0.
 0. 0. 0. 0.
 0. 0. 0. 0.
 0. 0. 0. 0.
 0. 0. 0. 0.
 0. 0. 0. 0.
 0. 0. 0. 0.
 0. 0. 0. 0.
 0. 0. 0. 0.
 0. 0. 0. 0.
 0. 0. 0. 0.
 0. 0. 0. 0.
 0. 0. 0. 0.
 0. 0. 0. 0.
 0. 0. 0. 0.
 0. 0. 0. 0.
 0. 0. 0. 0.
 0. 0. 0. 0.
 0. 0. 0. 0.
 0. 0. 0. 0.
 0. 0. 0. 0.
 0. 0. 0. 0.
 0. 0. 0. 0.
 0. 0. 0. 0.
 0. 0. 0. 0.
 0. 0. 0. 0.
 0. 0. 0. 0.
 0. 0. 0. 0.
 0. 0. 0. 0.
 0. 0. 0. 0.
 0. 0. 0. 0.
 0. 0. 0. 0.
 0. 0. 0. 0.
 0. 0. 0. 0.
 0. 0. 0. 0.
 0. 0. 0. 0.
 0. 0. 0. 0.
 0. 0. 0. 0.
 0. 0. 0. 0.
 0. 0. 0. 0.
 0. 0. 0. 0.
 0. 0. 0. 0.
 0. 0. 0. 0.
 0. 0. 0. 0.
 0. 0. 0. 0.
 0. 0. 0. 0.
 0. 0. 0. 0.
 0. 0. 0. 0.
 0. 0. 0. 0.
 0. 0. 0. 0.
 0. 0. 0. 0.
 0. 0. 0. 0.
 0. 0. 0. 0.
 0. 0. 0. 0.
 0. 0. 0. 0.
 0. 0. 0. 0.
 0. 0. 0. 0.
 0. 0. 0. 0.
 0. 0. 0. 0.
 0. 0. 0. 0.
 0. 0. 0. 0.
 0. 0. 0. 0.
 0. 0. 0. 0.
 0. 0. 0. 0.
 0. 0. 0. 0.
 0. 0. 0. 0.
 0. 0. 0. 0.
 0. 0. 0. 0.
 0. 0. 0. 0.
 0. 0. 0. 0.
 0. 0. 0. 0.
 0. 0. 0. 0.
 0. 0. 0. 0.
 0. 0. 0. 0.
 0. 0. 0. 0.
 0. 0. 0. 0.
 0. 0. 0. 0.
 0. 0. 0. 0.
 0. 0. 0. 0.
 0. 0. 0. 0.
 0. 0. 0. 0.
 0. 0. 0. 0.
 0. 0. 0. 0.
 0. 0. 0. 0.
 0. 0. 0. 0.
 0. 0. 0. 0.
 0. 0. 0. 0.
 0. 0. 0. 0.
 0. 0. 0. 0.
 0. 0. 0. 0.
 0. 0. 0. 0.
 0. 0. 0. 0.
 0. 0. 0. 0.
 0. 0. 0. 0.
 0. 0. 0. 0.
 0. 0. 0. 0.
 0. 0. 0. 0.
 0. 0. 0. 0.
 0. 0. 0. 0.
 0. 0. 0. 0.
 0. 0. 0. 0.
 0. 0. 0. 0.
 0. 0. 0. 0.
 0. 0. 0. 0.
 0. 0. 0. 0.
 0. 0. 0. 0.
 0. 0. 0. 0.
 0. 0. 0. 0.
 0. 0. 0. 0.
 0. 0. 0. 0.
 0. 0. 0. 0.
 0. 0. 0. 0.
 0. 0. 0. 0.
 0. 0. 0. 0.
 0. 0. 0. 0.
 0. 0. 0. 0.
 0. 0. 0. 0.
 0. 0. 0. 0.
 0. 0. 0. 0.
 0. 0. 0. 0.
 0. 0. 0. 0.
 0. 0. 0. 0.
 0. 0. 0. 0.
 0. 0. 0. 0.
 0. 0. 0. 0.
 0. 0. 0. 0.
 0. 0. 0. 0.
 0. 0. 0. 0.
 0. 0. 0. 0.
 0. 0. 0. 0.
 0. 0. 0. 0.
 0. 0. 0. 0.
 0. 0. 0. 0.
 0. 0. 0. 0.
 0. 0. 0. 0.
 0. 0. 0. 0.
 0. 0. 0. 0.
 0. 0. 0. 0.
 0. 0. 0. 0.
 0. 0. 0. 0.
 0. 0. 0. 0.
 0. 0. 0. 0.
 0. 0. 0. 0.
 0. 0. 0. 0.
 0. 0. 0. 0.
 0. 0.
   </PP_BETA.7>
   <PP_BETA.8
       type="real"
       size="1022"
       columns="4"
       index="8"
       angular_momentum="2"
       cutoff_radius_index=" 236"
       cutoff_radius="    2.3500000000E+00" >
    2.2325558069E-11    1.2220246159E-05    9.7698701206E-05    3.2937751276E-04
    7.7956800697E-04    1.5196385247E-03    2.6197061385E-03    4.1483335170E-03
    6.1722321829E-03    8.7559733802E-03    1.1961707737E-02    1.5848894866E-02
    2.0474044016E-02    2.5890466811E-02    3.2148043105E-02    3.9293000876E-02
    4.7367711061E-02    5.6410498148E-02    6.6455467276E-02    7.7532348541E-02
    8.9666359093E-02    1.0287808359E-01    1.1718337343E-01    1.3259326518E-01
    1.4911391843E-01    1.6674657339E-01    1.8548752823E-01    2.0532813632E-01
    2.2625482329E-01    2.4824912375E-01    2.7128773758E-01    2.9534260534E-01
    3.2038100267E-01    3.4636565300E-01    3.7325485820E-01    4.0100264661E-01
    4.2955893766E-01    4.5886972251E-01    4.8887725982E-01    5.1952028588E-01
    5.5073423813E-01    5.8245149120E-01    6.1460160444E-01    6.4711157989E-01
    6.7990612961E-01    7.1290795133E-01    7.4603801122E-01    7.7921583262E-01
    8.1235978960E-01    8.4538740417E-01    8.7821564585E-01    9.1076123254E-01
    9.4294093138E-01    9.7467185849E-01    1.0058717764E+00    1.0364593880E+00
    1.0663546258E+00    1.0954789356E+00    1.1237555535E+00    1.1511097745E+00
    1.1774692131E+00    1.2027640536E+00    1.2269272894E+00    1.2498949520E+00
    1.2716063259E+00    1.2920041520E+00    1.3110348161E+00    1.3286485236E+00
    1.3447994588E+00    1.3594459290E+00    1.3725504926E+00    1.3840800707E+00
    1.3940060422E+00    1.4023043225E+00    1.4089554240E+00    1.4139445010E+00
    1.4172613765E+00    1.4189005518E+00    1.4188611997E+00    1.4171471405E+00
    1.4137668016E+00    1.4087331602E+00    1.4020636710E+00    1.3937801775E+00
    1.3839088087E+00    1.3724798609E+00    1.3595276657E+00    1.3450904448E+00
    1.3292101516E+00    1.3119323011E+00    1.2933057886E+00    1.2733826977E+00
    1.2522180984E+00    1.2298698372E+00    1.2063983180E+00    1.1818662771E+00
    1.1563385511E+00    1.1298818397E+00    1.1025644647E+00    1.0744561249E+00
    1.0456276488E+00    1.0161507461E+00    9.8609775771E-01    9.5554140714E-01
    9.2455455256E-01    8.9320994124E-01    8.6157996700E-01    8.2973643181E-01
    7.9775031208E-01    7.6569153077E-01    7.3362873597E-01    7.0162908684E-01
    6.6975804760E-01    6.3807919039E-01    6.0665400766E-01    5.7554173467E-01
    5.4479918298E-01    5.1448058520E-01    4.8463745180E-01    4.5531844044E-01
    4.2656923817E-01    3.9843245713E-01    3.7094754391E-01    3.4415070311E-01
    3.1807483528E-01    2.9274948949E-01    2.6820083083E-01    2.4445162278E-01
    2.2152122483E-01    1.9942560523E-01    1.7817736883E-01    1.5778580017E-01
    1.3825692158E-01    1.1959356617E-01    1.0179546558E-01    8.4859352195E-02
    6.8779075620E-02    5.3545733016E-02    3.9147812973E-02    2.5571352477E-02
    1.2800106524E-02    8.1572986110E-04   -1.0402029682E-02   -2.0875126879E-02
   -3.0627004437E-02   -3.9682368637E-02   -4.8066956024E-02   -5.5807291867E-02
   -6.2930441192E-02   -6.9463753147E-02   -7.5434600564E-02   -8.0870111015E-02
   -8.5796956671E-02   -9.0241307389E-02   -9.4228815816E-02   -9.7784571745E-02
   -1.0093306148E-01   -1.0369812981E-01   -1.0610294474E-01   -1.0816996516E-01
   -1.0992091107E-01   -1.1137673662E-01   -1.1255760585E-01   -1.1348287101E-01
   -1.1417105362E-01   -1.1463982816E-01   -1.1490600852E-01   -1.1498553700E-01
   -1.1489347619E-01   -1.1464400346E-01   -1.1425040821E-01   -1.1372509196E-01
   -1.1307957115E-01   -1.1232448274E-01   -1.1146959263E-01   -1.1052380696E-01
   -1.0949518616E-01   -1.0839096186E-01   -1.0721755664E-01   -1.0598060667E-01
   -1.0468498707E-01   -1.0333484018E-01   -1.0193360659E-01   -1.0048405890E-01
   -9.8988338347E-02   -9.7447993979E-02   -9.5864024626E-02   -9.4236923414E-02
   -9.2566724847E-02   -9.0853054385E-02   -8.9095180431E-02   -8.7292068637E-02
   -8.5442438447E-02   -8.3544821879E-02   -8.1597623758E-02   -7.9599185379E-02
   -7.7547848189E-02   -7.5442018870E-02   -7.3280238924E-02   -7.1061252095E-02
   -6.8784074771E-02   -6.6448067043E-02   -6.4053004518E-02   -6.1599150810E-02
   -5.9087330452E-02   -5.6519002045E-02   -5.3896331441E-02   -5.1222264723E-02
   -4.8500600797E-02   -4.5736063353E-02   -4.2934371980E-02   -4.0102312203E-02
   -3.7247804215E-02   -3.4379970096E-02   -3.1509199255E-02   -2.8647188996E-02
   -2.5807191237E-02   -2.3003517679E-02   -2.0252335629E-02   -1.7575010712E-02
   -1.5011189306E-02   -1.2585255064E-02   -1.0307713241E-02   -8.1954642938E-03
   -6.2676114600E-03   -4.5462784923E-03   -3.0564954577E-03   -1.8270890028E-03
   -8.8123595616E-04   -2.7783490875E-04   -2.7139784116E-05    1.0510541643E-05
   -4.0791036528E-06    1.4275300762E-07    4.3191021018E-07    3.2043152997E-08
 0. 0. 0. 0.
 0. 0. 0. 0.
 0. 0. 0. 0.
 0. 0. 0. 0.
 0. 0. 0. 0.
 0. 0. 0. 0.
 0. 0. 0. 0.
 0. 0. 0. 0.
 0. 0. 0. 0.
 0. 0. 0. 0.
 0. 0. 0. 0.
 0. 0. 0. 0.
 0. 0. 0. 0.
 0. 0. 0. 0.
 0. 0. 0. 0.
 0. 0. 0. 0.
 0. 0. 0. 0.
 0. 0. 0. 0.
 0. 0. 0. 0.
 0. 0. 0. 0.
 0. 0. 0. 0.
 0. 0. 0. 0.
 0. 0. 0. 0.
 0. 0. 0. 0.
 0. 0. 0. 0.
 0. 0. 0. 0.
 0. 0. 0. 0.
 0. 0. 0. 0.
 0. 0. 0. 0.
 0. 0. 0. 0.
 0. 0. 0. 0.
 0. 0. 0. 0.
 0. 0. 0. 0.
 0. 0. 0. 0.
 0. 0. 0. 0.
 0. 0. 0. 0.
 0. 0. 0. 0.
 0. 0. 0. 0.
 0. 0. 0. 0.
 0. 0. 0. 0.
 0. 0. 0. 0.
 0. 0. 0. 0.
 0. 0. 0. 0.
 0. 0. 0. 0.
 0. 0. 0. 0.
 0. 0. 0. 0.
 0. 0. 0. 0.
 0. 0. 0. 0.
 0. 0. 0. 0.
 0. 0. 0. 0.
 0. 0. 0. 0.
 0. 0. 0. 0.
 0. 0. 0. 0.
 0. 0. 0. 0.
 0. 0. 0. 0.
 0. 0. 0. 0.
 0. 0. 0. 0.
 0. 0. 0. 0.
 0. 0. 0. 0.
 0. 0. 0. 0.
 0. 0. 0. 0.
 0. 0. 0. 0.
 0. 0. 0. 0.
 0. 0. 0. 0.
 0. 0. 0. 0.
 0. 0. 0. 0.
 0. 0. 0. 0.
 0. 0. 0. 0.
 0. 0. 0. 0.
 0. 0. 0. 0.
 0. 0. 0. 0.
 0. 0. 0. 0.
 0. 0. 0. 0.
 0. 0. 0. 0.
 0. 0. 0. 0.
 0. 0. 0. 0.
 0. 0. 0. 0.
 0. 0. 0. 0.
 0. 0. 0. 0.
 0. 0. 0. 0.
 0. 0. 0. 0.
 0. 0. 0. 0.
 0. 0. 0. 0.
 0. 0. 0. 0.
 0. 0. 0. 0.
 0. 0. 0. 0.
 0. 0. 0. 0.
 0. 0. 0. 0.
 0. 0. 0. 0.
 0. 0. 0. 0.
 0. 0. 0. 0.
 0. 0. 0. 0.
 0. 0. 0. 0.
 0. 0. 0. 0.
 0. 0. 0. 0.
 0. 0. 0. 0.
 0. 0. 0. 0.
 0. 0. 0. 0.
 0. 0. 0. 0.
 0. 0. 0. 0.
 0. 0. 0. 0.
 0. 0. 0. 0.
 0. 0. 0. 0.
 0. 0. 0. 0.
 0. 0. 0. 0.
 0. 0. 0. 0.
 0. 0. 0. 0.
 0. 0. 0. 0.
 0. 0. 0. 0.
 0. 0. 0. 0.
 0. 0. 0. 0.
 0. 0. 0. 0.
 0. 0. 0. 0.
 0. 0. 0. 0.
 0. 0. 0. 0.
 0. 0. 0. 0.
 0. 0. 0. 0.
 0. 0. 0. 0.
 0. 0. 0. 0.
 0. 0. 0. 0.
 0. 0. 0. 0.
 0. 0. 0. 0.
 0. 0. 0. 0.
 0. 0. 0. 0.
 0. 0. 0. 0.
 0. 0. 0. 0.
 0. 0. 0. 0.
 0. 0. 0. 0.
 0. 0. 0. 0.
 0. 0. 0. 0.
 0. 0. 0. 0.
 0. 0. 0. 0.
 0. 0. 0. 0.
 0. 0. 0. 0.
 0. 0. 0. 0.
 0. 0. 0. 0.
 0. 0. 0. 0.
 0. 0. 0. 0.
 0. 0. 0. 0.
 0. 0. 0. 0.
 0. 0. 0. 0.
 0. 0. 0. 0.
 0. 0. 0. 0.
 0. 0. 0. 0.
 0. 0. 0. 0.
 0. 0. 0. 0.
 0. 0. 0. 0.
 0. 0. 0. 0.
 0. 0. 0. 0.
 0. 0. 0. 0.
 0. 0. 0. 0.
 0. 0. 0. 0.
 0. 0. 0. 0.
 0. 0. 0. 0.
 0. 0. 0. 0.
 0. 0. 0. 0.
 0. 0. 0. 0.
 0. 0. 0. 0.
 0. 0. 0. 0.
 0. 0. 0. 0.
 0. 0. 0. 0.
 0. 0. 0. 0.
 0. 0. 0. 0.
 0. 0. 0. 0.
 0. 0. 0. 0.
 0. 0. 0. 0.
 0. 0. 0. 0.
 0. 0. 0. 0.
 0. 0. 0. 0.
 0. 0. 0. 0.
 0. 0. 0. 0.
 0. 0. 0. 0.
 0. 0. 0. 0.
 0. 0. 0. 0.
 0. 0. 0. 0.
 0. 0. 0. 0.
 0. 0. 0. 0.
 0. 0. 0. 0.
 0. 0. 0. 0.
 0. 0. 0. 0.
 0. 0. 0. 0.
 0. 0. 0. 0.
 0. 0. 0. 0.
 0. 0. 0. 0.
 0. 0. 0. 0.
 0. 0. 0. 0.
 0. 0. 0. 0.
 0. 0. 0. 0.
 0. 0. 0. 0.
 0. 0. 0. 0.
 0. 0. 0. 0.
 0. 0. 0. 0.
 0. 0. 0. 0.
 0. 0. 0. 0.
 0. 0. 0. 0.
 0. 0. 0. 0.
 0. 0.
   </PP_BETA.8>
   <PP_BETA.9
       type="real"
       size="1022"
       columns="4"
       index="9"
       angular_momentum="2"
       cutoff_radius_index=" 236"
       cutoff_radius="    2.3500000000E+00" >
   -2.6947324580E-11   -9.0369970910E-06   -7.2231720054E-05   -2.4342093492E-04
   -5.7580099633E-04   -1.1216114057E-03   -1.9318228668E-03   -3.0558313071E-03
   -4.5411593038E-03   -6.4331663234E-03   -8.7747691412E-03   -1.1606173762E-02
   -1.4964620111E-02   -1.8884140709E-02   -2.3395334477E-02   -2.8525156749E-02
   -3.4296726511E-02   -4.0729151777E-02   -4.7837373969E-02   -5.5632032045E-02
   -6.4119347065E-02   -7.3301027759E-02   -8.3174197593E-02   -9.3731343720E-02
   -1.0496028810E-01   -1.1684418101E-01   -1.2936151695E-01   -1.4248617306E-01
   -1.5618746983E-01   -1.7043025394E-01   -1.8517500289E-01   -2.0037795105E-01
   -2.1599123658E-01   -2.3196306865E-01   -2.4823791424E-01   -2.6475670380E-01
   -2.8145705481E-01   -2.9827351239E-01   -3.1513780588E-01   -3.3197912033E-01
   -3.4872438170E-01   -3.6529855464E-01   -3.8162495142E-01   -3.9762555085E-01
   -4.1322132567E-01   -4.2833257714E-01   -4.4287927523E-01   -4.5678140312E-01
   -4.6995930430E-01   -4.8233403101E-01   -4.9382769232E-01   -5.0436380040E-01
   -5.1386761353E-01   -5.2226647432E-01   -5.2949014160E-01   -5.3547111464E-01
   -5.4014494830E-01   -5.4345055754E-01   -5.4533051024E-01   -5.4573130684E-01
   -5.4460364560E-01   -5.4190267241E-01   -5.3758821394E-01   -5.3162499316E-01
   -5.2398282621E-01   -5.1463679981E-01   -5.0356742828E-01   -4.9076078965E-01
   -4.7620863999E-01   -4.5990850560E-01   -4.4186375248E-01   -4.2208363284E-01
   -4.0058330827E-01   -3.7738384941E-01   -3.5251221216E-01   -3.2600119027E-01
   -2.9788934458E-01   -2.6822090905E-01   -2.3704567381E-01   -2.0441884580E-01
   -1.7040088731E-01   -1.3505733311E-01   -9.8458586762E-02   -6.0679696879E-02
   -2.1800114178E-02    1.8096569816E-02    5.8922901401E-02    1.0058785965E-01
    1.4299716655E-01    1.8605361115E-01    2.2965738653E-01    2.7370643824E-01
    3.1809682295E-01    3.6272307586E-01    4.0747858550E-01    4.5225597446E-01
    4.9694748457E-01    5.4144536503E-01    5.8564226193E-01    6.2943160770E-01
    6.7270800884E-01    7.1536763052E-01    7.5730857628E-01    7.9843126159E-01
    8.3863877946E-01    8.7783725667E-01    9.1593619928E-01    9.5284882565E-01
    9.8849238580E-01    1.0227884655E+00    1.0556632741E+00    1.0870479137E+00
    1.1168786303E+00    1.1450970435E+00    1.1716503552E+00    1.1964915354E+00
    1.2195794840E+00    1.2408791686E+00    1.2603617352E+00    1.2780045939E+00
    1.2937914757E+00    1.3077124623E+00    1.3197639866E+00    1.3299488037E+00
    1.3382759322E+00    1.3447605658E+00    1.3494239529E+00    1.3522932470E+00
    1.3534013246E+00    1.3527865730E+00    1.3504926464E+00    1.3465681914E+00
    1.3410665413E+00    1.3340453800E+00    1.3255663756E+00    1.3156947843E+00
    1.3044990251E+00    1.2920502255E+00    1.2784217395E+00    1.2636886388E+00
    1.2479271767E+00    1.2312142276E+00    1.2136267017E+00    1.1952409366E+00
    1.1761320666E+00    1.1563733715E+00    1.1360356060E+00    1.1151863107E+00
    1.0938891063E+00    1.0722029722E+00    1.0501815327E+00    1.0278722393E+00
    1.0053171464E+00    9.8255621608E-01    9.5962874097E-01    9.3657321043E-01
    9.1342727014E-01    8.9022766095E-01    8.6701015928E-01    8.4380951903E-01
    8.2065941502E-01    7.9759238842E-01    7.7463979436E-01    7.5183175197E-01
    7.2919709738E-01    7.0676333964E-01    6.8455662011E-01    6.6260167524E-01
    6.4092180339E-01    6.1953883540E-01    5.9847310951E-01    5.7774345053E-01
    5.5736715364E-01    5.3735997266E-01    5.1773611330E-01    4.9850823112E-01
    4.7968743466E-01    4.6128329340E-01    4.4330385113E-01    4.2575564436E-01
    4.0864372598E-01    3.9197169426E-01    3.7574172718E-01    3.5995462190E-01
    3.4460983972E-01    3.2970555613E-01    3.1523871622E-01    3.0120509515E-01
    2.8759936377E-01    2.7441515918E-01    2.6164516030E-01    2.4928116801E-01
    2.3731419003E-01    2.2573453080E-01    2.1453188224E-01    2.0369542769E-01
    1.9321393930E-01    1.8307587741E-01    1.7326951161E-01    1.6378302373E-01
    1.5460462464E-01    1.4572267144E-01    1.3712578655E-01    1.2880297887E-01
    1.2074376652E-01    1.1293830072E-01    1.0537749048E-01    9.8053127793E-02
    9.0958012844E-02    8.4086078904E-02    7.7432516536E-02    7.0993896608E-02
    6.4768291827E-02    5.8755396356E-02    5.2956643064E-02    4.7375275138E-02
    4.2016805147E-02    3.6888083447E-02    3.1998794671E-02    2.7367714105E-02
    2.3047137352E-02    1.9060084146E-02    1.5402971514E-02    1.2083646706E-02
    9.1134957121E-03    6.5089691342E-03    4.2913605269E-03    2.4878169358E-03
    1.1219231620E-03    2.5144814083E-04   -1.0318444622E-04   -6.4892470042E-05
    1.9204155106E-05   -8.9753063112E-07   -2.4430243784E-06    3.1016849397E-07
 0. 0. 0. 0.
 0. 0. 0. 0.
 0. 0. 0. 0.
 0. 0. 0. 0.
 0. 0. 0. 0.
 0. 0. 0. 0.
 0. 0. 0. 0.
 0. 0. 0. 0.
 0. 0. 0. 0.
 0. 0. 0. 0.
 0. 0. 0. 0.
 0. 0. 0. 0.
 0. 0. 0. 0.
 0. 0. 0. 0.
 0. 0. 0. 0.
 0. 0. 0. 0.
 0. 0. 0. 0.
 0. 0. 0. 0.
 0. 0. 0. 0.
 0. 0. 0. 0.
 0. 0. 0. 0.
 0. 0. 0. 0.
 0. 0. 0. 0.
 0. 0. 0. 0.
 0. 0. 0. 0.
 0. 0. 0. 0.
 0. 0. 0. 0.
 0. 0. 0. 0.
 0. 0. 0. 0.
 0. 0. 0. 0.
 0. 0. 0. 0.
 0. 0. 0. 0.
 0. 0. 0. 0.
 0. 0. 0. 0.
 0. 0. 0. 0.
 0. 0. 0. 0.
 0. 0. 0. 0.
 0. 0. 0. 0.
 0. 0. 0. 0.
 0. 0. 0. 0.
 0. 0. 0. 0.
 0. 0. 0. 0.
 0. 0. 0. 0.
 0. 0. 0. 0.
 0. 0. 0. 0.
 0. 0. 0. 0.
 0. 0. 0. 0.
 0. 0. 0. 0.
 0. 0. 0. 0.
 0. 0. 0. 0.
 0. 0. 0. 0.
 0. 0. 0. 0.
 0. 0. 0. 0.
 0. 0. 0. 0.
 0. 0. 0. 0.
 0. 0. 0. 0.
 0. 0. 0. 0.
 0. 0. 0. 0.
 0. 0. 0. 0.
 0. 0. 0. 0.
 0. 0. 0. 0.
 0. 0. 0. 0.
 0. 0. 0. 0.
 0. 0. 0. 0.
 0. 0. 0. 0.
 0. 0. 0. 0.
 0. 0. 0. 0.
 0. 0. 0. 0.
 0. 0. 0. 0.
 0. 0. 0. 0.
 0. 0. 0. 0.
 0. 0. 0. 0.
 0. 0. 0. 0.
 0. 0. 0. 0.
 0. 0. 0. 0.
 0. 0. 0. 0.
 0. 0. 0. 0.
 0. 0. 0. 0.
 0. 0. 0. 0.
 0. 0. 0. 0.
 0. 0. 0. 0.
 0. 0. 0. 0.
 0. 0. 0. 0.
 0. 0. 0. 0.
 0. 0. 0. 0.
 0. 0. 0. 0.
 0. 0. 0. 0.
 0. 0. 0. 0.
 0. 0. 0. 0.
 0. 0. 0. 0.
 0. 0. 0. 0.
 0. 0. 0. 0.
 0. 0. 0. 0.
 0. 0. 0. 0.
 0. 0. 0. 0.
 0. 0. 0. 0.
 0. 0. 0. 0.
 0. 0. 0. 0.
 0. 0. 0. 0.
 0. 0. 0. 0.
 0. 0. 0. 0.
 0. 0. 0. 0.
 0. 0. 0. 0.
 0. 0. 0. 0.
 0. 0. 0. 0.
 0. 0. 0. 0.
 0. 0. 0. 0.
 0. 0. 0. 0.
 0. 0. 0. 0.
 0. 0. 0. 0.
 0. 0. 0. 0.
 0. 0. 0. 0.
 0. 0. 0. 0.
 0. 0. 0. 0.
 0. 0. 0. 0.
 0. 0. 0. 0.
 0. 0. 0. 0.
 0. 0. 0. 0.
 0. 0. 0. 0.
 0. 0. 0. 0.
 0. 0. 0. 0.
 0. 0. 0. 0.
 0. 0. 0. 0.
 0. 0. 0. 0.
 0. 0. 0. 0.
 0. 0. 0. 0.
 0. 0. 0. 0.
 0. 0. 0. 0.
 0. 0. 0. 0.
 0. 0. 0. 0.
 0. 0. 0. 0.
 0. 0. 0. 0.
 0. 0. 0. 0.
 0. 0. 0. 0.
 0. 0. 0. 0.
 0. 0. 0. 0.
 0. 0. 0. 0.
 0. 0. 0. 0.
 0. 0. 0. 0.
 0. 0. 0. 0.
 0. 0. 0. 0.
 0. 0. 0. 0.
 0. 0. 0. 0.
 0. 0. 0. 0.
 0. 0. 0. 0.
 0. 0. 0. 0.
 0. 0. 0. 0.
 0. 0. 0. 0.
 0. 0. 0. 0.
 0. 0. 0. 0.
 0. 0. 0. 0.
 0. 0. 0. 0.
 0. 0. 0. 0.
 0. 0. 0. 0.
 0. 0. 0. 0.
 0. 0. 0. 0.
 0. 0. 0. 0.
 0. 0. 0. 0.
 0. 0. 0. 0.
 0. 0. 0. 0.
 0. 0. 0. 0.
 0. 0. 0. 0.
 0. 0. 0. 0.
 0. 0. 0. 0.
 0. 0. 0. 0.
 0. 0. 0. 0.
 0. 0. 0. 0.
 0. 0. 0. 0.
 0. 0. 0. 0.
 0. 0. 0. 0.
 0. 0. 0. 0.
 0. 0. 0. 0.
 0. 0. 0. 0.
 0. 0. 0. 0.
 0. 0. 0. 0.
 0. 0. 0. 0.
 0. 0. 0. 0.
 0. 0. 0. 0.
 0. 0. 0. 0.
 0. 0. 0. 0.
 0. 0. 0. 0.
 0. 0. 0. 0.
 0. 0. 0. 0.
 0. 0. 0. 0.
 0. 0. 0. 0.
 0. 0. 0. 0.
 0. 0. 0. 0.
 0. 0. 0. 0.
 0. 0. 0. 0.
 0. 0. 0. 0.
 0. 0. 0. 0.
 0. 0. 0. 0.
 0. 0. 0. 0.
 0. 0. 0. 0.
 0. 0. 0. 0.
 0. 0. 0. 0.
 0. 0.
   </PP_BETA.9>
   <PP_BETA.10
       type="real"
       size="1022"
       columns="4"
       index="10"
       angular_momentum="2"
       cutoff_radius_index=" 236"
       cutoff_radius="    2.3500000000E+00" >
   -2.5976006068E-11   -8.8973801226E-06   -7.1116280331E-05   -2.3966473118E-04
   -5.6692524669E-04   -1.1043457159E-03   -1.9021346557E-03   -3.0089622485E-03
   -4.4716685616E-03   -6.3349803141E-03   -8.6412375168E-03   -1.1430131269E-02
   -1.4738453944E-02   -1.8599862938E-02   -2.3044659101E-02   -2.8099580904E-02
   -3.3787615304E-02   -4.0127826237E-02   -4.7135201549E-02   -5.4820519102E-02
   -6.3190232732E-02   -7.2246378609E-02   -8.1986502487E-02   -9.2403608215E-02
   -1.0348612782E-01   -1.1521791331E-01   -1.2757825037E-01   -1.4054189384E-01
   -1.5407912496E-01   -1.6815583019E-01   -1.8273360117E-01   -1.9776985571E-01
   -2.1321797897E-01   -2.2902748457E-01   -2.4514419482E-01   -2.6151043928E-01
   -2.7806527098E-01   -2.9474469925E-01   -3.1148193823E-01   -3.2820767003E-01
   -3.4485032137E-01   -3.6133635261E-01   -3.7759055785E-01   -3.9353637484E-01
   -4.0909620344E-01   -4.2419173119E-01   -4.3874426461E-01   -4.5267506484E-01
   -4.6590568618E-01   -4.7835831600E-01   -4.8995611467E-01   -5.0062355396E-01
   -5.1028675248E-01   -5.1887380673E-01   -5.2631511631E-01   -5.3254370190E-01
   -5.3749551458E-01   -5.4110973525E-01   -5.4332906278E-01   -5.4409998963E-01
   -5.4337306375E-01   -5.4110313569E-01   -5.3724958969E-01   -5.3177655786E-01
   -5.2465311644E-01   -5.1585346330E-01   -5.0535707580E-01   -4.9314884846E-01
   -4.7921920955E-01   -4.6356421638E-01   -4.4618562846E-01   -4.2709095852E-01
   -4.0629350077E-01   -3.8381233650E-01   -3.5967231675E-01   -3.3390402203E-01
   -3.0654369930E-01   -2.7763317630E-01   -2.4721975352E-01   -2.1535607411E-01
   -1.8209997231E-01   -1.4751430077E-01   -1.1166673755E-01   -7.4629573252E-02
   -3.6479479375E-02    2.7027415470E-03    4.2832422916E-02    8.3821317235E-02
    1.2557789439E-01    1.6800765393E-01    2.1101345015E-01    2.5449582882E-01
    2.9835337414E-01    3.4248306477E-01    3.8678063742E-01    4.3114095668E-01
    4.7545838970E-01    5.1962718413E-01    5.6354184801E-01    6.0709752994E-01
    6.5019039825E-01    6.9271801744E-01    7.3457972050E-01    7.7567697564E-01
    8.1591374579E-01    8.5519683953E-01    8.9343625189E-01    9.3054549365E-01
    9.6644190761E-01    1.0010469706E+00    1.0342865795E+00    1.0660913209E+00
    1.0963967215E+00    1.1251434798E+00    1.1522776767E+00    1.1777509642E+00
    1.2015207314E+00    1.2235502464E+00    1.2438087737E+00    1.2622716650E+00
    1.2789204243E+00    1.2937427454E+00    1.3067325211E+00    1.3178898241E+00
    1.3272208586E+00    1.3347378828E+00    1.3404591003E+00    1.3444085228E+00
    1.3466158011E+00    1.3471160263E+00    1.3459494997E+00    1.3431614730E+00
    1.3388018577E+00    1.3329249036E+00    1.3255888488E+00    1.3168555390E+00
    1.3067900183E+00    1.2954600917E+00    1.2829358591E+00    1.2692892229E+00
    1.2545933691E+00    1.2389222228E+00    1.2223498795E+00    1.2049500133E+00
    1.1867952622E+00    1.1679565932E+00    1.1485026468E+00    1.1284990643E+00
    1.1080077964E+00    1.0870863969E+00    1.0657873228E+00    1.0441571313E+00
    1.0222372322E+00    1.0000671049E+00    9.7768568328E-01    9.5513122155E-01
    9.3244125104E-01    9.0965251677E-01    8.8680091507E-01    8.6392143257E-01
    8.4104808646E-01    8.1821386645E-01    7.9545067878E-01    7.7278929241E-01
    7.5025928799E-01    7.2788900959E-01    7.0570551972E-01    6.8373455768E-01
    6.6200050163E-01    6.4052633461E-01    6.1933361447E-01    5.9844244828E-01
    5.7787147109E-01    5.5763782930E-01    5.3775716879E-01    5.1824362799E-01
    4.9910983585E-01    4.8036691496E-01    4.6202448986E-01    4.4409070060E-01
    4.2657222157E-01    4.0947428572E-01    3.9280071422E-01    3.7655395143E-01
    3.6073510527E-01    3.4534399308E-01    3.3037919270E-01    3.1583809894E-01
    3.0171698521E-01    2.8801107031E-01    2.7471459037E-01    2.6182087546E-01
    2.4932243119E-01    2.3721102535E-01    2.2547777576E-01    2.1411325121E-01
    2.0310756618E-01    1.9245047793E-01    1.8213150476E-01    1.7214002707E-01
    1.6246540197E-01    1.5309707852E-01    1.4402471507E-01    1.3523829873E-01
    1.2672826659E-01    1.1848562815E-01    1.1050208881E-01    1.0277017383E-01
    9.5283352448E-02    8.8036161880E-02    8.1024330593E-02    7.4244900548E-02
    6.7696348018E-02    6.1378702565E-02    5.5293663711E-02    4.9444672877E-02
    4.3837365045E-02    3.8478657867E-02    3.3378218461E-02    2.8554599149E-02
    2.4059205529E-02    1.9914736861E-02    1.6117789273E-02    1.2676123431E-02
    9.6009378850E-03    6.9083670247E-03    4.6192671322E-03    2.7606260253E-03
    1.3503328482E-03    4.6552639242E-04    1.0054456138E-04    6.6880055083E-06
    6.0826451274E-08    9.2809295996E-08    1.6286487646E-07   -2.0058094332E-07
 0. 0. 0. 0.
 0. 0. 0. 0.
 0. 0. 0. 0.
 0. 0. 0. 0.
 0. 0. 0. 0.
 0. 0. 0. 0.
 0. 0. 0. 0.
 0. 0. 0. 0.
 0. 0. 0. 0.
 0. 0. 0. 0.
 0. 0. 0. 0.
 0. 0. 0. 0.
 0. 0. 0. 0.
 0. 0. 0. 0.
 0. 0. 0. 0.
 0. 0. 0. 0.
 0. 0. 0. 0.
 0. 0. 0. 0.
 0. 0. 0. 0.
 0. 0. 0. 0.
 0. 0. 0. 0.
 0. 0. 0. 0.
 0. 0. 0. 0.
 0. 0. 0. 0.
 0. 0. 0. 0.
 0. 0. 0. 0.
 0. 0. 0. 0.
 0. 0. 0. 0.
 0. 0. 0. 0.
 0. 0. 0. 0.
 0. 0. 0. 0.
 0. 0. 0. 0.
 0. 0. 0. 0.
 0. 0. 0. 0.
 0. 0. 0. 0.
 0. 0. 0. 0.
 0. 0. 0. 0.
 0. 0. 0. 0.
 0. 0. 0. 0.
 0. 0. 0. 0.
 0. 0. 0. 0.
 0. 0. 0. 0.
 0. 0. 0. 0.
 0. 0. 0. 0.
 0. 0. 0. 0.
 0. 0. 0. 0.
 0. 0. 0. 0.
 0. 0. 0. 0.
 0. 0. 0. 0.
 0. 0. 0. 0.
 0. 0. 0. 0.
 0. 0. 0. 0.
 0. 0. 0. 0.
 0. 0. 0. 0.
 0. 0. 0. 0.
 0. 0. 0. 0.
 0. 0. 0. 0.
 0. 0. 0. 0.
 0. 0. 0. 0.
 0. 0. 0. 0.
 0. 0. 0. 0.
 0. 0. 0. 0.
 0. 0. 0. 0.
 0. 0. 0. 0.
 0. 0. 0. 0.
 0. 0. 0. 0.
 0. 0. 0. 0.
 0. 0. 0. 0.
 0. 0. 0. 0.
 0. 0. 0. 0.
 0. 0. 0. 0.
 0. 0. 0. 0.
 0. 0. 0. 0.
 0. 0. 0. 0.
 0. 0. 0. 0.
 0. 0. 0. 0.
 0. 0. 0. 0.
 0. 0. 0. 0.
 0. 0. 0. 0.
 0. 0. 0. 0.
 0. 0. 0. 0.
 0. 0. 0. 0.
 0. 0. 0. 0.
 0. 0. 0. 0.
 0. 0. 0. 0.
 0. 0. 0. 0.
 0. 0. 0. 0.
 0. 0. 0. 0.
 0. 0. 0. 0.
 0. 0. 0. 0.
 0. 0. 0. 0.
 0. 0. 0. 0.
 0. 0. 0. 0.
 0. 0. 0. 0.
 0. 0. 0. 0.
 0. 0. 0. 0.
 0. 0. 0. 0.
 0. 0. 0. 0.
 0. 0. 0. 0.
 0. 0. 0. 0.
 0. 0. 0. 0.
 0. 0. 0. 0.
 0. 0. 0. 0.
 0. 0. 0. 0.
 0. 0. 0. 0.
 0. 0. 0. 0.
 0. 0. 0. 0.
 0. 0. 0. 0.
 0. 0. 0. 0.
 0. 0. 0. 0.
 0. 0. 0. 0.
 0. 0. 0. 0.
 0. 0. 0. 0.
 0. 0. 0. 0.
 0. 0. 0. 0.
 0. 0. 0. 0.
 0. 0. 0. 0.
 0. 0. 0. 0.
 0. 0. 0. 0.
 0. 0. 0. 0.
 0. 0. 0. 0.
 0. 0. 0. 0.
 0. 0. 0. 0.
 0. 0. 0. 0.
 0. 0. 0. 0.
 0. 0. 0. 0.
 0. 0. 0. 0.
 0. 0. 0. 0.
 0. 0. 0. 0.
 0. 0. 0. 0.
 0. 0. 0. 0.
 0. 0. 0. 0.
 0. 0. 0. 0.
 0. 0. 0. 0.
 0. 0. 0. 0.
 0. 0. 0. 0.
 0. 0. 0. 0.
 0. 0. 0. 0.
 0. 0. 0. 0.
 0. 0. 0. 0.
 0. 0. 0. 0.
 0. 0. 0. 0.
 0. 0. 0. 0.
 0. 0. 0. 0.
 0. 0. 0. 0.
 0. 0. 0. 0.
 0. 0. 0. 0.
 0. 0. 0. 0.
 0. 0. 0. 0.
 0. 0. 0. 0.
 0. 0. 0. 0.
 0. 0. 0. 0.
 0. 0. 0. 0.
 0. 0. 0. 0.
 0. 0. 0. 0.
 0. 0. 0. 0.
 0. 0. 0. 0.
 0. 0. 0. 0.
 0. 0. 0. 0.
 0. 0. 0. 0.
 0. 0. 0. 0.
 0. 0. 0. 0.
 0. 0. 0. 0.
 0. 0. 0. 0.
 0. 0. 0. 0.
 0. 0. 0. 0.
 0. 0. 0. 0.
 0. 0. 0. 0.
 0. 0. 0. 0.
 0. 0. 0. 0.
 0. 0. 0. 0.
 0. 0. 0. 0.
 0. 0. 0. 0.
 0. 0. 0. 0.
 0. 0. 0. 0.
 0. 0. 0. 0.
 0. 0. 0. 0.
 0. 0. 0. 0.
 0. 0. 0. 0.
 0. 0. 0. 0.
 0. 0. 0. 0.
 0. 0. 0. 0.
 0. 0. 0. 0.
 0. 0. 0. 0.
 0. 0. 0. 0.
 0. 0. 0. 0.
 0. 0. 0. 0.
 0. 0. 0. 0.
 0. 0. 0. 0.
 0. 0. 0. 0.
 0. 0. 0. 0.
 0. 0. 0. 0.
 0. 0. 0. 0.
 0. 0. 0. 0.
 0. 0. 0. 0.
 0. 0. 0. 0.
 0. 0.
   </PP_BETA.10>
   <PP_DIJ type="real"  size=" 100" columns="4">
    1.4576038478E+01    0.0000000000E+00    0.0000000000E+00    0.0000000000E+00
    0.0000000000E+00    0.0000000000E+00    0.0000000000E+00    0.0000000000E+00
    0.0000000000E+00    0.0000000000E+00    0.0000000000E+00    1.8232886238E+00
    0.0000000000E+00    0.0000000000E+00    0.0000000000E+00    0.0000000000E+00
    0.0000000000E+00    0.0000000000E+00    0.0000000000E+00    0.0000000000E+00
    0.0000000000E+00    0.0000000000E+00    1.0264873603E+01    0.0000000000E+00
    0.0000000000E+00    0.0000000000E+00    0.0000000000E+00    0.0000000000E+00
    0.0000000000E+00    0.0000000000E+00    0.0000000000E+00    0.0000000000E+00
    0.0000000000E+00    1.0270115835E+01    0.0000000000E+00    0.0000000000E+00
    0.0000000000E+00    0.0000000000E+00    0.0000000000E+00    0.0000000000E+00
    0.0000000000E+00    0.0000000000E+00    0.0000000000E+00    0.0000000000E+00
    1.2206723495E+00    0.0000000000E+00    0.0000000000E+00    0.0000000000E+00
    0.0000000000E+00    0.0000000000E+00    0.0000000000E+00    0.0000000000E+00
    0.0000000000E+00    0.0000000000E+00    0.0000000000E+00    1.1692765607E+00
    0.0000000000E+00    0.0000000000E+00    0.0000000000E+00    0.0000000000E+00
    0.0000000000E+00    0.0000000000E+00    0.0000000000E+00    0.0000000000E+00
    0.0000000000E+00    0.0000000000E+00    3.1184417346E+00    0.0000000000E+00
    0.0000000000E+00    0.0000000000E+00    0.0000000000E+00    0.0000000000E+00
    0.0000000000E+00    0.0000000000E+00    0.0000000000E+00    0.0000000000E+00
    0.0000000000E+00    3.1513151403E+00    0.0000000000E+00    0.0000000000E+00
    0.0000000000E+00    0.0000000000E+00    0.0000000000E+00    0.0000000000E+00
    0.0000000000E+00    0.0000000000E+00    0.0000000000E+00    0.0000000000E+00
    5.3484852945E-01    0.0000000000E+00    0.0000000000E+00    0.0000000000E+00
    0.0000000000E+00    0.0000000000E+00    0.0000000000E+00    0.0000000000E+00
    0.0000000000E+00    0.0000000000E+00    0.0000000000E+00    5.3890032927E-01
   </PP_DIJ>
 </PP_NONLOCAL>
 <PP_PSWFC>
   <PP_CHI.1
       type="real"
       size="1022"
       columns="4"
       index="1"
       occupation=" 2.000"
       pseudo_energy="   -0.1693461362E+01"
       label="4S"
       l="0" >
    9.9836805489E-14    3.5123149619E-03    7.0305692954E-03    1.0560691432E-02
    1.4108587944E-02    1.7680132664E-02    2.1281155864E-02    2.4917433519E-02
    2.8594676658E-02    3.2318520846E-02    3.6094515796E-02    3.9928115140E-02
    4.3824666373E-02    4.7789400994E-02    5.1827424849E-02    5.5943708715E-02
    6.0143079119E-02    6.4430209422E-02    6.8809611178E-02    7.3285625793E-02
    7.7862416483E-02    8.2543960560E-02    8.7334042047E-02    9.2236244647E-02
    9.7253945072E-02    1.0239030674E-01    1.0764827385E-01    1.1303056588E-01
    1.1853967242E-01    1.2417784850E-01    1.2994711028E-01    1.3584923114E-01
    1.4188573833E-01    1.4805790984E-01    1.5436677195E-01    1.6081309704E-01
    1.6739740191E-01    1.7411994659E-01    1.8098073354E-01    1.8797950730E-01
    1.9511575462E-01    2.0238870502E-01    2.0979733181E-01    2.1734035348E-01
    2.2501623564E-01    2.3282319329E-01    2.4075919357E-01    2.4882195889E-01
    2.5700897053E-01    2.6531747257E-01    2.7374447625E-01    2.8228676474E-01
    2.9094089821E-01    2.9970321934E-01    3.0856985914E-01    3.1753674311E-01
    3.2659959774E-01    3.3575395728E-01    3.4499517090E-01    3.5431841003E-01
    3.6371867602E-01    3.7319080806E-01    3.8272949133E-01    3.9232926533E-01
    4.0198453250E-01    4.1168956694E-01    4.2143852336E-01    4.3122544617E-01
    4.4104427868E-01    4.5088887246E-01    4.6075299676E-01    4.7063034806E-01
    4.8051455964E-01    4.9039921122E-01    5.0027783864E-01    5.1014394350E-01
    5.1999100289E-01    5.2981247899E-01    5.3960182871E-01    5.4935251322E-01
    5.5905800743E-01    5.6871180938E-01    5.7830744952E-01    5.8783849985E-01
    5.9729858295E-01    6.0668138081E-01    6.1598064355E-01    6.2519019793E-01
    6.3430395563E-01    6.4331592135E-01    6.5222020072E-01    6.6101100791E-01
    6.6968267301E-01    6.7822964921E-01    6.8664651961E-01    6.9492800385E-01
    7.0306896438E-01    7.1106441249E-01    7.1890951398E-01    7.2659959456E-01
    7.3413014495E-01    7.4149682559E-01    7.4869547106E-01    7.5572209422E-01
    7.6257288992E-01    7.6924423843E-01    7.7573270852E-01    7.8203506020E-01
    7.8814824711E-01    7.9406941857E-01    7.9979592131E-01    8.0532530083E-01
    8.1065530242E-01    8.1578387191E-01    8.2070915602E-01    8.2542950237E-01
    8.2994345928E-01    8.3424977511E-01    8.3834739739E-01    8.4223547164E-01
    8.4591333982E-01    8.4938053858E-01    8.5263679716E-01    8.5568203508E-01
    8.5851635953E-01    8.6114006248E-01    8.6355361763E-01    8.6575767704E-01
    8.6775306757E-01    8.6954078713E-01    8.7112200071E-01    8.7249803620E-01
    8.7367038006E-01    8.7464067282E-01    8.7541070441E-01    8.7598240936E-01
    8.7635786187E-01    8.7653927074E-01    8.7652897422E-01    8.7632943475E-01
    8.7594323363E-01    8.7537306559E-01    8.7462173333E-01    8.7369214199E-01
    8.7258729362E-01    8.7131028157E-01    8.6986428491E-01    8.6825256282E-01
    8.6647844900E-01    8.6454534611E-01    8.6245672019E-01    8.6021609519E-01
    8.5782704747E-01    8.5529320039E-01    8.5261821897E-01    8.4980580463E-01
    8.4685968995E-01    8.4378363360E-01    8.4058141530E-01    8.3725683089E-01
    8.3381368754E-01    8.3025579904E-01    8.2658698119E-01    8.2281104736E-01
    8.1893180413E-01    8.1495304708E-01    8.1087855671E-01    8.0671209447E-01
    8.0245739897E-01    7.9811818228E-01    7.9369812641E-01    7.8920087988E-01
    7.8463005451E-01    7.7998922225E-01    7.7528191225E-01    7.7051160798E-01
    7.6568174456E-01    7.6079570619E-01    7.5585682371E-01    7.5086837233E-01
    7.4583356945E-01    7.4075557265E-01    7.3563747776E-01    7.3048231711E-01
    7.2529305781E-01    7.2007260029E-01    7.1482377679E-01    7.0954935010E-01
    7.0425201228E-01    6.9893438364E-01    6.9359901162E-01    6.8824836996E-01
    6.8288485784E-01    6.7751079910E-01    6.7212844167E-01    6.6673995690E-01
    6.6134743914E-01    6.5595290524E-01    6.5055829424E-01    6.4516546705E-01
    6.3977620621E-01    6.3439221573E-01    6.2901512088E-01    6.2364646813E-01
    6.1828772511E-01    6.1294028072E-01    6.0760544529E-01    6.0228445062E-01
    5.9697845028E-01    5.9168851969E-01    5.8641565650E-01    5.8116078204E-01
    5.7592475123E-01    5.7070837429E-01    5.6551243268E-01    5.6033767425E-01
    5.5518481561E-01    5.5005454290E-01    5.4494751257E-01    5.3986435220E-01
    5.3480566132E-01    5.2977201215E-01    5.2476395035E-01    5.1978199582E-01
    5.1482664339E-01    5.0989836351E-01    5.0499760297E-01    5.0012478560E-01
    4.9528031287E-01    4.9046456458E-01    4.8567789950E-01    4.8092065595E-01
    4.7619315243E-01    4.7149568819E-01    4.6682854381E-01    4.6219198178E-01
    4.5758624699E-01    4.5301156734E-01    4.4846815419E-01    4.4395620289E-01
    4.3947589330E-01    4.3502739023E-01    4.3061084394E-01    4.2622639056E-01
    4.2187415260E-01    4.1755423932E-01    4.1326674716E-01    4.0901176022E-01
    4.0478935056E-01    4.0059957868E-01    3.9644249384E-01    3.9231813447E-01
    3.8822652851E-01    3.8416769377E-01    3.8014163826E-01    3.7614836055E-01
    3.7218785007E-01    3.6826008743E-01    3.6436504474E-01    3.6050268590E-01
    3.5667296688E-01    3.5287583604E-01    3.4911123435E-01    3.4537909570E-01
    3.4167934718E-01    3.3801190925E-01    3.3437669608E-01    3.3077361574E-01
    3.2720257044E-01    3.2366345676E-01    3.2015616588E-01    3.1668058379E-01
    3.1323659147E-01    3.0982406515E-01    3.0644287646E-01    3.0309289263E-01
    2.9977397670E-01    2.9648598768E-01    2.9322878072E-01    2.9000220730E-01
    2.8680611540E-01    2.8364034964E-01    2.8050475144E-01    2.7739915919E-01
    2.7432340838E-01    2.7127733177E-01    2.6826075950E-01    2.6527351922E-01
    2.6231543627E-01    2.5938633377E-01    2.5648603274E-01    2.5361435224E-01
    2.5077110949E-01    2.4795611996E-01    2.4516919749E-01    2.4241015444E-01
    2.3967880170E-01    2.3697494889E-01    2.3429840439E-01    2.3164897548E-01
    2.2902646840E-01    2.2643068845E-01    2.2386144007E-01    2.2131852696E-01
    2.1880175211E-01    2.1631091791E-01    2.1384582621E-01    2.1140627841E-01
    2.0899207552E-01    2.0660301824E-01    2.0423890701E-01    2.0189954211E-01
    1.9958472365E-01    1.9729425174E-01    1.9502792644E-01    1.9278554790E-01
    1.9056691634E-01    1.8837183218E-01    1.8620009605E-01    1.8405150882E-01
    1.8192587170E-01    1.7982298623E-01    1.7774265438E-01    1.7568467856E-01
    1.7364886165E-01    1.7163500707E-01    1.6964291881E-01    1.6767240145E-01
    1.6572326021E-01    1.6379530100E-01    1.6188833040E-01    1.6000215576E-01
    1.5813658519E-01    1.5629142757E-01    1.5446649264E-01    1.5266159096E-01
    1.5087653398E-01    1.4911113406E-01    1.4736520447E-01    1.4563855942E-01
    1.4393101410E-01    1.4224238469E-01    1.4057248836E-01    1.3892114331E-01
    1.3728816880E-01    1.3567338513E-01    1.3407661369E-01    1.3249767693E-01
    1.3093639843E-01    1.2939260289E-01    1.2786611613E-01    1.2635676509E-01
    1.2486437790E-01    1.2338878383E-01    1.2192981331E-01    1.2048729798E-01
    1.1906107064E-01    1.1765096530E-01    1.1625681718E-01    1.1487846268E-01
    1.1351573945E-01    1.1216848634E-01    1.1083654342E-01    1.0951975200E-01
    1.0821795461E-01    1.0693099504E-01    1.0565871828E-01    1.0440097060E-01
    1.0315759947E-01    1.0192845364E-01    1.0071338307E-01    9.9512239000E-02
    9.8324873883E-02    9.7151141429E-02    9.5990896588E-02    9.4843995552E-02
    9.3710295753E-02    9.2589655861E-02    9.1481935781E-02    9.0386996655E-02
    8.9304700851E-02    8.8234911971E-02    8.7177494837E-02    8.6132315494E-02
    8.5099241204E-02    8.4078140444E-02    8.3068882897E-02    8.2071339455E-02
    8.1085382205E-02    8.0110884433E-02    7.9147720614E-02    7.8195766405E-02
    7.7254898647E-02    7.6324995350E-02    7.5405935694E-02    7.4497600021E-02
    7.3599869827E-02    7.2712627760E-02    7.1835757608E-02    7.0969144297E-02
    7.0112673884E-02    6.9266233547E-02    6.8429711581E-02    6.7602997392E-02
    6.6785981485E-02    6.5978555462E-02    6.5180612014E-02    6.4392044910E-02
    6.3612748994E-02    6.2842620175E-02    6.2081555420E-02    6.1329452748E-02
    6.0586211219E-02    5.9851730929E-02    5.9125913004E-02    5.8408659586E-02
    5.7699873832E-02    5.6999459902E-02    5.6307322953E-02    5.5623369129E-02
    5.4947505556E-02    5.4279640334E-02    5.3619682524E-02    5.2967542148E-02
    5.2323130174E-02    5.1686358511E-02    5.1057140003E-02    5.0435388418E-02
    4.9821018439E-02    4.9213945662E-02    4.8614086580E-02    4.8021358583E-02
    4.7435679944E-02    4.6856969814E-02    4.6285148213E-02    4.5720136023E-02
    4.5161854981E-02    4.4610227668E-02    4.4065177505E-02    4.3526628741E-02
    4.2994506452E-02    4.2468736524E-02    4.1949245654E-02    4.1435961337E-02
    4.0928811860E-02    4.0427726296E-02    3.9932634493E-02    3.9443467070E-02
    3.8960155407E-02    3.8482631640E-02    3.8010828650E-02    3.7544680061E-02
    3.7084120226E-02    3.6629084227E-02    3.6179507861E-02    3.5735327639E-02
    3.5296480774E-02    3.4862905175E-02    3.4434539444E-02    3.4011322864E-02
    3.3593195393E-02    3.3180097660E-02    3.2771970956E-02    3.2368757226E-02
    3.1970399065E-02    3.1576839711E-02    3.1188023036E-02    3.0803893542E-02
    3.0424396353E-02    3.0049477209E-02    2.9679082460E-02    2.9313159059E-02
    2.8951654557E-02    2.8594517093E-02    2.8241695393E-02    2.7893138761E-02
    2.7548797072E-02    2.7208620770E-02    2.6872560856E-02    2.6540568887E-02
    2.6212596969E-02    2.5888597750E-02    2.5568524413E-02    2.5252330675E-02
    2.4939970778E-02    2.4631399482E-02    2.4326572063E-02    2.4025444305E-02
    2.3727972495E-02    2.3434113419E-02    2.3143824354E-02    2.2857063065E-02
    2.2573787799E-02    2.2293957280E-02    2.2017530703E-02    2.1744467730E-02
    2.1474728483E-02    2.1208273541E-02    2.0945063936E-02    2.0685061144E-02
    2.0428227084E-02    2.0174524112E-02    1.9923915016E-02    1.9676363010E-02
    1.9431831732E-02    1.9190285237E-02    1.8951687994E-02    1.8716004881E-02
    1.8483201180E-02    1.8253242573E-02    1.8026095138E-02    1.7801725344E-02
    1.7580100046E-02    1.7361186482E-02    1.7144952269E-02    1.6931365397E-02
    1.6720394229E-02    1.6512007489E-02    1.6306174268E-02    1.6102864011E-02
    1.5902046519E-02    1.5703691943E-02    1.5507770779E-02    1.5314253867E-02
    1.5123112382E-02    1.4934317839E-02    1.4747842078E-02    1.4563657271E-02
    1.4381735912E-02    1.4202050814E-02    1.4024575108E-02    1.3849282238E-02
    1.3676145955E-02    1.3505140318E-02    1.3336239689E-02    1.3169418727E-02
    1.3004652390E-02    1.2841915925E-02    1.2681184870E-02    1.2522435049E-02
    1.2365642569E-02    1.2210783815E-02    1.2057835449E-02    1.1906774409E-02
    1.1757577898E-02    1.1610223391E-02    1.1464688625E-02    1.1320951598E-02
    1.1178990568E-02    1.1038784045E-02    1.0900310796E-02    1.0763549833E-02
    1.0628480418E-02    1.0495082056E-02    1.0363334494E-02    1.0233217714E-02
    1.0104711939E-02    9.9777976217E-03    9.8524554460E-03    9.7286663238E-03
    9.6064113925E-03    9.4856720119E-03    9.3664297622E-03    9.2486664410E-03
    9.1323640614E-03    9.0175048492E-03    8.9040712403E-03    8.7920458788E-03
    8.6814116143E-03    8.5721514995E-03    8.4642487882E-03    8.3576869326E-03
    8.2524495814E-03    8.1485205773E-03    8.0458839549E-03    7.9445239384E-03
    7.8444249397E-03    7.7455715559E-03    7.6479485674E-03    7.5515409356E-03
    7.4563338011E-03    7.3623124815E-03    7.2694624693E-03    7.1777694299E-03
    7.0872191997E-03    6.9977977843E-03    6.9094913560E-03    6.8222862526E-03
    6.7361689747E-03    6.6511261847E-03    6.5671447041E-03    6.4842115123E-03
    6.4023137443E-03    6.3214386894E-03    6.2415737889E-03    6.1627066347E-03
    6.0848249674E-03    6.0079166746E-03    5.9319697892E-03    5.8569724878E-03
    5.7829130890E-03    5.7097800515E-03    5.6375619729E-03    5.5662475879E-03
    5.4958257664E-03    5.4262855125E-03    5.3576159625E-03    5.2898063837E-03
    5.2228461724E-03    5.1567248528E-03    5.0914320755E-03    5.0269576159E-03
    4.9632913725E-03    4.9004233661E-03    4.8383437377E-03    4.7770427476E-03
    4.7165107735E-03    4.6567383098E-03    4.5977159656E-03    4.5394344636E-03
    4.4818846390E-03    4.4250574377E-03    4.3689439154E-03    4.3135352362E-03
    4.2588226712E-03    4.2047975974E-03    4.1514514964E-03    4.0987759531E-03
    4.0467626547E-03    3.9954033892E-03    3.9446900444E-03    3.8946146067E-03
    3.8451691599E-03    3.7963458842E-03    3.7481370547E-03    3.7005350408E-03
    3.6535323044E-03    3.6071213997E-03    3.5612949711E-03    3.5160457531E-03
    3.4713665686E-03    3.4272503279E-03    3.3836900279E-03    3.3406787511E-03
    3.2982096643E-03    3.2562760178E-03    3.2148711443E-03    3.1739884582E-03
    3.1336214541E-03    3.0937637063E-03    3.0544088679E-03    3.0155506695E-03
    2.9771829183E-03    2.9392994975E-03    2.9018943654E-03    2.8649615540E-03
    2.8284951687E-03    2.7924893871E-03    2.7569384582E-03    2.7218367015E-03
    2.6871785065E-03    2.6529583314E-03    2.6191707022E-03    2.5858102127E-03
    2.5528715227E-03    2.5203493579E-03    2.4882385086E-03    2.4565338296E-03
    2.4252302386E-03    2.3943227160E-03    2.3638063042E-03    2.3336761063E-03
    2.3039272860E-03    2.2745550665E-03    2.2455547299E-03    2.2169216165E-03
    2.1886511241E-03    2.1607387071E-03    2.1331798763E-03    2.1059701977E-03
    2.0791052920E-03    2.0525808343E-03    2.0263925529E-03    2.0005362289E-03
    1.9750076956E-03    1.9498028379E-03    1.9249175915E-03    1.9003479425E-03
    1.8760899265E-03    1.8521396283E-03    1.8284931813E-03    1.8051467666E-03
    1.7820966127E-03    1.7593389948E-03    1.7368702343E-03    1.7146866983E-03
    1.6927847989E-03    1.6711609926E-03    1.6498117801E-03    1.6287337053E-03
    1.6079233552E-03    1.5873773591E-03    1.5670923882E-03    1.5470651550E-03
    1.5272924130E-03    1.5077709560E-03    1.4884976176E-03    1.4694692709E-03
    1.4506828277E-03    1.4321352385E-03    1.4138234916E-03    1.3957446128E-03
    1.3778956650E-03    1.3602737477E-03    1.3428759963E-03    1.3256995824E-03
    1.3087417123E-03    1.2919996275E-03    1.2754706038E-03    1.2591519509E-03
    1.2430410122E-03    1.2271351641E-03    1.2114318160E-03    1.1959284093E-03
    1.1806224177E-03    1.1655113462E-03    1.1505927312E-03    1.1358641395E-03
    1.1213231688E-03    1.1069674466E-03    1.0927946299E-03    1.0788024053E-03
    1.0649884881E-03    1.0513506225E-03    1.0378865806E-03    1.0245941625E-03
    1.0114711959E-03    9.9851553578E-04    9.8572506375E-04    9.7309768812E-04
    9.6063134340E-04    9.4832398996E-04    9.3617361374E-04    9.2417822596E-04
    9.1233586275E-04    9.0064458488E-04    8.8910247746E-04    8.7770764963E-04
    8.6645823424E-04    8.5535238761E-04    8.4438828917E-04    8.3356414126E-04
    8.2287816875E-04    8.1232861884E-04    8.0191376074E-04    7.9163188543E-04
    7.8148130536E-04    7.7146035418E-04    7.6156738651E-04    7.5180077767E-04
    7.4215892341E-04    7.3264023963E-04    7.2324316223E-04    7.1396614672E-04
    7.0480766811E-04    6.9576622059E-04    6.8684031729E-04    6.7802849009E-04
    6.6932928935E-04    6.6074128371E-04    6.5226305982E-04    6.4389322217E-04
    6.3563039281E-04    6.2747321118E-04    6.1942033388E-04    6.1147043443E-04
    6.0362220309E-04    5.9587434666E-04    5.8822558822E-04    5.8067466700E-04
    5.7322033812E-04    5.6586137242E-04    5.5859655625E-04    5.5142469129E-04
    5.4434459436E-04    5.3735509722E-04    5.3045504638E-04    5.2364330292E-04
    5.1691874234E-04    5.1028025432E-04    5.0372674258E-04    4.9725712472E-04
    4.9087033200E-04    4.8456530921E-04    4.7834101447E-04    4.7219641910E-04
    4.6613050741E-04    4.6014227659E-04    4.5423073650E-04    4.4839490952E-04
    4.4263383044E-04    4.3694654623E-04    4.3133211596E-04    4.2578961059E-04
    4.2031811286E-04    4.1491671712E-04    4.0958452920E-04    4.0432066627E-04
    3.9912425665E-04    3.9399443974E-04    3.8893036584E-04    3.8393119602E-04
    3.7899610198E-04    3.7412426593E-04    3.6931488045E-04    3.6456714835E-04
    3.5988028257E-04    3.5525350601E-04    3.5068605146E-04    3.4617716142E-04
    3.4172608801E-04    3.3733209286E-04    3.3299444693E-04    3.2871243048E-04
    3.2448533289E-04    3.2031245256E-04    3.1619309681E-04    3.1212658174E-04
    3.0811223215E-04    3.0414938143E-04    3.0023737141E-04    2.9637555231E-04
    2.9256328259E-04    2.8879992887E-04    2.8508486583E-04    2.8141747608E-04
    2.7779715010E-04    2.7422328610E-04    2.7069528996E-04    2.6721257511E-04
    2.6377456243E-04    2.6038068019E-04    2.5703036391E-04    2.5372305630E-04
    2.5045820718E-04    2.4723527333E-04    2.4405371849E-04    2.4091301319E-04
    2.3781263473E-04    2.3475206703E-04    2.3173080061E-04    2.2874833247E-04
    2.2580416601E-04    2.2289781095E-04    2.2002878327E-04    2.1719660511E-04
    2.1440080469E-04    2.1164091625E-04    2.0891647997E-04    2.0622704186E-04
    2.0357215376E-04    2.0095137319E-04    1.9836426331E-04    1.9581039287E-04
    1.9328933611E-04    1.9080067268E-04    1.8834398762E-04    1.8591887124E-04
    1.8352491909E-04    1.8116173186E-04    1.7882891534E-04    1.7652608037E-04
    1.7425284273E-04    1.7200882311E-04    1.6979364705E-04    1.6760694484E-04
    1.6544835153E-04    1.6331750679E-04    1.6121405491E-04    1.5913764472E-04
    1.5708792953E-04    1.5506456707E-04    1.5306721945E-04    1.5109555310E-04
    1.4914923868E-04    1.4722795110E-04    1.4533136939E-04    1.4345917669E-04
    1.4161106018E-04    1.3978671106E-04    1.3798582445E-04    1.3620809938E-04
    1.3445323872E-04    1.3272094913E-04    1.3101094104E-04    1.2932292857E-04
    1.2765662948E-04    1.2601176516E-04    1.2438806055E-04    1.2278524411E-04
    1.2120304778E-04    1.1964120691E-04    1.1809946024E-04    1.1657754987E-04
    1.1507522117E-04    1.1359222278E-04    1.1212830657E-04    1.1068322756E-04
    1.0925674391E-04    1.0784861688E-04    1.0645861079E-04    1.0508649296E-04
    1.0373203370E-04    1.0239500626E-04    1.0107518678E-04    9.9772354280E-05
    9.8486290595E-05    9.7216780360E-05    9.5963610969E-05    9.4726572533E-05
    9.3505457852E-05    9.2300062381E-05    9.1110184192E-05    8.9935623943E-05
    8.8776184844E-05    8.7631672629E-05    8.6501895515E-05    8.5386664181E-05
    8.4285791726E-05    8.3199093646E-05    8.2126387802E-05    8.1067494385E-05
    8.0022235892E-05    7.8990437094E-05    7.7971925007E-05    7.6966528866E-05
    7.5974080090E-05    7.4994412263E-05    7.4027361100E-05    7.3072764421E-05
    7.2130462126E-05    7.1200296167E-05    7.0282110522E-05    6.9375751171E-05
    6.8481066065E-05    6.7597905108E-05    6.6726120126E-05    6.5865564848E-05
    6.5016094876E-05    6.4177567666E-05    6.3349842500E-05    6.2532780467E-05
    6.1726244435E-05    6.0930099034E-05    6.0144210629E-05    5.9368447299E-05
    5.8602678816E-05    5.7846776622E-05    5.7100613811E-05    5.6364065102E-05
    5.5637006824E-05    5.4919316890E-05    5.4210874784E-05    5.3511561532E-05
    5.2821259691E-05    5.2139853323E-05    5.1467227978E-05    5.0803270676E-05
    5.0147869887E-05    4.9500915513E-05    4.8862298868E-05    4.8231912663E-05
    4.7609650986E-05    4.6995409284E-05    4.6389084347E-05    4.5790574291E-05
    4.5199778539E-05    4.4616597806E-05    4.4040934083E-05    4.3472690618E-05
    4.2911771902E-05    4.2358083654E-05    4.1811532803E-05    4.1272027473E-05
    4.0739476969E-05    4.0213791762E-05    3.9694883470E-05    3.9182664849E-05
    3.8677049775E-05    3.8177953231E-05    3.7685291293E-05    3.7198981112E-05
    3.6718940908E-05    3.6245089949E-05    3.5777348541E-05    3.5315638015E-05
    3.4859880711E-05    3.4409999970E-05    3.3965920116E-05    3.3527566447E-05
    3.3094865219E-05    3.2667743638E-05    3.2246129846E-05    3.1829952907E-05
    3.1419142798E-05    3.1013630396E-05    3.0613347466E-05    3.0218226652E-05
    2.9828201461E-05    2.9443206258E-05    2.9063176251E-05    2.8688047480E-05
    2.8317756808E-05    2.7952241911E-05    2.7591441266E-05    2.7235294139E-05
    2.6883740581E-05    2.6536721411E-05    2.6194178210E-05    2.5856053310E-05
    2.5522289786E-05    2.5192831443E-05
   </PP_CHI.1>
   <PP_CHI.2
       type="real"
       size="1022"
       columns="4"
       index="2"
       occupation=" 4.000"
       pseudo_energy="   -0.6645195167E+00"
       label="4P"
       l="1" >
   -2.2695825254E-12    4.3220531941E-05    1.7295262751E-04    3.8940747669E-04
    6.9293603394E-04    1.0840274794E-03    1.5633070724E-03    2.1315334066E-03
    2.7895950755E-03    3.5385067630E-03    4.3794047725E-03    5.3135420120E-03
    6.3422824546E-03    7.4670950949E-03    8.6895474239E-03    1.0011298448E-02
    1.1434091276E-02    1.2959745307E-02    1.4590148040E-02    1.6327246541E-02
    1.8173038606E-02    2.0129563629E-02    2.2198893242E-02    2.4383121727E-02
    2.6684356261E-02    2.9104707016E-02    3.1646277145E-02    3.4311152705E-02
    3.7101392542E-02    4.0019018165E-02    4.3066003667E-02    4.6244265702E-02
    4.9555653571E-02    5.3001939443E-02    5.6584808733E-02    6.0305850693E-02
    6.4166549223E-02    6.8168273941E-02    7.2312271546E-02    7.6599657480E-02
    8.1031407950E-02    8.5608352289E-02    9.0331165723E-02    9.5200362529E-02
    1.0021628963E-01    1.0537912060E-01    1.1068885022E-01    1.1614528936E-01
    1.2174806048E-01    1.2749659356E-01    1.3339012257E-01    1.3942768240E-01
    1.4560810637E-01    1.5193002425E-01    1.5839186074E-01    1.6499183458E-01
    1.7172795812E-01    1.7859803743E-01    1.8559967293E-01    1.9273026051E-01
    1.9998699323E-01    2.0736686345E-01    2.1486666546E-01    2.2248299866E-01
    2.3021227109E-01    2.3805070359E-01    2.4599433420E-01    2.5403902319E-01
    2.6218045835E-01    2.7041416081E-01    2.7873549112E-01    2.8713965585E-01
    2.9562171436E-01    3.0417658605E-01    3.1279905789E-01    3.2148379219E-01
    3.3022533469E-01    3.3901812292E-01    3.4785649475E-01    3.5673469723E-01
    3.6564689549E-01    3.7458718202E-01    3.8354958588E-01    3.9252808222E-01
    4.0151660180E-01    4.1050904067E-01    4.1949926989E-01    4.2848114530E-01
    4.3744851730E-01    4.4639524071E-01    4.5531518451E-01    4.6420224165E-01
    4.7305033871E-01    4.8185344558E-01    4.9060558495E-01    4.9930084176E-01
    5.0793337249E-01    5.1649741427E-01    5.2498729382E-01    5.3339743628E-01
    5.4172237368E-01    5.4995675330E-01    5.5809534572E-01    5.6613305266E-01
    5.7406491445E-01    5.8188611728E-01    5.8959200006E-01    5.9717806105E-01
    6.0463996403E-01    6.1197354418E-01    6.1917481354E-01    6.2623996613E-01
    6.3316538262E-01    6.3994763462E-01    6.4658348854E-01    6.5306990898E-01
    6.5940406175E-01    6.6558331640E-01    6.7160524827E-01    6.7746764011E-01
    6.8316848328E-01    6.8870597836E-01    6.9407853542E-01    6.9928477374E-01
    7.0432352110E-01    7.0919381257E-01    7.1389488886E-01    7.1842619421E-01
    7.2278737384E-01    7.2697827091E-01    7.3099892310E-01    7.3484955872E-01
    7.3853059245E-01    7.4204262064E-01    7.4538641626E-01    7.4856292347E-01
    7.5157325182E-01    7.5441867016E-01    7.5710060021E-01    7.5962060980E-01
    7.6198040597E-01    7.6418182767E-01    7.6622683833E-01    7.6811751823E-01
    7.6985605669E-01    7.7144474406E-01    7.7288596372E-01    7.7418218388E-01
    7.7533594935E-01    7.7634987331E-01    7.7722662906E-01    7.7796894175E-01
    7.7857958027E-01    7.7906134909E-01    7.7941708036E-01    7.7964962598E-01
    7.7976185001E-01    7.7975662115E-01    7.7963680546E-01    7.7940525940E-01
    7.7906482305E-01    7.7861831364E-01    7.7806851946E-01    7.7741819399E-01
    7.7667005052E-01    7.7582675706E-01    7.7489093162E-01    7.7386513785E-01
    7.7275188110E-01    7.7155360501E-01    7.7027268842E-01    7.6891144293E-01
    7.6747211517E-01    7.6595690027E-01    7.6436795644E-01    7.6270740467E-01
    7.6097732516E-01    7.5917976028E-01    7.5731671404E-01    7.5539015256E-01
    7.5340200443E-01    7.5135416105E-01    7.4924847704E-01    7.4708677057E-01
    7.4487082386E-01    7.4260238348E-01    7.4028316087E-01    7.3791483273E-01
    7.3549904146E-01    7.3303739563E-01    7.3053147043E-01    7.2798280809E-01
    7.2539291841E-01    7.2276327920E-01    7.2009533673E-01    7.1739050623E-01
    7.1465017236E-01    7.1187568968E-01    7.0906838313E-01    7.0622954853E-01
    7.0336045300E-01    7.0046233549E-01    6.9753640723E-01    6.9458385220E-01
    6.9160582759E-01    6.8860346432E-01    6.8557786742E-01    6.8253011654E-01
    6.7946126643E-01    6.7637234731E-01    6.7326436543E-01    6.7013830339E-01
    6.6699512070E-01    6.6383575412E-01    6.6066111814E-01    6.5747210540E-01
    6.5426958708E-01    6.5105441335E-01    6.4782741377E-01    6.4458939768E-01
    6.4134115459E-01    6.3808345461E-01    6.3481704881E-01    6.3154266959E-01
    6.2826103107E-01    6.2497282947E-01    6.2167874344E-01    6.1837943445E-01
    6.1507554713E-01    6.1176770959E-01    6.0845653381E-01    6.0514261593E-01
    6.0182653659E-01    5.9850886127E-01    5.9519014057E-01    5.9187091057E-01
    5.8855169307E-01    5.8523299596E-01    5.8191531346E-01    5.7859912643E-01
    5.7528490266E-01    5.7197309711E-01    5.6866415223E-01    5.6535849822E-01
    5.6205655324E-01    5.5875872372E-01    5.5546540461E-01    5.5217697958E-01
    5.4889382131E-01    5.4561629171E-01    5.4234474214E-01    5.3907951365E-01
    5.3582093719E-01    5.3256933386E-01    5.2932501507E-01    5.2608828281E-01
    5.2285942979E-01    5.1963873969E-01    5.1642648735E-01    5.1322293895E-01
    5.1002835218E-01    5.0684297647E-01    5.0366705312E-01    5.0050081554E-01
    4.9734448936E-01    4.9419829262E-01    4.9106243596E-01    4.8793712276E-01
    4.8482254930E-01    4.8171890492E-01    4.7862637217E-01    4.7554512698E-01
    4.7247533878E-01    4.6941717063E-01    4.6637077943E-01    4.6333631597E-01
    4.6031392513E-01    4.5730374598E-01    4.5430591193E-01    4.5132055083E-01
    4.4834778513E-01    4.4538773196E-01    4.4244050330E-01    4.3950620604E-01
    4.3658494215E-01    4.3367680876E-01    4.3078189826E-01    4.2790029846E-01
    4.2503209264E-01    4.2217735968E-01    4.1933617416E-01    4.1650860646E-01
    4.1369472286E-01    4.1089458563E-01    4.0810825313E-01    4.0533577989E-01
    4.0257721674E-01    3.9983261084E-01    3.9710200581E-01    3.9438544183E-01
    3.9168295565E-01    3.8899458076E-01    3.8632034743E-01    3.8366028277E-01
    3.8101441085E-01    3.7838275276E-01    3.7576532666E-01    3.7316214791E-01
    3.7057322908E-01    3.6799858006E-01    3.6543820814E-01    3.6289211802E-01
    3.6036031195E-01    3.5784278975E-01    3.5533954888E-01    3.5285058452E-01
    3.5037588963E-01    3.4791545498E-01    3.4546926925E-01    3.4303731908E-01
    3.4061958910E-01    3.3821606204E-01    3.3582671871E-01    3.3345153814E-01
    3.3109049757E-01    3.2874357251E-01    3.2641073684E-01    3.2409196280E-01
    3.2178722108E-01    3.1949648083E-01    3.1721970977E-01    3.1495687416E-01
    3.1270793891E-01    3.1047286758E-01    3.0825162247E-01    3.0604416459E-01
    3.0385045380E-01    3.0167044876E-01    2.9950410703E-01    2.9735138508E-01
    2.9521223833E-01    2.9308662122E-01    2.9097448720E-01    2.8887578880E-01
    2.8679047765E-01    2.8471850452E-01    2.8265981936E-01    2.8061437131E-01
    2.7858210878E-01    2.7656297941E-01    2.7455693018E-01    2.7256390737E-01
    2.7058385666E-01    2.6861672308E-01    2.6666245112E-01    2.6472098467E-01
    2.6279226714E-01    2.6087624142E-01    2.5897284993E-01    2.5708203463E-01
    2.5520373707E-01    2.5333789840E-01    2.5148445939E-01    2.4964336045E-01
    2.4781454166E-01    2.4599794280E-01    2.4419350335E-01    2.4240116252E-01
    2.4062085929E-01    2.3885253239E-01    2.3709612034E-01    2.3535156148E-01
    2.3361879397E-01    2.3189775580E-01    2.3018838486E-01    2.2849061886E-01
    2.2680439545E-01    2.2512965216E-01    2.2346632646E-01    2.2181435575E-01
    2.2017367738E-01    2.1854422866E-01    2.1692594689E-01    2.1531876937E-01
    2.1372263338E-01    2.1213747623E-01    2.1056323526E-01    2.0899984784E-01
    2.0744725141E-01    2.0590538345E-01    2.0437418153E-01    2.0285358328E-01
    2.0134352644E-01    1.9984394885E-01    1.9835478844E-01    1.9687598327E-01
    1.9540747155E-01    1.9394919158E-01    1.9250108183E-01    1.9106308093E-01
    1.8963512763E-01    1.8821716088E-01    1.8680911978E-01    1.8541094361E-01
    1.8402257185E-01    1.8264394413E-01    1.8127500032E-01    1.7991568047E-01
    1.7856592481E-01    1.7722567383E-01    1.7589486820E-01    1.7457344881E-01
    1.7326135679E-01    1.7195853349E-01    1.7066492048E-01    1.6938045959E-01
    1.6810509285E-01    1.6683876259E-01    1.6558141132E-01    1.6433298184E-01
    1.6309341719E-01    1.6186266067E-01    1.6064065583E-01    1.5942734646E-01
    1.5822267665E-01    1.5702659072E-01    1.5583903326E-01    1.5465994915E-01
    1.5348928351E-01    1.5232698174E-01    1.5117298950E-01    1.5002725276E-01
    1.4888971771E-01    1.4776033085E-01    1.4663903895E-01    1.4552578904E-01
    1.4442052845E-01    1.4332320478E-01    1.4223376589E-01    1.4115215995E-01
    1.4007833538E-01    1.3901224089E-01    1.3795382548E-01    1.3690303842E-01
    1.3585982925E-01    1.3482414780E-01    1.3379594419E-01    1.3277516881E-01
    1.3176177231E-01    1.3075570565E-01    1.2975692005E-01    1.2876536702E-01
    1.2778099833E-01    1.2680376604E-01    1.2583362250E-01    1.2487052030E-01
    1.2391441234E-01    1.2296525177E-01    1.2202299203E-01    1.2108758683E-01
    1.2015899015E-01    1.1923715624E-01    1.1832203962E-01    1.1741359509E-01
    1.1651177771E-01    1.1561654280E-01    1.1472784597E-01    1.1384564307E-01
    1.1296989023E-01    1.1210054385E-01    1.1123756057E-01    1.1038089732E-01
    1.0953051126E-01    1.0868635984E-01    1.0784840075E-01    1.0701659194E-01
    1.0619089161E-01    1.0537125823E-01    1.0455765051E-01    1.0375002742E-01
    1.0294834818E-01    1.0215257225E-01    1.0136265936E-01    1.0057856946E-01
    9.9800262772E-02    9.9027699745E-02    9.8260841081E-02    9.7499647719E-02
    9.6744080842E-02    9.5994101872E-02    9.5249672470E-02    9.4510754533E-02
    9.3777310195E-02    9.3049301825E-02    9.2326692023E-02    9.1609443626E-02
    9.0897519696E-02    9.0190883528E-02    8.9489498645E-02    8.8793328797E-02
    8.8102337958E-02    8.7416490330E-02    8.6735750334E-02    8.6060082616E-02
    8.5389452042E-02    8.4723823697E-02    8.4063162885E-02    8.3407435126E-02
    8.2756606156E-02    8.2110641926E-02    8.1469508599E-02    8.0833172553E-02
    8.0201600374E-02    7.9574758858E-02    7.8952615011E-02    7.8335136045E-02
    7.7722289377E-02    7.7114042633E-02    7.6510363637E-02    7.5911220420E-02
    7.5316581213E-02    7.4726414446E-02    7.4140688751E-02    7.3559372954E-02
    7.2982436080E-02    7.2409847350E-02    7.1841576180E-02    7.1277592177E-02
    7.0717865142E-02    7.0162365068E-02    6.9611062136E-02    6.9063926717E-02
    6.8520929370E-02    6.7982040842E-02    6.7447232064E-02    6.6916474153E-02
    6.6389738409E-02    6.5866996314E-02    6.5348219533E-02    6.4833379912E-02
    6.4322449475E-02    6.3815400425E-02    6.3312205143E-02    6.2812836185E-02
    6.2317266286E-02    6.1825468352E-02    6.1337415463E-02    6.0853080875E-02
    6.0372438010E-02    5.9895460466E-02    5.9422122007E-02    5.8952396567E-02
    5.8486258249E-02    5.8023681320E-02    5.7564640216E-02    5.7109109536E-02
    5.6657064043E-02    5.6208478664E-02    5.5763328488E-02    5.5321588765E-02
    5.4883234905E-02    5.4448242479E-02    5.4016587214E-02    5.3588244998E-02
    5.3163191873E-02    5.2741404039E-02    5.2322857850E-02    5.1907529813E-02
    5.1495396592E-02    5.1086435000E-02    5.0680622003E-02    5.0277934717E-02
    4.9878350410E-02    4.9481846498E-02    4.9088400544E-02    4.8697990260E-02
    4.8310593505E-02    4.7926188282E-02    4.7544752740E-02    4.7166265174E-02
    4.6790704018E-02    4.6418047854E-02    4.6048275402E-02    4.5681365523E-02
    4.5317297221E-02    4.4956049637E-02    4.4597602052E-02    4.4241933883E-02
    4.3889024687E-02    4.3538854155E-02    4.3191402113E-02    4.2846648526E-02
    4.2504573487E-02    4.2165157228E-02    4.1828380109E-02    4.1494222625E-02
    4.1162665400E-02    4.0833689191E-02    4.0507274880E-02    4.0183403482E-02
    3.9862056139E-02    3.9543214119E-02    3.9226858819E-02    3.8912971760E-02
    3.8601534588E-02    3.8292529075E-02    3.7985937117E-02    3.7681740731E-02
    3.7379922059E-02    3.7080463362E-02    3.6783347024E-02    3.6488555549E-02
    3.6196071559E-02    3.5905877797E-02    3.5617957123E-02    3.5332292515E-02
    3.5048867068E-02    3.4767663993E-02    3.4488666616E-02    3.4211858379E-02
    3.3937222836E-02    3.3664743658E-02    3.3394404626E-02    3.3126189633E-02
    3.2860082686E-02    3.2596067900E-02    3.2334129503E-02    3.2074251831E-02
    3.1816419328E-02    3.1560616549E-02    3.1306828154E-02    3.1055038911E-02
    3.0805233696E-02    3.0557397487E-02    3.0311515370E-02    3.0067572536E-02
    2.9825554277E-02    2.9585445991E-02    2.9347233177E-02    2.9110901437E-02
    2.8876436473E-02    2.8643824089E-02    2.8413050189E-02    2.8184100777E-02
    2.7956961954E-02    2.7731619922E-02    2.7508060978E-02    2.7286271520E-02
    2.7066238038E-02    2.6847947120E-02    2.6631385452E-02    2.6416539810E-02
    2.6203397068E-02    2.5991944191E-02    2.5782168240E-02    2.5574056366E-02
    2.5367595812E-02    2.5162773914E-02    2.4959578097E-02    2.4757995879E-02
    2.4558014863E-02    2.4359622746E-02    2.4162807311E-02    2.3967556428E-02
    2.3773858057E-02    2.3581700244E-02    2.3391071120E-02    2.3201958903E-02
    2.3014351896E-02    2.2828238487E-02    2.2643607148E-02    2.2460446435E-02
    2.2278744985E-02    2.2098491520E-02    2.1919674843E-02    2.1742283840E-02
    2.1566307475E-02    2.1391734795E-02    2.1218554926E-02    2.1046757074E-02
    2.0876330523E-02    2.0707264636E-02    2.0539548854E-02    2.0373172696E-02
    2.0208125755E-02    2.0044397705E-02    1.9881978291E-02    1.9720857338E-02
    1.9561024743E-02    1.9402470477E-02    1.9245184588E-02    1.9089157195E-02
    1.8934378489E-02    1.8780838736E-02    1.8628528274E-02    1.8477437510E-02
    1.8327556924E-02    1.8178877067E-02    1.8031388557E-02    1.7885082087E-02
    1.7739948413E-02    1.7595978364E-02    1.7453162837E-02    1.7311492794E-02
    1.7170959268E-02    1.7031553355E-02    1.6893266221E-02    1.6756089097E-02
    1.6620013277E-02    1.6485030123E-02    1.6351131061E-02    1.6218307581E-02
    1.6086551237E-02    1.5955853646E-02    1.5826206488E-02    1.5697601505E-02
    1.5570030502E-02    1.5443485345E-02    1.5317957963E-02    1.5193440342E-02
    1.5069924532E-02    1.4947402642E-02    1.4825866839E-02    1.4705309351E-02
    1.4585722464E-02    1.4467098522E-02    1.4349429928E-02    1.4232709141E-02
    1.4116928678E-02    1.4002081114E-02    1.3888159078E-02    1.3775155255E-02
    1.3663062388E-02    1.3551873273E-02    1.3441580762E-02    1.3332177760E-02
    1.3223657228E-02    1.3116012178E-02    1.3009235677E-02    1.2903320845E-02
    1.2798260854E-02    1.2694048929E-02    1.2590678344E-02    1.2488142429E-02
    1.2386434560E-02    1.2285548167E-02    1.2185476730E-02    1.2086213778E-02
    1.1987752890E-02    1.1890087694E-02    1.1793211866E-02    1.1697119134E-02
    1.1601803271E-02    1.1507258098E-02    1.1413477484E-02    1.1320455347E-02
    1.1228185649E-02    1.1136662400E-02    1.1045879656E-02    1.0955831519E-02
    1.0866512135E-02    1.0777915698E-02    1.0690036444E-02    1.0602868656E-02
    1.0516406659E-02    1.0430644823E-02    1.0345577562E-02    1.0261199332E-02
    1.0177504632E-02    1.0094488006E-02    1.0012144037E-02    9.9304673520E-03
    9.8494526192E-03    9.7690945482E-03    9.6893878896E-03    9.6103274350E-03
    9.5319080162E-03    9.4541245054E-03    9.3769718146E-03    9.3004448954E-03
    9.2245387389E-03    9.1492483749E-03    9.0745688722E-03    9.0004953379E-03
    8.9270229173E-03    8.8541467936E-03    8.7818621877E-03    8.7101643577E-03
    8.6390485987E-03    8.5685102426E-03    8.4985446580E-03    8.4291472496E-03
    8.3603134579E-03    8.2920387594E-03    8.2243186658E-03    8.1571487240E-03
    8.0905245159E-03    8.0244416580E-03    7.9588958011E-03    7.8938826303E-03
    7.8293978644E-03    7.7654372560E-03    7.7019965908E-03    7.6390716879E-03
    7.5766583992E-03    7.5147526090E-03    7.4533502343E-03    7.3924472240E-03
    7.3320395591E-03    7.2721232520E-03    7.2126943467E-03    7.1537489184E-03
    7.0952830732E-03    7.0372929477E-03    6.9797747093E-03    6.9227245555E-03
    6.8661387139E-03    6.8100134417E-03    6.7543450258E-03    6.6991297824E-03
    6.6443640570E-03    6.5900442238E-03    6.5361666857E-03    6.4827278741E-03
    6.4297242486E-03    6.3771522969E-03    6.3250085345E-03    6.2732895045E-03
    6.2219917773E-03    6.1711119507E-03    6.1206466494E-03    6.0705925246E-03
    6.0209462545E-03    5.9717045433E-03    5.9228641216E-03    5.8744217460E-03
    5.8263741986E-03    5.7787182872E-03    5.7314508451E-03    5.6845687306E-03
    5.6380688271E-03    5.5919480426E-03    5.5462033100E-03    5.5008315865E-03
    5.4558298532E-03    5.4111951158E-03    5.3669244035E-03    5.3230147691E-03
    5.2794632892E-03    5.2362670634E-03    5.1934232146E-03    5.1509288885E-03
    5.1087812539E-03    5.0669775018E-03    5.0255148458E-03    4.9843905217E-03
    4.9436017875E-03    4.9031459229E-03    4.8630202294E-03    4.8232220303E-03
    4.7837486699E-03    4.7445975139E-03    4.7057659493E-03    4.6672513836E-03
    4.6290512454E-03    4.5911629835E-03    4.5535840675E-03    4.5163119870E-03
    4.4793442519E-03    4.4426783918E-03    4.4063119563E-03    4.3702425146E-03
    4.3344676552E-03    4.2989849863E-03    4.2637921348E-03    4.2288867471E-03
    4.1942664881E-03    4.1599290418E-03    4.1258721103E-03    4.0920934147E-03
    4.0585906940E-03    4.0253617055E-03    3.9924042245E-03    3.9597160441E-03
    3.9272949753E-03    3.8951388465E-03    3.8632455037E-03    3.8316128101E-03
    3.8002386462E-03    3.7691209094E-03    3.7382575141E-03    3.7076463915E-03
    3.6772854895E-03    3.6471727723E-03    3.6173062207E-03    3.5876838317E-03
    3.5583036183E-03    3.5291636097E-03    3.5002618509E-03    3.4715964026E-03
    3.4431653411E-03    3.4149667584E-03    3.3869987616E-03    3.3592594734E-03
    3.3317470313E-03    3.3044595879E-03    3.2773953110E-03    3.2505523827E-03
    3.2239290002E-03    3.1975233750E-03    3.1713337331E-03    3.1453583149E-03
    3.1195953747E-03    3.0940431814E-03    3.0687000174E-03    3.0435641793E-03
    3.0186339773E-03    2.9939077353E-03    2.9693837908E-03    2.9450604946E-03
    2.9209362109E-03    2.8970093171E-03    2.8732782039E-03    2.8497412748E-03
    2.8263969462E-03    2.8032436475E-03    2.7802798206E-03    2.7575039202E-03
    2.7349144134E-03    2.7125097797E-03    2.6902885109E-03    2.6682491111E-03
    2.6463900963E-03    2.6247099949E-03    2.6032073468E-03    2.5818807040E-03
    2.5607286301E-03    2.5397497004E-03    2.5189425018E-03    2.4983056324E-03
    2.4778377021E-03    2.4575373315E-03    2.4374031530E-03    2.4174338095E-03
    2.3976279554E-03    2.3779842558E-03    2.3585013865E-03    2.3391780342E-03
    2.3200128963E-03    2.3010046806E-03    2.2821521056E-03    2.2634539000E-03
    2.2449088029E-03    2.2265155636E-03    2.2082729417E-03    2.1901797067E-03
    2.1722346382E-03    2.1544365256E-03    2.1367841682E-03    2.1192763750E-03
    2.1019119649E-03    2.0846897661E-03    2.0676086165E-03    2.0506673633E-03
    2.0338648632E-03    2.0171999821E-03    2.0006715953E-03    1.9842785870E-03
    1.9680198506E-03    1.9518942886E-03    1.9359008121E-03    1.9200383414E-03
    1.9043058054E-03    1.8887021417E-03    1.8732262967E-03    1.8578772252E-03
    1.8426538907E-03    1.8275552648E-03    1.8125803278E-03    1.7977280682E-03
    1.7829974827E-03    1.7683875761E-03    1.7538973614E-03    1.7395258597E-03
    1.7252720998E-03    1.7111351188E-03    1.6971139614E-03    1.6832076800E-03
    1.6694153348E-03    1.6557359939E-03    1.6421687326E-03    1.6287126340E-03
    1.6153667885E-03    1.6021302941E-03    1.5890022560E-03    1.5759817867E-03
    1.5630680059E-03    1.5502600407E-03    1.5375570251E-03    1.5249581003E-03
    1.5124624142E-03    1.5000691221E-03    1.4877773858E-03    1.4755863741E-03
    1.4634952627E-03    1.4515032338E-03    1.4396094763E-03    1.4278131859E-03
    1.4161135646E-03    1.4045098212E-03    1.3930011707E-03    1.3815868346E-03
    1.3702660408E-03    1.3590380234E-03    1.3479020229E-03    1.3368572859E-03
    1.3259030651E-03    1.3150386193E-03    1.3042632136E-03    1.2935761187E-03
    1.2829766115E-03    1.2724639748E-03
   </PP_CHI.2>
   <PP_CHI.3
       type="real"
       size="1022"
       columns="4"
       index="3"
       occupation=" 2.000"
       pseudo_energy="   -0.7112796702E+00"
       label="4P"
       l="1" >
   -2.3909828110E-12    4.8553616862E-05    1.9428167004E-04    4.3738545140E-04
    7.7819939679E-04    1.2171895145E-03    1.7549511943E-03    2.3922064042E-03
    3.1298002888E-03    3.9686971791E-03    4.9099760324E-03    5.9548253190E-03
    7.1045373754E-03    8.3605022471E-03    9.7242010439E-03    1.1197198834E-02
    1.2781137107E-02    1.4477725826E-02    1.6288735113E-02    1.8215986590E-02
    2.0261344408E-02    2.2426706001E-02    2.4713992607E-02    2.7125139573E-02
    2.9662086500E-02    3.2326767252E-02    3.5121099871E-02    3.8046976430E-02
    4.1106252866E-02    4.4300738833E-02    4.7632187591E-02    5.1102285998E-02
    5.4712644612E-02    5.8464787950E-02    6.2360144939E-02    6.6400039583E-02
    7.0585681885E-02    7.4918159050E-02    7.9398426996E-02    8.4027302203E-02
    8.8805453930E-02    9.3733396804E-02    9.8811483839E-02    1.0403989987E-01
    1.0941865542E-01    1.1494758108E-01    1.2062632235E-01    1.2645433490E-01
    1.3243088048E-01    1.3855502325E-01    1.4482562660E-01    1.5124135065E-01
    1.5780065010E-01    1.6450177277E-01    1.7134275859E-01    1.7832143917E-01
    1.8543543788E-01    1.9268217051E-01    2.0005884638E-01    2.0756247006E-01
    2.1518984355E-01    2.2293756896E-01    2.3080205173E-01    2.3877950428E-01
    2.4686595019E-01    2.5505722875E-01    2.6334900007E-01    2.7173675049E-01
    2.8021579851E-01    2.8878130103E-01    2.9742826005E-01    3.0615152962E-01
    3.1494582326E-01    3.2380572157E-01    3.3272568024E-01    3.4170003831E-01
    3.5072302664E-01    3.5978877674E-01    3.6889132966E-01    3.7802464525E-01
    3.8718261145E-01    3.9635905383E-01    4.0554774525E-01    4.1474241559E-01
    4.2393676164E-01    4.3312445701E-01    4.4229916212E-01    4.5145453422E-01
    4.6058423741E-01    4.6968195263E-01    4.7874138770E-01    4.8775628719E-01
    4.9672044231E-01    5.0562770068E-01    5.1447197596E-01    5.2324725739E-01
    5.3194761916E-01    5.4056722959E-01    5.4910036015E-01    5.5754139426E-01
    5.6588483583E-01    5.7412531764E-01    5.8225760933E-01    5.9027662519E-01
    5.9817743170E-01    6.0595525457E-01    6.1360548568E-01    6.2112368949E-01
    6.2850560916E-01    6.3574717231E-01    6.4284449633E-01    6.4979389336E-01
    6.5659187475E-01    6.6323515522E-01    6.6972065645E-01    6.7604551031E-01
    6.8220706159E-01    6.8820287029E-01    6.9403071338E-01    6.9968858618E-01
    7.0517470316E-01    7.1048749828E-01    7.1562562488E-01    7.2058795505E-01
    7.2537357849E-01    7.2998180094E-01    7.3441214207E-01    7.3866433291E-01
    7.4273831285E-01    7.4663422613E-01    7.5035241786E-01    7.5389342966E-01
    7.5725799483E-01    7.6044703310E-01    7.6346164500E-01    7.6630310583E-01
    7.6897285927E-01    7.7147251066E-01    7.7380381994E-01    7.7596869427E-01
    7.7796918041E-01    7.7980745683E-01    7.8148582558E-01    7.8300670399E-01
    7.8437261615E-01    7.8558618430E-01    7.8665012006E-01    7.8756721559E-01
    7.8834033469E-01    7.8897240392E-01    7.8946640363E-01    7.8982535910E-01
    7.9005233174E-01    7.9015041036E-01    7.9012270261E-01    7.8997232649E-01
    7.8970240217E-01    7.8931604395E-01    7.8881635244E-01    7.8820640709E-01
    7.8748925897E-01    7.8666792385E-01    7.8574537566E-01    7.8472454033E-01
    7.8360828997E-01    7.8239943753E-01    7.8110073180E-01    7.7971485276E-01
    7.7824440760E-01    7.7669192702E-01    7.7505986213E-01    7.7335058197E-01
    7.7156637944E-01    7.6970949088E-01    7.6778211071E-01    7.6578639100E-01
    7.6372444252E-01    7.6159833488E-01    7.5941009719E-01    7.5716171838E-01
    7.5485514768E-01    7.5249229502E-01    7.5007503147E-01    7.4760518975E-01
    7.4508456468E-01    7.4251491365E-01    7.3989795712E-01    7.3723537913E-01
    7.3452882780E-01    7.3177991583E-01    7.2899022103E-01    7.2616128682E-01
    7.2329462275E-01    7.2039170507E-01    7.1745397717E-01    7.1448285019E-01
    7.1147970349E-01    7.0844588520E-01    7.0538271272E-01    7.0229147330E-01
    6.9917342446E-01    6.9602979461E-01    6.9286178351E-01    6.8967056278E-01
    6.8645727644E-01    6.8322304138E-01    6.7996894789E-01    6.7669606013E-01
    6.7340541662E-01    6.7009803076E-01    6.6677489126E-01    6.6343696268E-01
    6.6008518582E-01    6.5672047824E-01    6.5334373472E-01    6.4995582768E-01
    6.4655760762E-01    6.4314990362E-01    6.3973352370E-01    6.3630925529E-01
    6.3287786565E-01    6.2944010227E-01    6.2599669326E-01    6.2254834780E-01
    6.1909575650E-01    6.1563959179E-01    6.1218050830E-01    6.0871914326E-01
    6.0525611683E-01    6.0179203249E-01    5.9832747739E-01    5.9486302270E-01
    5.9139922392E-01    5.8793662129E-01    5.8447574003E-01    5.8101709075E-01
    5.7756116968E-01    5.7410845908E-01    5.7065942744E-01    5.6721452988E-01
    5.6377420837E-01    5.6033889205E-01    5.5690899751E-01    5.5348492905E-01
    5.5006707898E-01    5.4665582787E-01    5.4325154479E-01    5.3985458760E-01
    5.3646530318E-01    5.3308402767E-01    5.2971108673E-01    5.2634679575E-01
    5.2299146009E-01    5.1964537530E-01    5.1630882736E-01    5.1298209287E-01
    5.0966543926E-01    5.0635912502E-01    5.0306339988E-01    4.9977850501E-01
    4.9650467322E-01    4.9324212917E-01    4.8999108950E-01    4.8675176305E-01
    4.8352435105E-01    4.8030904725E-01    4.7710603814E-01    4.7391550306E-01
    4.7073761441E-01    4.6757253780E-01    4.6442043219E-01    4.6128145005E-01
    4.5815573751E-01    4.5504343450E-01    4.5194467492E-01    4.4885958675E-01
    4.4578829219E-01    4.4273090782E-01    4.3968754469E-01    4.3665830849E-01
    4.3364329966E-01    4.3064261350E-01    4.2765634032E-01    4.2468456552E-01
    4.2172736976E-01    4.1878482902E-01    4.1585701473E-01    4.1294399391E-01
    4.1004582922E-01    4.0716257912E-01    4.0429429792E-01    4.0144103595E-01
    3.9860283959E-01    3.9577975140E-01    3.9297181020E-01    3.9017905120E-01
    3.8740150604E-01    3.8463920291E-01    3.8189216664E-01    3.7916041876E-01
    3.7644397763E-01    3.7374285846E-01    3.7105707345E-01    3.6838663184E-01
    3.6573153998E-01    3.6309180144E-01    3.6046741704E-01    3.5785838498E-01
    3.5526470084E-01    3.5268635772E-01    3.5012334627E-01    3.4757565476E-01
    3.4504326917E-01    3.4252617323E-01    3.4002434850E-01    3.3753777441E-01
    3.3506642836E-01    3.3261028573E-01    3.3016932001E-01    3.2774350276E-01
    3.2533280378E-01    3.2293719107E-01    3.2055663093E-01    3.1819108801E-01
    3.1584052537E-01    3.1350490450E-01    3.1118418539E-01    3.0887832661E-01
    3.0658728529E-01    3.0431101724E-01    3.0204947693E-01    2.9980261759E-01
    2.9757039122E-01    2.9535274867E-01    2.9314963961E-01    2.9096101267E-01
    2.8878681541E-01    2.8662699437E-01    2.8448149513E-01    2.8235026235E-01
    2.8023323978E-01    2.7813037031E-01    2.7604159602E-01    2.7396685820E-01
    2.7190609737E-01    2.6985925337E-01    2.6782626531E-01    2.6580707167E-01
    2.6380161030E-01    2.6180981845E-01    2.5983163283E-01    2.5786698958E-01
    2.5591582436E-01    2.5397807235E-01    2.5205366827E-01    2.5014254641E-01
    2.4824464067E-01    2.4635988458E-01    2.4448821131E-01    2.4262955371E-01
    2.4078384432E-01    2.3895101539E-01    2.3713099895E-01    2.3532372674E-01
    2.3352913033E-01    2.3174714106E-01    2.2997769011E-01    2.2822070851E-01
    2.2647612712E-01    2.2474387672E-01    2.2302388796E-01    2.2131609140E-01
    2.1962041756E-01    2.1793679687E-01    2.1626515974E-01    2.1460543658E-01
    2.1295755775E-01    2.1132145363E-01    2.0969705465E-01    2.0808429124E-01
    2.0648309388E-01    2.0489339312E-01    2.0331511958E-01    2.0174820396E-01
    2.0019257706E-01    1.9864816978E-01    1.9711491314E-01    1.9559273828E-01
    1.9408157647E-01    1.9258135916E-01    1.9109201792E-01    1.8961348450E-01
    1.8814569081E-01    1.8668856896E-01    1.8524205124E-01    1.8380607013E-01
    1.8238055832E-01    1.8096544871E-01    1.7956067442E-01    1.7816616879E-01
    1.7678186540E-01    1.7540769805E-01    1.7404360080E-01    1.7268950794E-01
    1.7134535402E-01    1.7001107386E-01    1.6868660252E-01    1.6737187535E-01
    1.6606682795E-01    1.6477139621E-01    1.6348551630E-01    1.6220912465E-01
    1.6094215800E-01    1.5968455338E-01    1.5843624811E-01    1.5719717978E-01
    1.5596728632E-01    1.5474650593E-01    1.5353477712E-01    1.5233203872E-01
    1.5113822986E-01    1.4995328996E-01    1.4877715878E-01    1.4760977637E-01
    1.4645108312E-01    1.4530101972E-01    1.4415952716E-01    1.4302654679E-01
    1.4190202024E-01    1.4078588948E-01    1.3967809679E-01    1.3857858480E-01
    1.3748729642E-01    1.3640417490E-01    1.3532916384E-01    1.3426220711E-01
    1.3320324895E-01    1.3215223391E-01    1.3110910684E-01    1.3007381295E-01
    1.2904629774E-01    1.2802650707E-01    1.2701438708E-01    1.2600988425E-01
    1.2501294541E-01    1.2402351766E-01    1.2304154846E-01    1.2206698558E-01
    1.2109977709E-01    1.2013987141E-01    1.1918721725E-01    1.1824176366E-01
    1.1730345998E-01    1.1637225589E-01    1.1544810137E-01    1.1453094672E-01
    1.1362074255E-01    1.1271743977E-01    1.1182098962E-01    1.1093134363E-01
    1.1004845365E-01    1.0917227183E-01    1.0830275062E-01    1.0743984278E-01
    1.0658350138E-01    1.0573367978E-01    1.0489033163E-01    1.0405341090E-01
    1.0322287185E-01    1.0239866903E-01    1.0158075727E-01    1.0076909173E-01
    9.9963627831E-02    9.9164321288E-02    9.8371128112E-02    9.7584004594E-02
    9.6802907313E-02    9.6027793130E-02    9.5258619191E-02    9.4495342918E-02
    9.3737922015E-02    9.2986314461E-02    9.2240478515E-02    9.1500372705E-02
    9.0765955835E-02    9.0037186980E-02    8.9314025484E-02    8.8596430958E-02
    8.7884363282E-02    8.7177782599E-02    8.6476649315E-02    8.5780924100E-02
    8.5090567884E-02    8.4405541853E-02    8.3725807452E-02    8.3051326383E-02
    8.2382060601E-02    8.1717972312E-02    8.1059023976E-02    8.0405178300E-02
    7.9756398240E-02    7.9112647000E-02    7.8473888026E-02    7.7840085009E-02
    7.7211201884E-02    7.6587202822E-02    7.5968052238E-02    7.5353714780E-02
    7.4744155336E-02    7.4139339026E-02    7.3539231204E-02    7.2943797456E-02
    7.2353003599E-02    7.1766815676E-02    7.1185199960E-02    7.0608122951E-02
    7.0035551370E-02    6.9467452164E-02    6.8903792501E-02    6.8344539770E-02
    6.7789661578E-02    6.7239125750E-02    6.6692900329E-02    6.6150953571E-02
    6.5613253946E-02    6.5079770138E-02    6.4550471039E-02    6.4025325754E-02
    6.3504303595E-02    6.2987374079E-02    6.2474506934E-02    6.1965672087E-02
    6.1460839671E-02    6.0959980022E-02    6.0463063675E-02    5.9970061365E-02
    5.9480944026E-02    5.8995682787E-02    5.8514248976E-02    5.8036614112E-02
    5.7562749912E-02    5.7092628281E-02    5.6626221316E-02    5.6163501307E-02
    5.5704440729E-02    5.5249012245E-02    5.4797188707E-02    5.4348943150E-02
    5.3904248793E-02    5.3463079039E-02    5.3025407473E-02    5.2591207860E-02
    5.2160454144E-02    5.1733120450E-02    5.1309181078E-02    5.0888610506E-02
    5.0471383385E-02    5.0057474543E-02    4.9646858979E-02    4.9239511866E-02
    4.8835408545E-02    4.8434524531E-02    4.8036835505E-02    4.7642317317E-02
    4.7250945983E-02    4.6862697687E-02    4.6477548774E-02    4.6095475757E-02
    4.5716455309E-02    4.5340464267E-02    4.4967479626E-02    4.4597478545E-02
    4.4230438337E-02    4.3866336477E-02    4.3505150595E-02    4.3146858478E-02
    4.2791438066E-02    4.2438867456E-02    4.2089124896E-02    4.1742188787E-02
    4.1398037681E-02    4.1056650281E-02    4.0718005439E-02    4.0382082156E-02
    4.0048859579E-02    3.9718317004E-02    3.9390433871E-02    3.9065189767E-02
    3.8742564420E-02    3.8422537703E-02    3.8105089633E-02    3.7790200364E-02
    3.7477850195E-02    3.7168019561E-02    3.6860689039E-02    3.6555839342E-02
    3.6253451320E-02    3.5953505960E-02    3.5655984384E-02    3.5360867849E-02
    3.5068137745E-02    3.4777775597E-02    3.4489763058E-02    3.4204081916E-02
    3.3920714088E-02    3.3639641621E-02    3.3360846690E-02    3.3084311599E-02
    3.2810018779E-02    3.2537950786E-02    3.2268090304E-02    3.2000420140E-02
    3.1734923227E-02    3.1471582619E-02    3.1210381493E-02    3.0951303150E-02
    3.0694331008E-02    3.0439448610E-02    3.0186639614E-02    2.9935887799E-02
    2.9687177062E-02    2.9440491417E-02    2.9195814993E-02    2.8953132037E-02
    2.8712426910E-02    2.8473684086E-02    2.8236888154E-02    2.8002023815E-02
    2.7769075884E-02    2.7538029285E-02    2.7308869053E-02    2.7081580333E-02
    2.6856148381E-02    2.6632558559E-02    2.6410796338E-02    2.6190847297E-02
    2.5972697119E-02    2.5756331596E-02    2.5541736621E-02    2.5328898194E-02
    2.5117802420E-02    2.4908435504E-02    2.4700783754E-02    2.4494833581E-02
    2.4290571497E-02    2.4087984112E-02    2.3887058138E-02    2.3687780386E-02
    2.3490137763E-02    2.3294117277E-02    2.3099706030E-02    2.2906891224E-02
    2.2715660152E-02    2.2526000207E-02    2.2337898874E-02    2.2151343731E-02
    2.1966322452E-02    2.1782822801E-02    2.1600832637E-02    2.1420339906E-02
    2.1241332650E-02    2.1063798997E-02    2.0887727167E-02    2.0713105468E-02
    2.0539922296E-02    2.0368166137E-02    2.0197825561E-02    2.0028889227E-02
    1.9861345878E-02    1.9695184345E-02    1.9530393542E-02    1.9366962468E-02
    1.9204880205E-02    1.9044135918E-02    1.8884718856E-02    1.8726618349E-02
    1.8569823809E-02    1.8414324727E-02    1.8260110677E-02    1.8107171311E-02
    1.7955496360E-02    1.7805075635E-02    1.7655899025E-02    1.7507956495E-02
    1.7361238089E-02    1.7215733925E-02    1.7071434200E-02    1.6928329185E-02
    1.6786409225E-02    1.6645664740E-02    1.6506086225E-02    1.6367664247E-02
    1.6230389447E-02    1.6094252537E-02    1.5959244301E-02    1.5825355596E-02
    1.5692577348E-02    1.5560900553E-02    1.5430316278E-02    1.5300815660E-02
    1.5172389903E-02    1.5045030281E-02    1.4918728133E-02    1.4793474869E-02
    1.4669261964E-02    1.4546080959E-02    1.4423923463E-02    1.4302781147E-02
    1.4182645750E-02    1.4063509075E-02    1.3945362988E-02    1.3828199419E-02
    1.3712010362E-02    1.3596787873E-02    1.3482524069E-02    1.3369211132E-02
    1.3256841302E-02    1.3145406881E-02    1.3034900233E-02    1.2925313779E-02
    1.2816640004E-02    1.2708871447E-02    1.2602000708E-02    1.2496020448E-02
    1.2390923381E-02    1.2286702281E-02    1.2183349980E-02    1.2080859364E-02
    1.1979223377E-02    1.1878435019E-02    1.1778487343E-02    1.1679373460E-02
    1.1581086534E-02    1.1483619783E-02    1.1386966479E-02    1.1291119947E-02
    1.1196073566E-02    1.1101820767E-02    1.1008355032E-02    1.0915669897E-02
    1.0823758948E-02    1.0732615821E-02    1.0642234206E-02    1.0552607839E-02
    1.0463730510E-02    1.0375596055E-02    1.0288198361E-02    1.0201531364E-02
    1.0115589047E-02    1.0030365443E-02    9.9458546310E-03    9.8620507377E-03
    9.7789479371E-03    9.6965404497E-03    9.6148225422E-03    9.5337885273E-03
    9.4534327633E-03    9.3737496535E-03    9.2947336463E-03    9.2163792345E-03
    9.1386809553E-03    9.0616333896E-03    8.9852311618E-03    8.9094689397E-03
    8.8343414338E-03    8.7598433972E-03    8.6859696252E-03    8.6127149552E-03
    8.5400742659E-03    8.4680424774E-03    8.3966145508E-03    8.3257854877E-03
    8.2555503302E-03    8.1859041604E-03    8.1168420999E-03    8.0483593099E-03
    7.9804509906E-03    7.9131123812E-03    7.8463387592E-03    7.7801254403E-03
    7.7144677783E-03    7.6493611644E-03    7.5848010274E-03    7.5207828328E-03
    7.4573020832E-03    7.3943543175E-03    7.3319351107E-03    7.2700400739E-03
    7.2086648538E-03    7.1478051323E-03    7.0874566265E-03    7.0276150884E-03
    6.9682763043E-03    6.9094360951E-03    6.8510903153E-03    6.7932348534E-03
    6.7358656314E-03    6.6789786043E-03    6.6225697604E-03    6.5666351203E-03
    6.5111707372E-03    6.4561726967E-03    6.4016371161E-03    6.3475601443E-03
    6.2939379619E-03    6.2407667805E-03    6.1880428428E-03    6.1357624221E-03
    6.0839218220E-03    6.0325173767E-03    5.9815454502E-03    5.9310024360E-03
    5.8808847576E-03    5.8311888674E-03    5.7819112470E-03    5.7330484068E-03
    5.6845968858E-03    5.6365532513E-03    5.5889140989E-03    5.5416760520E-03
    5.4948357616E-03    5.4483899065E-03    5.4023351925E-03    5.3566683525E-03
    5.3113861462E-03    5.2664853601E-03    5.2219628068E-03    5.1778153254E-03
    5.1340397808E-03    5.0906330638E-03    5.0475920907E-03    5.0049138032E-03
    4.9625951682E-03    4.9206331774E-03    4.8790248476E-03    4.8377672199E-03
    4.7968573599E-03    4.7562923573E-03    4.7160693258E-03    4.6761854031E-03
    4.6366377502E-03    4.5974235517E-03    4.5585400154E-03    4.5199843722E-03
    4.4817538758E-03    4.4438458025E-03    4.4062574512E-03    4.3689861431E-03
    4.3320292216E-03    4.2953840519E-03    4.2590480211E-03    4.2230185379E-03
    4.1872930323E-03    4.1518689558E-03    4.1167437808E-03    4.0819150006E-03
    4.0473801295E-03    4.0131367021E-03    3.9791822735E-03    3.9455144191E-03
    3.9121307343E-03    3.8790288347E-03    3.8462063552E-03    3.8136609508E-03
    3.7813902955E-03    3.7493920829E-03    3.7176640257E-03    3.6862038554E-03
    3.6550093225E-03    3.6240781961E-03    3.5934082638E-03    3.5629973317E-03
    3.5328432239E-03    3.5029437827E-03    3.4732968685E-03    3.4439003591E-03
    3.4147521503E-03    3.3858501551E-03    3.3571923041E-03    3.3287765450E-03
    3.3006008425E-03    3.2726631783E-03    3.2449615510E-03    3.2174939757E-03
    3.1902584840E-03    3.1632531241E-03    3.1364759603E-03    3.1099250729E-03
    3.0835985585E-03    3.0574945292E-03    3.0316111132E-03    3.0059464539E-03
    2.9804987106E-03    2.9552660576E-03    2.9302466846E-03    2.9054387963E-03
    2.8808406125E-03    2.8564503677E-03    2.8322663113E-03    2.8082867071E-03
    2.7845098335E-03    2.7609339834E-03    2.7375574637E-03    2.7143785956E-03
    2.6913957142E-03    2.6686071687E-03    2.6460113219E-03    2.6236065504E-03
    2.6013912442E-03    2.5793638070E-03    2.5575226556E-03    2.5358662202E-03
    2.5143929441E-03    2.4931012834E-03    2.4719897076E-03    2.4510566984E-03
    2.4303007506E-03    2.4097203716E-03    2.3893140810E-03    2.3690804111E-03
    2.3490179062E-03    2.3291251231E-03    2.3094006304E-03    2.2898430088E-03
    2.2704508509E-03    2.2512227611E-03    2.2321573554E-03    2.2132532615E-03
    2.1945091186E-03    2.1759235771E-03    2.1574952989E-03    2.1392229572E-03
    2.1211052361E-03    2.1031408308E-03    2.0853284475E-03    2.0676668032E-03
    2.0501546257E-03    2.0327906534E-03    2.0155736354E-03    1.9985023311E-03
    1.9815755104E-03    1.9647919537E-03    1.9481504514E-03    1.9316498042E-03
    1.9152888226E-03    1.8990663275E-03    1.8829811494E-03    1.8670321286E-03
    1.8512181153E-03    1.8355379694E-03    1.8199905601E-03    1.8045747664E-03
    1.7892894764E-03    1.7741335879E-03    1.7591060078E-03    1.7442056520E-03
    1.7294314457E-03    1.7147823232E-03    1.7002572277E-03    1.6858551111E-03
    1.6715749343E-03    1.6574156670E-03    1.6433762874E-03    1.6294557823E-03
    1.6156531471E-03    1.6019673857E-03    1.5883975102E-03    1.5749425411E-03
    1.5616015072E-03    1.5483734454E-03    1.5352574008E-03    1.5222524263E-03
    1.5093575831E-03    1.4965719400E-03    1.4838945738E-03    1.4713245691E-03
    1.4588610181E-03    1.4465030206E-03    1.4342496842E-03    1.4221001239E-03
    1.4100534620E-03    1.3981088284E-03    1.3862653603E-03    1.3745222020E-03
    1.3628785053E-03    1.3513334288E-03    1.3398861385E-03    1.3285358071E-03
    1.3172816147E-03    1.3061227479E-03    1.2950584004E-03    1.2840877726E-03
    1.2732100717E-03    1.2624245115E-03    1.2517303124E-03    1.2411267016E-03
    1.2306129126E-03    1.2201881853E-03    1.2098517662E-03    1.1996029082E-03
    1.1894408702E-03    1.1793649177E-03    1.1693743221E-03    1.1594683612E-03
    1.1496463186E-03    1.1399074842E-03    1.1302511538E-03    1.1206766292E-03
    1.1111832179E-03    1.1017702335E-03    1.0924369951E-03    1.0831828279E-03
    1.0740070626E-03    1.0649090354E-03    1.0558880884E-03    1.0469435690E-03
    1.0380748303E-03    1.0292812308E-03    1.0205621344E-03    1.0119169103E-03
    1.0033449331E-03    9.9484558268E-04
   </PP_CHI.3>
 </PP_PSWFC>
 <PP_NLCC type="real"  size="1022" columns="4">
    1.7299835365E+00    1.7296656814E+00    1.7287124440E+00    1.7271248082E+00
    1.7249044118E+00    1.7220535442E+00    1.7185751424E+00    1.7144727865E+00
    1.7097506939E+00    1.7044137123E+00    1.6984673122E+00    1.6919175780E+00
    1.6847711982E+00    1.6770354547E+00    1.6687182112E+00    1.6598279009E+00
    1.6503735127E+00    1.6403645770E+00    1.6298111510E+00    1.6187238026E+00
    1.6071135935E+00    1.5949920625E+00    1.5823712069E+00    1.5692634642E+00
    1.5556816928E+00    1.5416391518E+00    1.5271494813E+00    1.5122266809E+00
    1.4968850888E+00    1.4811393599E+00    1.4650044438E+00    1.4484955628E+00
    1.4316281885E+00    1.4144180197E+00    1.3968809589E+00    1.3790330892E+00
    1.3608906513E+00    1.3424700199E+00    1.3237876804E+00    1.3048602058E+00
    1.2857042336E+00    1.2663364423E+00    1.2467735289E+00    1.2270321864E+00
    1.2071290807E+00    1.1870808293E+00    1.1669039790E+00    1.1466149845E+00
    1.1262301877E+00    1.1057657969E+00    1.0852378667E+00    1.0646622786E+00
    1.0440547217E+00    1.0234306746E+00    1.0028053870E+00    9.8219386314E-01
    9.6161084447E-01    9.4107079426E-01    9.2058788211E-01    9.0017596951E-01
    8.7984859602E-01    8.5961896619E-01    8.3949993736E-01    8.1950400802E-01
    7.9964330718E-01    7.7992958435E-01    7.6037420043E-01    7.4098811936E-01
    7.2178190055E-01    7.0276569215E-01    6.8394922516E-01    6.6534180824E-01
    6.4695232341E-01    6.2878922252E-01    6.1086052448E-01    5.9317381332E-01
    5.7573623693E-01    5.5855450665E-01    5.4163489755E-01    5.2498324942E-01
    5.0860496854E-01    4.9250503006E-01    4.7668798109E-01    4.6115794447E-01
    4.4591862315E-01    4.3097330515E-01    4.1632486916E-01    4.0197579070E-01
    3.8792814879E-01    3.7418363312E-01    3.6074355181E-01    3.4760883953E-01
    3.3478006609E-01    3.2225744544E-01    3.1004084507E-01    2.9812979578E-01
    2.8652350168E-01    2.7522085061E-01    2.6422042478E-01    2.5352051163E-01
    2.4311911494E-01    2.3301396611E-01    2.2320253561E-01    2.1368204458E-01
    2.0444947645E-01    1.9550158880E-01    1.8683492510E-01    1.7844582660E-01
    1.7033044415E-01    1.6248475008E-01    1.5490454992E-01    1.4758549418E-01
    1.4052308997E-01    1.3371271249E-01    1.2714961644E-01    1.2082894730E-01
    1.1474575233E-01    1.0889499151E-01    1.0327154823E-01    9.7870239720E-02
    9.2685827293E-02    8.7713026351E-02    8.2946516086E-02    7.8380948944E-02
    7.4010959784E-02    6.9831174762E-02    6.5836219897E-02    6.2020729336E-02
    5.8379353299E-02    5.4906765700E-02    5.1597671443E-02    4.8446813381E-02
    4.5448978943E-02    4.2599006421E-02    3.9891790920E-02    3.7322289968E-02
    3.4885528781E-02    3.2576605199E-02    3.0390694279E-02    2.8323052555E-02
    2.6369021967E-02    2.4524033471E-02    2.2783610312E-02    2.1143370997E-02
    1.9599031944E-02    1.8146409840E-02    1.6781423684E-02    1.5500096563E-02
    1.4298557122E-02    1.3173040781E-02    1.2119890672E-02    1.1135558329E-02
    1.0216604128E-02    9.3596974874E-03    8.5616168454E-03    7.8192494169E-03
    7.1295907432E-03    6.4897440443E-03    5.8969193849E-03    5.3484326626E-03
    4.8417044302E-03    4.3742585623E-03    3.9437207754E-03    3.5478170130E-03
    3.1843717057E-03    2.8513059153E-03    2.5466353744E-03    2.2684684300E-03
    2.0150039012E-03    1.7845288605E-03    1.5754163474E-03    1.3861230239E-03
    1.2151867796E-03    1.0612242961E-03    9.2292857734E-04    7.9906645487E-04
    6.8847607527E-04    5.9006437646E-04    5.0280456040E-04    4.2573356845E-04
    3.5794956571E-04    2.9860944013E-04    2.4692632220E-04    2.0216713018E-04
    1.6365014598E-04    1.3074262605E-04    1.0285845174E-04    7.9455822785E-05
    6.0034997622E-05    4.4136083740E-05    3.1336880978E-05    2.1250780374E-05
    1.3524720898E-05    7.8372060529E-06    3.8963820790E-06    1.4381792032E-06
    2.2451710340E-07    4.1575508273E-08    6.9813059616E-07    2.0239576193E-06
    3.8682999626E-06    6.0984046149E-06    8.5981238381E-06    1.1266582623E-05
    1.4016911343E-05    1.6775042835E-05    1.9478573011E-05    2.2075683910E-05
    2.4524128020E-05    2.6790272533E-05    2.8848202106E-05    3.0678878609E-05
    3.2269356229E-05    3.3612050247E-05    3.4704057706E-05    3.5546528170E-05
    3.6144082693E-05    3.6504279092E-05    3.6637121595E-05    3.6554612901E-05
    3.6270346689E-05    3.5799138601E-05    3.5156693732E-05    3.4359308665E-05
    3.3423606123E-05    3.2366300295E-05    3.1203990972E-05    2.9952984619E-05
    2.8629140582E-05    2.7247740643E-05    2.5823380201E-05    2.4369879418E-05
    2.2900212685E-05    2.1426454864E-05    1.9959742787E-05    1.8510250586E-05
    1.7087177449E-05    1.5698746502E-05    1.4352213564E-05    1.3053884576E-05
    1.1809140595E-05    1.0622469284E-05    9.4975019319E-06    8.4370550377E-06
    7.4431756346E-06    6.5171895413E-06    5.6597517921E-06    4.8708985803E-06
    4.1501001012E-06    3.4963137179E-06    2.9080369482E-06    2.3833598302E-06
    1.9200162475E-06    1.5154338626E-06    1.1667823630E-06    8.7101974135E-07
    6.2493638669E-07    4.2519682142E-07    2.6837891582E-07    1.5101047601E-07
    6.9603136776E-08    2.0683487162E-08    8.2141906647E-10    6.6557058988E-09
    3.4916814046E-08    8.2447012397E-08    1.4621783572E-07    2.2334497118E-07
    3.1110067639E-07    4.0692382188E-07    5.0842767567E-07    6.1340555860E-07
    7.1983449186E-07    8.2587697995E-07    9.2988106413E-07    1.0303787890E-06
    1.1260832258E-06    1.2158841927E-06    1.2988428186E-06    1.3741850810E-06
    1.4412944658E-06    1.4997038706E-06    1.5490868849E-06    1.5892485729E-06
    1.6201158636E-06    1.6417276777E-06    1.6542248761E-06    1.6578401420E-06
    1.6528878810E-06    1.6397542184E-06    1.6188871834E-06    1.5907871274E-06
    1.5559974623E-06    1.5150957519E-06    1.4686852150E-06    1.4173866810E-06
    1.3618310190E-06    1.3026520895E-06    1.2404802114E-06    1.1759361884E-06
    1.1096258793E-06    1.0421353330E-06    9.7402648022E-07    9.0583337515E-07
    8.3805898639E-07    7.7117250985E-07    7.0560720438E-07    6.4175871268E-07
    5.7998386129E-07    5.2059990235E-07    4.6388417993E-07    4.1007418698E-07
    3.5936798713E-07    3.1192496926E-07    2.6786690535E-07    2.2727927909E-07
    1.9021285632E-07    1.5668546277E-07    1.2668394396E-07    1.0016627003E-07
    7.7063765506E-08    5.7283425851E-08    4.0710304614E-08    2.7209934975E-08
    1.6630771865E-08    8.8066224829E-09    3.5590529604E-09    6.9974414763E-10
    3.2785566554E-11    1.3568861303E-09    4.4674919993E-09    9.1587957527E-09
    1.5225628825E-08    2.2465226505E-08    3.0678859430E-08    3.9673325232E-08
    4.9262296717E-08    5.9267523670E-08    6.9519887504E-08    7.9860308364E-08
    9.0140506991E-08    1.0022362261E-07    1.0998469229E-07    1.1931099399E-07
    1.2810226171E-07    1.3627077552E-07    1.4374133708E-07    1.5045113431E-07
    1.5634950681E-07    1.6139761683E-07    1.6556803751E-07    1.6884426465E-07
    1.7122016230E-07    1.7269935102E-07    1.7329454618E-07    1.7302685812E-07
    1.7192505795E-07    1.7002482353E-07    1.6736796630E-07    1.6400165450E-07
    1.5997763214E-07    1.5535144779E-07    1.5018169360E-07    1.4452926451E-07
    1.3845664134E-07    1.3202720145E-07    1.2530456552E-07    1.1835197686E-07
    1.1123172701E-07    1.0400461679E-07    9.6729470652E-08    8.9462690207E-08
    8.2257861816E-08    7.5165408606E-08    6.8232293657E-08    6.1501771472E-08
    5.5013186164E-08    4.8801819623E-08    4.2898781355E-08    3.7330947059E-08
    3.2120934917E-08    2.7287125401E-08    2.2843716318E-08    1.8800813780E-08
    1.5164555384E-08    1.1937269007E-08    9.1178741733E-09    6.7009853175E-09
    4.6794821856E-09    3.0415492169E-09    1.7691561899E-09    8.5124560847E-10
    2.8492248970E-10    4.5064812410E-11   -3.8955173334E-12    4.8170859891E-13
    2.9323235318E-12    1.0679950967E-12    1.7185469517E-12    8.7394345299E-14
   -7.8114548719E-13   -4.1339693556E-13    0.0000000000E+00    0.0000000000E+00
    0.0000000000E+00    0.0000000000E+00    0.0000000000E+00    0.0000000000E+00
    0.0000000000E+00    0.0000000000E+00    0.0000000000E+00    0.0000000000E+00
    0.0000000000E+00    0.0000000000E+00    0.0000000000E+00    0.0000000000E+00
    0.0000000000E+00    0.0000000000E+00    0.0000000000E+00    0.0000000000E+00
    0.0000000000E+00    0.0000000000E+00    0.0000000000E+00    0.0000000000E+00
    0.0000000000E+00    0.0000000000E+00    0.0000000000E+00    0.0000000000E+00
    0.0000000000E+00    0.0000000000E+00    0.0000000000E+00    0.0000000000E+00
    0.0000000000E+00    0.0000000000E+00    0.0000000000E+00    0.0000000000E+00
    0.0000000000E+00    0.0000000000E+00    0.0000000000E+00    0.0000000000E+00
    0.0000000000E+00    0.0000000000E+00    0.0000000000E+00    0.0000000000E+00
    0.0000000000E+00    0.0000000000E+00    0.0000000000E+00    0.0000000000E+00
    0.0000000000E+00    0.0000000000E+00    0.0000000000E+00    0.0000000000E+00
    0.0000000000E+00    0.0000000000E+00    0.0000000000E+00    0.0000000000E+00
    0.0000000000E+00    0.0000000000E+00    0.0000000000E+00    0.0000000000E+00
    0.0000000000E+00    0.0000000000E+00    0.0000000000E+00    0.0000000000E+00
    0.0000000000E+00    0.0000000000E+00    0.0000000000E+00    0.0000000000E+00
    0.0000000000E+00    0.0000000000E+00    0.0000000000E+00    0.0000000000E+00
    0.0000000000E+00    0.0000000000E+00    0.0000000000E+00    0.0000000000E+00
    0.0000000000E+00    0.0000000000E+00    0.0000000000E+00    0.0000000000E+00
    0.0000000000E+00    0.0000000000E+00    0.0000000000E+00    0.0000000000E+00
    0.0000000000E+00    0.0000000000E+00    0.0000000000E+00    0.0000000000E+00
    0.0000000000E+00    0.0000000000E+00    0.0000000000E+00    0.0000000000E+00
    0.0000000000E+00    0.0000000000E+00    0.0000000000E+00    0.0000000000E+00
    0.0000000000E+00    0.0000000000E+00    0.0000000000E+00    0.0000000000E+00
    0.0000000000E+00    0.0000000000E+00    0.0000000000E+00    0.0000000000E+00
    0.0000000000E+00    0.0000000000E+00    0.0000000000E+00    0.0000000000E+00
    0.0000000000E+00    0.0000000000E+00    0.0000000000E+00    0.0000000000E+00
    0.0000000000E+00    0.0000000000E+00    0.0000000000E+00    0.0000000000E+00
    0.0000000000E+00    0.0000000000E+00    0.0000000000E+00    0.0000000000E+00
    0.0000000000E+00    0.0000000000E+00    0.0000000000E+00    0.0000000000E+00
    0.0000000000E+00    0.0000000000E+00    0.0000000000E+00    0.0000000000E+00
    0.0000000000E+00    0.0000000000E+00    0.0000000000E+00    0.0000000000E+00
    0.0000000000E+00    0.0000000000E+00    0.0000000000E+00    0.0000000000E+00
    0.0000000000E+00    0.0000000000E+00    0.0000000000E+00    0.0000000000E+00
    0.0000000000E+00    0.0000000000E+00    0.0000000000E+00    0.0000000000E+00
    0.0000000000E+00    0.0000000000E+00    0.0000000000E+00    0.0000000000E+00
    0.0000000000E+00    0.0000000000E+00    0.0000000000E+00    0.0000000000E+00
    0.0000000000E+00    0.0000000000E+00    0.0000000000E+00    0.0000000000E+00
    0.0000000000E+00    0.0000000000E+00    0.0000000000E+00    0.0000000000E+00
    0.0000000000E+00    0.0000000000E+00    0.0000000000E+00    0.0000000000E+00
    0.0000000000E+00    0.0000000000E+00    0.0000000000E+00    0.0000000000E+00
    0.0000000000E+00    0.0000000000E+00    0.0000000000E+00    0.0000000000E+00
    0.0000000000E+00    0.0000000000E+00    0.0000000000E+00    0.0000000000E+00
    0.0000000000E+00    0.0000000000E+00    0.0000000000E+00    0.0000000000E+00
    0.0000000000E+00    0.0000000000E+00    0.0000000000E+00    0.0000000000E+00
    0.0000000000E+00    0.0000000000E+00    0.0000000000E+00    0.0000000000E+00
    0.0000000000E+00    0.0000000000E+00    0.0000000000E+00    0.0000000000E+00
    0.0000000000E+00    0.0000000000E+00    0.0000000000E+00    0.0000000000E+00
    0.0000000000E+00    0.0000000000E+00    0.0000000000E+00    0.0000000000E+00
    0.0000000000E+00    0.0000000000E+00    0.0000000000E+00    0.0000000000E+00
    0.0000000000E+00    0.0000000000E+00    0.0000000000E+00    0.0000000000E+00
    0.0000000000E+00    0.0000000000E+00    0.0000000000E+00    0.0000000000E+00
    0.0000000000E+00    0.0000000000E+00    0.0000000000E+00    0.0000000000E+00
    0.0000000000E+00    0.0000000000E+00    0.0000000000E+00    0.0000000000E+00
    0.0000000000E+00    0.0000000000E+00    0.0000000000E+00    0.0000000000E+00
    0.0000000000E+00    0.0000000000E+00    0.0000000000E+00    0.0000000000E+00
    0.0000000000E+00    0.0000000000E+00    0.0000000000E+00    0.0000000000E+00
    0.0000000000E+00    0.0000000000E+00    0.0000000000E+00    0.0000000000E+00
    0.0000000000E+00    0.0000000000E+00    0.0000000000E+00    0.0000000000E+00
    0.0000000000E+00    0.0000000000E+00    0.0000000000E+00    0.0000000000E+00
    0.0000000000E+00    0.0000000000E+00    0.0000000000E+00    0.0000000000E+00
    0.0000000000E+00    0.0000000000E+00    0.0000000000E+00    0.0000000000E+00
    0.0000000000E+00    0.0000000000E+00    0.0000000000E+00    0.0000000000E+00
    0.0000000000E+00    0.0000000000E+00    0.0000000000E+00    0.0000000000E+00
    0.0000000000E+00    0.0000000000E+00    0.0000000000E+00    0.0000000000E+00
    0.0000000000E+00    0.0000000000E+00    0.0000000000E+00    0.0000000000E+00
    0.0000000000E+00    0.0000000000E+00    0.0000000000E+00    0.0000000000E+00
    0.0000000000E+00    0.0000000000E+00    0.0000000000E+00    0.0000000000E+00
    0.0000000000E+00    0.0000000000E+00    0.0000000000E+00    0.0000000000E+00
    0.0000000000E+00    0.0000000000E+00    0.0000000000E+00    0.0000000000E+00
    0.0000000000E+00    0.0000000000E+00    0.0000000000E+00    0.0000000000E+00
    0.0000000000E+00    0.0000000000E+00    0.0000000000E+00    0.0000000000E+00
    0.0000000000E+00    0.0000000000E+00    0.0000000000E+00    0.0000000000E+00
    0.0000000000E+00    0.0000000000E+00    0.0000000000E+00    0.0000000000E+00
    0.0000000000E+00    0.0000000000E+00    0.0000000000E+00    0.0000000000E+00
    0.0000000000E+00    0.0000000000E+00    0.0000000000E+00    0.0000000000E+00
    0.0000000000E+00    0.0000000000E+00    0.0000000000E+00    0.0000000000E+00
    0.0000000000E+00    0.0000000000E+00    0.0000000000E+00    0.0000000000E+00
    0.0000000000E+00    0.0000000000E+00    0.0000000000E+00    0.0000000000E+00
    0.0000000000E+00    0.0000000000E+00    0.0000000000E+00    0.0000000000E+00
    0.0000000000E+00    0.0000000000E+00    0.0000000000E+00    0.0000000000E+00
    0.0000000000E+00    0.0000000000E+00    0.0000000000E+00    0.0000000000E+00
    0.0000000000E+00    0.0000000000E+00    0.0000000000E+00    0.0000000000E+00
    0.0000000000E+00    0.0000000000E+00    0.0000000000E+00    0.0000000000E+00
    0.0000000000E+00    0.0000000000E+00    0.0000000000E+00    0.0000000000E+00
    0.0000000000E+00    0.0000000000E+00    0.0000000000E+00    0.0000000000E+00
    0.0000000000E+00    0.0000000000E+00    0.0000000000E+00    0.0000000000E+00
    0.0000000000E+00    0.0000000000E+00    0.0000000000E+00    0.0000000000E+00
    0.0000000000E+00    0.0000000000E+00    0.0000000000E+00    0.0000000000E+00
    0.0000000000E+00    0.0000000000E+00    0.0000000000E+00    0.0000000000E+00
    0.0000000000E+00    0.0000000000E+00    0.0000000000E+00    0.0000000000E+00
    0.0000000000E+00    0.0000000000E+00    0.0000000000E+00    0.0000000000E+00
    0.0000000000E+00    0.0000000000E+00    0.0000000000E+00    0.0000000000E+00
    0.0000000000E+00    0.0000000000E+00    0.0000000000E+00    0.0000000000E+00
    0.0000000000E+00    0.0000000000E+00    0.0000000000E+00    0.0000000000E+00
    0.0000000000E+00    0.0000000000E+00    0.0000000000E+00    0.0000000000E+00
    0.0000000000E+00    0.0000000000E+00    0.0000000000E+00    0.0000000000E+00
    0.0000000000E+00    0.0000000000E+00    0.0000000000E+00    0.0000000000E+00
    0.0000000000E+00    0.0000000000E+00    0.0000000000E+00    0.0000000000E+00
    0.0000000000E+00    0.0000000000E+00    0.0000000000E+00    0.0000000000E+00
    0.0000000000E+00    0.0000000000E+00    0.0000000000E+00    0.0000000000E+00
    0.0000000000E+00    0.0000000000E+00    0.0000000000E+00    0.0000000000E+00
    0.0000000000E+00    0.0000000000E+00    0.0000000000E+00    0.0000000000E+00
    0.0000000000E+00    0.0000000000E+00    0.0000000000E+00    0.0000000000E+00
    0.0000000000E+00    0.0000000000E+00    0.0000000000E+00    0.0000000000E+00
    0.0000000000E+00    0.0000000000E+00    0.0000000000E+00    0.0000000000E+00
    0.0000000000E+00    0.0000000000E+00    0.0000000000E+00    0.0000000000E+00
    0.0000000000E+00    0.0000000000E+00    0.0000000000E+00    0.0000000000E+00
    0.0000000000E+00    0.0000000000E+00    0.0000000000E+00    0.0000000000E+00
    0.0000000000E+00    0.0000000000E+00    0.0000000000E+00    0.0000000000E+00
    0.0000000000E+00    0.0000000000E+00    0.0000000000E+00    0.0000000000E+00
    0.0000000000E+00    0.0000000000E+00    0.0000000000E+00    0.0000000000E+00
    0.0000000000E+00    0.0000000000E+00    0.0000000000E+00    0.0000000000E+00
    0.0000000000E+00    0.0000000000E+00    0.0000000000E+00    0.0000000000E+00
    0.0000000000E+00    0.0000000000E+00    0.0000000000E+00    0.0000000000E+00
    0.0000000000E+00    0.0000000000E+00    0.0000000000E+00    0.0000000000E+00
    0.0000000000E+00    0.0000000000E+00    0.0000000000E+00    0.0000000000E+00
    0.0000000000E+00    0.0000000000E+00    0.0000000000E+00    0.0000000000E+00
    0.0000000000E+00    0.0000000000E+00    0.0000000000E+00    0.0000000000E+00
    0.0000000000E+00    0.0000000000E+00    0.0000000000E+00    0.0000000000E+00
    0.0000000000E+00    0.0000000000E+00    0.0000000000E+00    0.0000000000E+00
    0.0000000000E+00    0.0000000000E+00    0.0000000000E+00    0.0000000000E+00
    0.0000000000E+00    0.0000000000E+00    0.0000000000E+00    0.0000000000E+00
    0.0000000000E+00    0.0000000000E+00    0.0000000000E+00    0.0000000000E+00
    0.0000000000E+00    0.0000000000E+00    0.0000000000E+00    0.0000000000E+00
    0.0000000000E+00    0.0000000000E+00    0.0000000000E+00    0.0000000000E+00
    0.0000000000E+00    0.0000000000E+00    0.0000000000E+00    0.0000000000E+00
    0.0000000000E+00    0.0000000000E+00    0.0000000000E+00    0.0000000000E+00
    0.0000000000E+00    0.0000000000E+00    0.0000000000E+00    0.0000000000E+00
    0.0000000000E+00    0.0000000000E+00    0.0000000000E+00    0.0000000000E+00
    0.0000000000E+00    0.0000000000E+00    0.0000000000E+00    0.0000000000E+00
    0.0000000000E+00    0.0000000000E+00    0.0000000000E+00    0.0000000000E+00
    0.0000000000E+00    0.0000000000E+00    0.0000000000E+00    0.0000000000E+00
    0.0000000000E+00    0.0000000000E+00    0.0000000000E+00    0.0000000000E+00
    0.0000000000E+00    0.0000000000E+00    0.0000000000E+00    0.0000000000E+00
    0.0000000000E+00    0.0000000000E+00    0.0000000000E+00    0.0000000000E+00
    0.0000000000E+00    0.0000000000E+00    0.0000000000E+00    0.0000000000E+00
    0.0000000000E+00    0.0000000000E+00    0.0000000000E+00    0.0000000000E+00
    0.0000000000E+00    0.0000000000E+00    0.0000000000E+00    0.0000000000E+00
    0.0000000000E+00    0.0000000000E+00    0.0000000000E+00    0.0000000000E+00
    0.0000000000E+00    0.0000000000E+00    0.0000000000E+00    0.0000000000E+00
    0.0000000000E+00    0.0000000000E+00    0.0000000000E+00    0.0000000000E+00
    0.0000000000E+00    0.0000000000E+00    0.0000000000E+00    0.0000000000E+00
    0.0000000000E+00    0.0000000000E+00    0.0000000000E+00    0.0000000000E+00
    0.0000000000E+00    0.0000000000E+00    0.0000000000E+00    0.0000000000E+00
    0.0000000000E+00    0.0000000000E+00    0.0000000000E+00    0.0000000000E+00
    0.0000000000E+00    0.0000000000E+00    0.0000000000E+00    0.0000000000E+00
    0.0000000000E+00    0.0000000000E+00    0.0000000000E+00    0.0000000000E+00
    0.0000000000E+00    0.0000000000E+00    0.0000000000E+00    0.0000000000E+00
    0.0000000000E+00    0.0000000000E+00    0.0000000000E+00    0.0000000000E+00
    0.0000000000E+00    0.0000000000E+00    0.0000000000E+00    0.0000000000E+00
    0.0000000000E+00    0.0000000000E+00    0.0000000000E+00    0.0000000000E+00
    0.0000000000E+00    0.0000000000E+00    0.0000000000E+00    0.0000000000E+00
    0.0000000000E+00    0.0000000000E+00    0.0000000000E+00    0.0000000000E+00
    0.0000000000E+00    0.0000000000E+00
 </PP_NLCC>
 <PP_RHOATOM type="real"  size="1022" columns="4">
    0.0000000000E+00    2.4684899748E-05    9.9052950415E-05    2.2404557184E-04
    4.0123633753E-04    6.3283774494E-04    9.2171061325E-04    1.2713760280E-03
    1.6860297288E-03    2.1705588143E-03    2.7305606150E-03    3.3723635612E-03
    4.1030498550E-03    4.9304797269E-03    5.8633170425E-03    6.9110559996E-03
    8.0840486366E-03    9.3935328561E-03    1.0851660643E-02    1.2471526149E-02
    1.4267193284E-02    1.6253722462E-02    1.8447196106E-02    2.0864742547E-02
    2.3524557892E-02    2.6445925472E-02    2.9649232468E-02    3.3155983277E-02
    3.6988809239E-02    4.1171474299E-02    4.5728876214E-02    5.0687042914E-02
    5.6073123645E-02    6.1915374532E-02    6.8243138237E-02    7.5086817381E-02
    8.2477841461E-02    9.0448627001E-02    9.9032530707E-02    1.0826379546E-01
    1.1817748899E-01    1.2880943512E-01    1.4019613755E-01    1.5237469613E-01
    1.6538271574E-01    1.7925820770E-01    1.9403948411E-01    2.0976504504E-01
    2.2647345900E-01    2.4420323691E-01    2.6299269999E-01    2.8287984186E-01
    3.0390218541E-01    3.2609663492E-01    3.4949932397E-01    3.7414545969E-01
    4.0006916413E-01    4.2730331322E-01    4.5587937428E-01    4.8582724259E-01
    5.1717507796E-01    5.4994914198E-01    5.8417363694E-01    6.1987054697E-01
    6.5705948251E-01    6.9575752885E-01    7.3597909946E-01    7.7773579519E-01
    8.2103626994E-01    8.6588610372E-01    9.1228768385E-01    9.6024009506E-01
    1.0097390192E+00    1.0607766454E+00    1.1133415907E+00    1.1674188331E+00
    1.2229896557E+00    1.2800316042E+00    1.3385184571E+00    1.3984202092E+00
    1.4597030693E+00    1.5223294711E+00    1.5862580990E+00    1.6514439277E+00
    1.7178382762E+00    1.7853888760E+00    1.8540399538E+00    1.9237323276E+00
    1.9944035169E+00    2.0659878663E+00    2.1384166820E+00    2.2116183811E+00
    2.2855186525E+00    2.3600406296E+00    2.4351050738E+00    2.5106305681E+00
    2.5865337200E+00    2.6627293726E+00    2.7391308243E+00    2.8156500544E+00
    2.8921979549E+00    2.9686845674E+00    3.0450193237E+00    3.1211112892E+00
    3.1968694085E+00    3.2722027517E+00    3.3470207604E+00    3.4212334925E+00
    3.4947518648E+00    3.5674878923E+00    3.6393549233E+00    3.7102678687E+00
    3.7801434257E+00    3.8489002938E+00    3.9164593835E+00    3.9827440148E+00
    4.0476801076E+00    4.1111963602E+00    4.1732244177E+00    4.2336990283E+00
    4.2925581871E+00    4.3497432676E+00    4.4051991390E+00    4.4588742714E+00
    4.5107208254E+00    4.5606947290E+00    4.6087557392E+00    4.6548674902E+00
    4.6989975264E+00    4.7411173217E+00    4.7812022845E+00    4.8192317487E+00
    4.8551889514E+00    4.8890609968E+00    4.9208388077E+00    4.9505170646E+00
    4.9780941321E+00    5.0035719753E+00    5.0269560641E+00    5.0482552688E+00
    5.0674817448E+00    5.0846508103E+00    5.0997808151E+00    5.1128930022E+00
    5.1240113640E+00    5.1331624920E+00    5.1403754228E+00    5.1456814792E+00
    5.1491141092E+00    5.1507087224E+00    5.1505025250E+00    5.1485343539E+00
    5.1448445117E+00    5.1394746019E+00    5.1324673656E+00    5.1238665216E+00
    5.1137166079E+00    5.1020628280E+00    5.0889509009E+00    5.0744269156E+00
    5.0585371911E+00    5.0413281419E+00    5.0228461496E+00    5.0031374411E+00
    4.9822479733E+00    4.9602233254E+00    4.9371085975E+00    4.9129483163E+00
    4.8877863492E+00    4.8616658264E+00    4.8346290696E+00    4.8067175311E+00
    4.7779717909E+00    4.7484316667E+00    4.7181363173E+00    4.6871242099E+00
    4.6554330737E+00    4.6230998942E+00    4.5901608888E+00    4.5566514910E+00
    4.5226063357E+00    4.4880592463E+00    4.4530432244E+00    4.4175904418E+00
    4.3817322334E+00    4.3454990931E+00    4.3089206707E+00    4.2720257704E+00
    4.2348423513E+00    4.1973975293E+00    4.1597175797E+00    4.1218279420E+00
    4.0837532251E+00    4.0455172143E+00    4.0071428788E+00    3.9686523804E+00
    3.9300670829E+00    3.8914075625E+00    3.8526936191E+00    3.8139442875E+00
    3.7751778504E+00    3.7364118505E+00    3.6976631043E+00    3.6589477157E+00
    3.6202810898E+00    3.5816779483E+00    3.5431523437E+00    3.5047176744E+00
    3.4663867007E+00    3.4281715592E+00    3.3900837786E+00    3.3521342987E+00
    3.3143335074E+00    3.2766913039E+00    3.2392171465E+00    3.2019200517E+00
    3.1648086092E+00    3.1278909939E+00    3.0911749777E+00    3.0546679407E+00
    3.0183768827E+00    2.9823084346E+00    2.9464688690E+00    2.9108641111E+00
    2.8754997496E+00    2.8403810465E+00    2.8055129477E+00    2.7709000929E+00
    2.7365468252E+00    2.7024572010E+00    2.6686349987E+00    2.6350837286E+00
    2.6018066415E+00    2.5688067373E+00    2.5360867738E+00    2.5036492746E+00
    2.4714965380E+00    2.4396306441E+00    2.4080534631E+00    2.3767666624E+00
    2.3457717145E+00    2.3150699037E+00    2.2846623330E+00    2.2545499314E+00
    2.2247334602E+00    2.1952135192E+00    2.1659905533E+00    2.1370648586E+00
    2.1084365880E+00    2.0801057571E+00    2.0520722500E+00    2.0243358242E+00
    1.9968961165E+00    1.9697526475E+00    1.9429048270E+00    1.9163519587E+00
    1.8900932447E+00    1.8641277901E+00    1.8384546076E+00    1.8130726215E+00
    1.7879806718E+00    1.7631775185E+00    1.7386618451E+00    1.7144322626E+00
    1.6904873131E+00    1.6668254730E+00    1.6434451571E+00    1.6203447209E+00
    1.5975224647E+00    1.5749766361E+00    1.5527054333E+00    1.5307070078E+00
    1.5089794671E+00    1.4875208776E+00    1.4663292671E+00    1.4454026272E+00
    1.4247389158E+00    1.4043360596E+00    1.3841919560E+00    1.3643044756E+00
    1.3446714641E+00    1.3252907441E+00    1.3061601178E+00    1.2872773680E+00
    1.2686402604E+00    1.2502465453E+00    1.2320939591E+00    1.2141802259E+00
    1.1965030594E+00    1.1790601641E+00    1.1618492365E+00    1.1448679671E+00
    1.1281140411E+00    1.1115851401E+00    1.0952789431E+00    1.0791931278E+00
    1.0633253715E+00    1.0476733524E+00    1.0322347506E+00    1.0170072489E+00
    1.0019885340E+00    9.8717629729E-01    9.7256823557E-01    9.5816205209E-01
    9.4395545724E-01    9.2994616930E-01    9.1613191516E-01    9.0251043102E-01
    8.8907946302E-01    8.7583676784E-01    8.6278011334E-01    8.4990727905E-01
    8.3721605675E-01    8.2470425094E-01    8.1236967932E-01    8.0021017325E-01
    7.8822357815E-01    7.7640775391E-01    7.6476057526E-01    7.5327993213E-01
    7.4196372994E-01    7.3080988999E-01    7.1981634965E-01    7.0898106271E-01
    6.9830199955E-01    6.8777714746E-01    6.7740451078E-01    6.6718211112E-01
    6.5710798755E-01    6.4718019673E-01    6.3739681312E-01    6.2775592904E-01
    6.1825565484E-01    6.0889411897E-01    5.9966946812E-01    5.9057986723E-01
    5.8162349962E-01    5.7279856703E-01    5.6410328963E-01    5.5553590611E-01
    5.4709467363E-01    5.3877786793E-01    5.3058378323E-01    5.2251073231E-01
    5.1455704644E-01    5.0672107539E-01    4.9900118737E-01    4.9139576903E-01
    4.8390322538E-01    4.7652197977E-01    4.6925047378E-01    4.6208716721E-01
    4.5503053800E-01    4.4807908210E-01    4.4123131346E-01    4.3448576390E-01
    4.2784098301E-01    4.2129553810E-01    4.1484801403E-01    4.0849701316E-01
    4.0224115524E-01    3.9607907724E-01    3.9000943329E-01    3.8403089455E-01
    3.7814214905E-01    3.7234190162E-01    3.6662887371E-01    3.6100180328E-01
    3.5545944468E-01    3.5000056848E-01    3.4462396138E-01    3.3932842601E-01
    3.3411278084E-01    3.2897586001E-01    3.2391651318E-01    3.1893360543E-01
    3.1402601704E-01    3.0919264341E-01    3.0443239486E-01    2.9974419651E-01
    2.9512698814E-01    2.9057972399E-01    2.8610137265E-01    2.8169091692E-01
    2.7734735360E-01    2.7306969340E-01    2.6885696074E-01    2.6470819364E-01
    2.6062244354E-01    2.5659877514E-01    2.5263626629E-01    2.4873400778E-01
    2.4489110323E-01    2.4110666895E-01    2.3737983375E-01    2.3370973881E-01
    2.3009553753E-01    2.2653639538E-01    2.2303148977E-01    2.1958000986E-01
    2.1618115647E-01    2.1283414189E-01    2.0953818974E-01    2.0629253486E-01
    2.0309642313E-01    1.9994911134E-01    1.9684986708E-01    1.9379796852E-01
    1.9079270438E-01    1.8783337370E-01    1.8491928576E-01    1.8204975991E-01
    1.7922412546E-01    1.7644172153E-01    1.7370189694E-01    1.7100401005E-01
    1.6834742866E-01    1.6573152985E-01    1.6315569990E-01    1.6061933411E-01
    1.5812183671E-01    1.5566262073E-01    1.5324110787E-01    1.5085672840E-01
    1.4850892102E-01    1.4619713274E-01    1.4392081879E-01    1.4167944247E-01
    1.3947247506E-01    1.3729939570E-01    1.3515969130E-01    1.3305285637E-01
    1.3097839297E-01    1.2893581059E-01    1.2692462603E-01    1.2494436330E-01
    1.2299455351E-01    1.2107473479E-01    1.1918445217E-01    1.1732325748E-01
    1.1549070926E-01    1.1368637266E-01    1.1190981933E-01    1.1016062735E-01
    1.0843838113E-01    1.0674267130E-01    1.0507309462E-01    1.0342925393E-01
    1.0181075801E-01    1.0021722152E-01    9.8648264905E-02    9.7103514318E-02
    9.5582601527E-02    9.4085163836E-02    9.2610844003E-02    9.1159290157E-02
    8.9730155724E-02    8.8323099343E-02    8.6937784791E-02    8.5573880905E-02
    8.4231061512E-02    8.2909005347E-02    8.1607395986E-02    8.0325921773E-02
    7.9064275745E-02    7.7822155567E-02    7.6599263461E-02    7.5395306137E-02
    7.4209994728E-02    7.3043044721E-02    7.1894175895E-02    7.0763112256E-02
    6.9649581972E-02    6.8553317313E-02    6.7474054587E-02    6.6411534085E-02
    6.5365500012E-02    6.4335700438E-02    6.3321887234E-02    6.2323816018E-02
    6.1341246096E-02    6.0373940411E-02    5.9421665482E-02    5.8484191358E-02
    5.7561291559E-02    5.6652743027E-02    5.5758326072E-02    5.4877824326E-02
    5.4011024688E-02    5.3157717278E-02    5.2317695387E-02    5.1490755432E-02
    5.0676696906E-02    4.9875322333E-02    4.9086437224E-02    4.8309850027E-02
    4.7545372092E-02    4.6792817617E-02    4.6052003613E-02    4.5322749859E-02
    4.4604878859E-02    4.3898215803E-02    4.3202588527E-02    4.2517827471E-02
    4.1843765642E-02    4.1180238575E-02    4.0527084294E-02    3.9884143277E-02
    3.9251258415E-02    3.8628274981E-02    3.8015040590E-02    3.7411405165E-02
    3.6817220905E-02    3.6232342246E-02    3.5656625832E-02    3.5089930478E-02
    3.4532117142E-02    3.3983048887E-02    3.3442590856E-02    3.2910610234E-02
    3.2386976223E-02    3.1871560009E-02    3.1364234731E-02    3.0864875457E-02
    3.0373359148E-02    2.9889564634E-02    2.9413372587E-02    2.8944665488E-02
    2.8483327607E-02    2.8029244969E-02    2.7582305334E-02    2.7142398165E-02
    2.6709414610E-02    2.6283247467E-02    2.5863791169E-02    2.5450941752E-02
    2.5044596836E-02    2.4644655598E-02    2.4251018750E-02    2.3863588518E-02
    2.3482268613E-02    2.3106964216E-02    2.2737581953E-02    2.2374029870E-02
    2.2016217419E-02    2.1664055430E-02    2.1317456094E-02    2.0976332941E-02
    2.0640600821E-02    2.0310175885E-02    1.9984975561E-02    1.9664918542E-02
    1.9349924761E-02    1.9039915374E-02    1.8734812742E-02    1.8434540416E-02
    1.8139023112E-02    1.7848186701E-02    1.7561958186E-02    1.7280265688E-02
    1.7003038430E-02    1.6730206716E-02    1.6461701921E-02    1.6197456468E-02
    1.5937403820E-02    1.5681478456E-02    1.5429615864E-02    1.5181752517E-02
    1.4937825868E-02    1.4697774326E-02    1.4461537249E-02    1.4229054925E-02
    1.4000268558E-02    1.3775120258E-02    1.3553553026E-02    1.3335510736E-02
    1.3120938128E-02    1.2909780792E-02    1.2701985156E-02    1.2497498472E-02
    1.2296268805E-02    1.2098245021E-02    1.1903376773E-02    1.1711614491E-02
    1.1522909369E-02    1.1337213355E-02    1.1154479138E-02    1.0974660137E-02
    1.0797710492E-02    1.0623585051E-02    1.0452239357E-02    1.0283629644E-02
    1.0117712822E-02    9.9544464665E-03    9.7937888097E-03    9.6356987310E-03
    9.4801357464E-03    9.3270599987E-03    9.1764322487E-03    9.0282138651E-03
    8.8823668160E-03    8.7388536589E-03    8.5976375328E-03    8.4586821485E-03
    8.3219517804E-03    8.1874112577E-03    8.0550259560E-03    7.9247617893E-03
    7.7965852013E-03    7.6704631577E-03    7.5463631381E-03    7.4242531281E-03
    7.3041016121E-03    7.1858775648E-03    7.0695504446E-03    6.9550901856E-03
    6.8424671909E-03    6.7316523248E-03    6.6226169064E-03    6.5153327021E-03
    6.4097719191E-03    6.3059071987E-03    6.2037116093E-03    6.1031586404E-03
    6.0042221956E-03    5.9068765867E-03    5.8110965272E-03    5.7168571262E-03
    5.6241338824E-03    5.5329026781E-03    5.4431397732E-03    5.3548217997E-03
    5.2679257556E-03    5.1824289996E-03    5.0983092454E-03    5.0155445562E-03
    4.9341133396E-03    4.8539943420E-03    4.7751666435E-03    4.6976096528E-03
    4.6213031020E-03    4.5462270418E-03    4.4723618367E-03    4.3996881597E-03
    4.3281869880E-03    4.2578395981E-03    4.1886275611E-03    4.1205327384E-03
    4.0535372771E-03    3.9876236055E-03    3.9227744288E-03    3.8589727249E-03
    3.7962017402E-03    3.7344449852E-03    3.6736862306E-03    3.6139095036E-03
    3.5550990831E-03    3.4972394965E-03    3.4403155157E-03    3.3843121532E-03
    3.3292146582E-03    3.2750085135E-03    3.2216794313E-03    3.1692133497E-03
    3.1175964296E-03    3.0668150509E-03    3.0168558091E-03    2.9677055120E-03
    2.9193511764E-03    2.8717800251E-03    2.8249794831E-03    2.7789371750E-03
    2.7336409216E-03    2.6890787370E-03    2.6452388256E-03    2.6021095788E-03
    2.5596795725E-03    2.5179375640E-03    2.4768724892E-03    2.4364734600E-03
    2.3967297611E-03    2.3576308478E-03    2.3191663429E-03    2.2813260344E-03
    2.2440998729E-03    2.2074779687E-03    2.1714505899E-03    2.1360081592E-03
    2.1011412521E-03    2.0668405942E-03    2.0330970589E-03    1.9999016651E-03
    1.9672455749E-03    1.9351200914E-03    1.9035166564E-03    1.8724268482E-03
    1.8418423796E-03    1.8117550958E-03    1.7821569720E-03    1.7530401117E-03
    1.7243967446E-03    1.6962192244E-03    1.6685000274E-03    1.6412317497E-03
    1.6144071061E-03    1.5880189279E-03    1.5620601609E-03    1.5365238642E-03
    1.5114032076E-03    1.4866914703E-03    1.4623820394E-03    1.4384684076E-03
    1.4149441721E-03    1.3918030326E-03    1.3690387896E-03    1.3466453433E-03
    1.3246166917E-03    1.3029469287E-03    1.2816302433E-03    1.2606609176E-03
    1.2400333255E-03    1.2197419313E-03    1.1997812879E-03    1.1801460360E-03
    1.1608309022E-03    1.1418306979E-03    1.1231403177E-03    1.1047547386E-03
    1.0866690180E-03    1.0688782929E-03    1.0513777787E-03    1.0341627673E-03
    1.0172286269E-03    1.0005707998E-03    9.8418480184E-04    9.6806622105E-04
    9.5221071646E-04    9.3661401700E-04    9.2127192042E-04    9.0618029215E-04
    8.9133506425E-04    8.7673223433E-04    8.6236786454E-04    8.4823808048E-04
    8.3433907024E-04    8.2066708340E-04    8.0721843004E-04    7.9398947973E-04
    7.8097666068E-04    7.6817645870E-04    7.5558541636E-04    7.4320013203E-04
    7.3101725901E-04    7.1903350467E-04    7.0724562954E-04    6.9565044651E-04
    6.8424481996E-04    6.7302566494E-04    6.6198994638E-04    6.5113467827E-04
    6.4045692288E-04    6.2995379000E-04    6.1962243614E-04    6.0946006385E-04
    5.9946392092E-04    5.8963129967E-04    5.7995953626E-04    5.7044600997E-04
    5.6108814249E-04    5.5188339729E-04    5.4282927889E-04    5.3392333225E-04
    5.2516314209E-04    5.1654633227E-04    5.0807056515E-04    4.9973354098E-04
    4.9153299727E-04    4.8346670824E-04    4.7553248417E-04    4.6772817088E-04
    4.6005164910E-04    4.5250083393E-04    4.4507367434E-04    4.3776815252E-04
    4.3058228346E-04    4.2351411432E-04    4.1656172398E-04    4.0972322252E-04
    4.0299675068E-04    3.9638047941E-04    3.8987260935E-04    3.8347137038E-04
    3.7717502113E-04    3.7098184853E-04    3.6489016733E-04    3.5889831968E-04
    3.5300467468E-04    3.4720762791E-04    3.4150560108E-04    3.3589704152E-04
    3.3038042183E-04    3.2495423945E-04    3.1961701626E-04    3.1436729817E-04
    3.0920365476E-04    3.0412467888E-04    2.9912898628E-04    2.9421521524E-04
    2.8938202620E-04    2.8462810141E-04    2.7995214456E-04    2.7535288047E-04
    2.7082905471E-04    2.6637943327E-04    2.6200280227E-04    2.5769796757E-04
    2.5346375449E-04    2.4929900752E-04    2.4520258993E-04    2.4117338355E-04
    2.3721028842E-04    2.3331222251E-04    2.2947812144E-04    2.2570693816E-04
    2.2199764270E-04    2.1834922190E-04    2.1476067910E-04    2.1123103392E-04
    2.0775932195E-04    2.0434459451E-04    2.0098591841E-04    1.9768237569E-04
    1.9443306335E-04    1.9123709314E-04    1.8809359130E-04    1.8500169834E-04
    1.8196056878E-04    1.7896937097E-04    1.7602728681E-04    1.7313351158E-04
    1.7028725369E-04    1.6748773447E-04    1.6473418798E-04    1.6202586080E-04
    1.5936201178E-04    1.5674191192E-04    1.5416484410E-04    1.5163010293E-04
    1.4913699454E-04    1.4668483641E-04    1.4427295716E-04    1.4190069640E-04
    1.3956740452E-04    1.3727244253E-04    1.3501518190E-04    1.3279500437E-04
    1.3061130177E-04    1.2846347590E-04    1.2635093833E-04    1.2427311026E-04
    1.2222942235E-04    1.2021931458E-04    1.1824223609E-04    1.1629764503E-04
    1.1438500840E-04    1.1250380194E-04    1.1065350997E-04    1.0883362524E-04
    1.0704364879E-04    1.0528308986E-04    1.0355146569E-04    1.0184830143E-04
    1.0017313001E-04    9.8525492008E-05    9.6904935513E-05    9.5311016020E-05
    9.3743296302E-05    9.2201346290E-05    9.0684742959E-05    8.9193070212E-05
    8.7725918764E-05    8.6282886037E-05    8.4863576049E-05    8.3467599300E-05
    8.2094572674E-05    8.0744119329E-05    7.9415868600E-05    7.8109455895E-05
    7.6824522595E-05    7.5560715959E-05    7.4317689025E-05    7.3095100518E-05
    7.1892614758E-05    7.0709901566E-05    6.9546636175E-05    6.8402499142E-05
    6.7277176259E-05    6.6170358472E-05    6.5081741794E-05    6.4011027219E-05
    6.2957920648E-05    6.1922132801E-05    6.0903379144E-05    5.9901379808E-05
    5.8915859515E-05    5.7946547501E-05    5.6993177443E-05    5.6055487387E-05
    5.5133219677E-05    5.4226120881E-05    5.3333941727E-05    5.2456437031E-05
    5.1593365632E-05    5.0744490326E-05    4.9909577802E-05    4.9088398577E-05
    4.8280726932E-05    4.7486340854E-05    4.6705021972E-05    4.5936555501E-05
    4.5180730180E-05    4.4437338214E-05    4.3706175222E-05    4.2987040174E-05
    4.2279735344E-05    4.1584066248E-05    4.0899841598E-05    4.0226873244E-05
    3.9564976127E-05    3.8913968224E-05    3.8273670504E-05    3.7643906873E-05
    3.7024504129E-05    3.6415291916E-05    3.5816102672E-05    3.5226771589E-05
    3.4647136568E-05    3.4077038168E-05    3.3516319568E-05    3.2964826524E-05
    3.2422407325E-05    3.1888912750E-05    3.1364196033E-05    3.0848112815E-05
    3.0340521112E-05    2.9841281269E-05    2.9350255928E-05    2.8867309986E-05
    2.8392310562E-05    2.7925126955E-05    2.7465630615E-05    2.7013695101E-05
    2.6569196052E-05    2.6132011150E-05    2.5702020086E-05    2.5279104529E-05
    2.4863148092E-05    2.4454036302E-05    2.4051656566E-05    2.3655898142E-05
    2.3266652108E-05    2.2883811333E-05    2.2507270445E-05    2.2136925806E-05
    2.1772675480E-05    2.1414419209E-05    2.1062058380E-05    2.0715496004E-05
    2.0374636682E-05    2.0039386589E-05    1.9709653438E-05    1.9385346463E-05
    1.9066376386E-05    1.8752655400E-05    1.8444097141E-05    1.8140616664E-05
    1.7842130423E-05    1.7548556242E-05    1.7259813300E-05    1.6975822103E-05
    1.6696504464E-05    1.6421783483E-05    1.6151583524E-05    1.5885830194E-05
    1.5624450324E-05    1.5367371949E-05    1.5114524287E-05    1.4865837719E-05
    1.4621243774E-05    1.4380675103E-05    1.4144065469E-05    1.3911349721E-05
    1.3682463780E-05    1.3457344624E-05    1.3235930265E-05    1.3018159735E-05
    1.2803973068E-05    1.2593311287E-05    1.2386116382E-05    1.2182331300E-05
    1.1981899925E-05    1.1784767065E-05    1.1590878435E-05    1.1400180643E-05
    1.1212621176E-05    1.1028148386E-05    1.0846711472E-05    1.0668260471E-05
    1.0492746242E-05    1.0320120450E-05    1.0150335559E-05    9.9833448112E-06
    9.8191022214E-06    9.6575625594E-06    9.4986813393E-06    9.3424148074E-06
    9.1887199296E-06    9.0375543805E-06    8.8888765309E-06    8.7426454364E-06
    8.5988208265E-06    8.4573630932E-06
 </PP_RHOATOM>
 <PP_SPIN_ORB>
   <PP_RELBETA.1  index="1"  lll="0" jjj="0.5"/>
   <PP_RELBETA.2  index="2"  lll="0" jjj="0.5"/>
   <PP_RELBETA.3  index="3"  lll="1" jjj="0.5"/>
   <PP_RELBETA.4  index="4"  lll="1" jjj="1.5"/>
   <PP_RELBETA.5  index="5"  lll="1" jjj="0.5"/>
   <PP_RELBETA.6  index="6"  lll="1" jjj="1.5"/>
   <PP_RELBETA.7  index="7"  lll="2" jjj="1.5"/>
   <PP_RELBETA.8  index="8"  lll="2" jjj="2.5"/>
   <PP_RELBETA.9  index="9"  lll="2" jjj="1.5"/>
   <PP_RELBETA.10 index="10" lll="2" jjj="2.5"/>
   <PP_RELWFC.1  index="1"  lchi="0" jchi="0.5" nn="1"/>
   <PP_RELWFC.2  index="2"  lchi="1" jchi="1.5" nn="2"/>
   <PP_RELWFC.3  index="3"  lchi="1" jchi="0.5" nn="2"/>
 </PP_SPIN_ORB>
</UPF>

