<UPF version="2.0.1">
  <PP_INFO>

 This pseudopotential file has been produced using the code
 ONCVPSP  (Optimized Norm-Conservinng Vanderbilt PSeudopotential)
 fully-relativistic version 4.0.1 06/20/2107 by D. R. Hamann
 The code is available through a link at URL www.mat-simresearch.com.
 Documentation with the package provides a full discription of the
 input data below.


 While it is not required under the terms of the GNU GPL, it is
 suggested that you cite D. R. Hamann, Phys. Rev. B 88, 085117 (2013)
 in any publication using these pseudopotentials.

    <PP_INPUTFILE>
# ATOM AND REFERENCE CONFIGURATION
# atsym  z   nc   nv     iexc    psfile
  Nb 41.00    6    4       4      upf
#
#   n    l    f        energy (Ha)
    1    0    2.00
    2    0    2.00
    2    1    6.00
    3    0    2.00
    3    1    6.00
    3    2   10.00
    4    0    2.00
    4    1    6.00
    4    2    4.00
    5    0    1.00
#
# PSEUDOPOTENTIAL AND OPTIMIZATION
# lmax
    2
#
#   l,   rc,     ep,   ncon, nbas, qcut
    0   1.69556  -2.14594    4    7   7.63421
    1   1.72694  -1.26863    4    9   7.93588
    2   1.54404  -0.11173    4    7   7.46061
#
# LOCAL POTENTIAL
# lloc, lpopt,  rc(5),   dvloc0
    4    5   1.45063      0.00000
#
# VANDERBILT-KLEINMAN-BYLANDER PROJECTORs
# l, nproj, debl
    0    2   1.99960
    1    2   1.80000
    2    2   1.50000
#
# MODEL CORE CHARGE
# icmod, fcfact, rcfact
    3   5.00000   1.50000
#
# LOG DERIVATIVE ANALYSIS
# epsh1, epsh2, depsh
  -12.00   12.00    0.02
#
# OUTPUT GRID
# rlmax, drl
    6.00    0.01
#
# TEST CONFIGURATIONS
# ncnf
    0
# nvcnf
#   n    l    f
    </PP_INPUTFILE>
  </PP_INFO>
  <!--                               -->
  <!-- END OF HUMAN READABLE SECTION -->
  <!--                               -->
    <PP_HEADER
       generated="Generated using ONCVPSP code by D. R. Hamann"
       author="anonymous"
       date="260612"
       comment=""
       element="Nb"
       pseudo_type="NC"
       relativistic="full"
       is_ultrasoft="F"
       is_paw="F"
       is_coulomb="F"
       has_so="T"
       has_wfc="F"
       has_gipaw="F"
       core_correction="T"
       functional="PBE"
       z_valence="   13.00"
       total_psenergy="  -1.14512346685E+02"
       rho_cutoff="   1.67900000000E+01"
       l_max="2"
       l_local="-1"
       mesh_size="  1680"
       number_of_wfc="6"
       number_of_proj="10"/>
 <PP_MESH>
   <PP_R type="real"  size="1680" columns="8">
    0.0000    0.0100    0.0200    0.0300    0.0400    0.0500    0.0600    0.0700
    0.0800    0.0900    0.1000    0.1100    0.1200    0.1300    0.1400    0.1500
    0.1600    0.1700    0.1800    0.1900    0.2000    0.2100    0.2200    0.2300
    0.2400    0.2500    0.2600    0.2700    0.2800    0.2900    0.3000    0.3100
    0.3200    0.3300    0.3400    0.3500    0.3600    0.3700    0.3800    0.3900
    0.4000    0.4100    0.4200    0.4300    0.4400    0.4500    0.4600    0.4700
    0.4800    0.4900    0.5000    0.5100    0.5200    0.5300    0.5400    0.5500
    0.5600    0.5700    0.5800    0.5900    0.6000    0.6100    0.6200    0.6300
    0.6400    0.6500    0.6600    0.6700    0.6800    0.6900    0.7000    0.7100
    0.7200    0.7300    0.7400    0.7500    0.7600    0.7700    0.7800    0.7900
    0.8000    0.8100    0.8200    0.8300    0.8400    0.8500    0.8600    0.8700
    0.8800    0.8900    0.9000    0.9100    0.9200    0.9300    0.9400    0.9500
    0.9600    0.9700    0.9800    0.9900    1.0000    1.0100    1.0200    1.0300
    1.0400    1.0500    1.0600    1.0700    1.0800    1.0900    1.1000    1.1100
    1.1200    1.1300    1.1400    1.1500    1.1600    1.1700    1.1800    1.1900
    1.2000    1.2100    1.2200    1.2300    1.2400    1.2500    1.2600    1.2700
    1.2800    1.2900    1.3000    1.3100    1.3200    1.3300    1.3400    1.3500
    1.3600    1.3700    1.3800    1.3900    1.4000    1.4100    1.4200    1.4300
    1.4400    1.4500    1.4600    1.4700    1.4800    1.4900    1.5000    1.5100
    1.5200    1.5300    1.5400    1.5500    1.5600    1.5700    1.5800    1.5900
    1.6000    1.6100    1.6200    1.6300    1.6400    1.6500    1.6600    1.6700
    1.6800    1.6900    1.7000    1.7100    1.7200    1.7300    1.7400    1.7500
    1.7600    1.7700    1.7800    1.7900    1.8000    1.8100    1.8200    1.8300
    1.8400    1.8500    1.8600    1.8700    1.8800    1.8900    1.9000    1.9100
    1.9200    1.9300    1.9400    1.9500    1.9600    1.9700    1.9800    1.9900
    2.0000    2.0100    2.0200    2.0300    2.0400    2.0500    2.0600    2.0700
    2.0800    2.0900    2.1000    2.1100    2.1200    2.1300    2.1400    2.1500
    2.1600    2.1700    2.1800    2.1900    2.2000    2.2100    2.2200    2.2300
    2.2400    2.2500    2.2600    2.2700    2.2800    2.2900    2.3000    2.3100
    2.3200    2.3300    2.3400    2.3500    2.3600    2.3700    2.3800    2.3900
    2.4000    2.4100    2.4200    2.4300    2.4400    2.4500    2.4600    2.4700
    2.4800    2.4900    2.5000    2.5100    2.5200    2.5300    2.5400    2.5500
    2.5600    2.5700    2.5800    2.5900    2.6000    2.6100    2.6200    2.6300
    2.6400    2.6500    2.6600    2.6700    2.6800    2.6900    2.7000    2.7100
    2.7200    2.7300    2.7400    2.7500    2.7600    2.7700    2.7800    2.7900
    2.8000    2.8100    2.8200    2.8300    2.8400    2.8500    2.8600    2.8700
    2.8800    2.8900    2.9000    2.9100    2.9200    2.9300    2.9400    2.9500
    2.9600    2.9700    2.9800    2.9900    3.0000    3.0100    3.0200    3.0300
    3.0400    3.0500    3.0600    3.0700    3.0800    3.0900    3.1000    3.1100
    3.1200    3.1300    3.1400    3.1500    3.1600    3.1700    3.1800    3.1900
    3.2000    3.2100    3.2200    3.2300    3.2400    3.2500    3.2600    3.2700
    3.2800    3.2900    3.3000    3.3100    3.3200    3.3300    3.3400    3.3500
    3.3600    3.3700    3.3800    3.3900    3.4000    3.4100    3.4200    3.4300
    3.4400    3.4500    3.4600    3.4700    3.4800    3.4900    3.5000    3.5100
    3.5200    3.5300    3.5400    3.5500    3.5600    3.5700    3.5800    3.5900
    3.6000    3.6100    3.6200    3.6300    3.6400    3.6500    3.6600    3.6700
    3.6800    3.6900    3.7000    3.7100    3.7200    3.7300    3.7400    3.7500
    3.7600    3.7700    3.7800    3.7900    3.8000    3.8100    3.8200    3.8300
    3.8400    3.8500    3.8600    3.8700    3.8800    3.8900    3.9000    3.9100
    3.9200    3.9300    3.9400    3.9500    3.9600    3.9700    3.9800    3.9900
    4.0000    4.0100    4.0200    4.0300    4.0400    4.0500    4.0600    4.0700
    4.0800    4.0900    4.1000    4.1100    4.1200    4.1300    4.1400    4.1500
    4.1600    4.1700    4.1800    4.1900    4.2000    4.2100    4.2200    4.2300
    4.2400    4.2500    4.2600    4.2700    4.2800    4.2900    4.3000    4.3100
    4.3200    4.3300    4.3400    4.3500    4.3600    4.3700    4.3800    4.3900
    4.4000    4.4100    4.4200    4.4300    4.4400    4.4500    4.4600    4.4700
    4.4800    4.4900    4.5000    4.5100    4.5200    4.5300    4.5400    4.5500
    4.5600    4.5700    4.5800    4.5900    4.6000    4.6100    4.6200    4.6300
    4.6400    4.6500    4.6600    4.6700    4.6800    4.6900    4.7000    4.7100
    4.7200    4.7300    4.7400    4.7500    4.7600    4.7700    4.7800    4.7900
    4.8000    4.8100    4.8200    4.8300    4.8400    4.8500    4.8600    4.8700
    4.8800    4.8900    4.9000    4.9100    4.9200    4.9300    4.9400    4.9500
    4.9600    4.9700    4.9800    4.9900    5.0000    5.0100    5.0200    5.0300
    5.0400    5.0500    5.0600    5.0700    5.0800    5.0900    5.1000    5.1100
    5.1200    5.1300    5.1400    5.1500    5.1600    5.1700    5.1800    5.1900
    5.2000    5.2100    5.2200    5.2300    5.2400    5.2500    5.2600    5.2700
    5.2800    5.2900    5.3000    5.3100    5.3200    5.3300    5.3400    5.3500
    5.3600    5.3700    5.3800    5.3900    5.4000    5.4100    5.4200    5.4300
    5.4400    5.4500    5.4600    5.4700    5.4800    5.4900    5.5000    5.5100
    5.5200    5.5300    5.5400    5.5500    5.5600    5.5700    5.5800    5.5900
    5.6000    5.6100    5.6200    5.6300    5.6400    5.6500    5.6600    5.6700
    5.6800    5.6900    5.7000    5.7100    5.7200    5.7300    5.7400    5.7500
    5.7600    5.7700    5.7800    5.7900    5.8000    5.8100    5.8200    5.8300
    5.8400    5.8500    5.8600    5.8700    5.8800    5.8900    5.9000    5.9100
    5.9200    5.9300    5.9400    5.9500    5.9600    5.9700    5.9800    5.9900
    6.0000    6.0100    6.0200    6.0300    6.0400    6.0500    6.0600    6.0700
    6.0800    6.0900    6.1000    6.1100    6.1200    6.1300    6.1400    6.1500
    6.1600    6.1700    6.1800    6.1900    6.2000    6.2100    6.2200    6.2300
    6.2400    6.2500    6.2600    6.2700    6.2800    6.2900    6.3000    6.3100
    6.3200    6.3300    6.3400    6.3500    6.3600    6.3700    6.3800    6.3900
    6.4000    6.4100    6.4200    6.4300    6.4400    6.4500    6.4600    6.4700
    6.4800    6.4900    6.5000    6.5100    6.5200    6.5300    6.5400    6.5500
    6.5600    6.5700    6.5800    6.5900    6.6000    6.6100    6.6200    6.6300
    6.6400    6.6500    6.6600    6.6700    6.6800    6.6900    6.7000    6.7100
    6.7200    6.7300    6.7400    6.7500    6.7600    6.7700    6.7800    6.7900
    6.8000    6.8100    6.8200    6.8300    6.8400    6.8500    6.8600    6.8700
    6.8800    6.8900    6.9000    6.9100    6.9200    6.9300    6.9400    6.9500
    6.9600    6.9700    6.9800    6.9900    7.0000    7.0100    7.0200    7.0300
    7.0400    7.0500    7.0600    7.0700    7.0800    7.0900    7.1000    7.1100
    7.1200    7.1300    7.1400    7.1500    7.1600    7.1700    7.1800    7.1900
    7.2000    7.2100    7.2200    7.2300    7.2400    7.2500    7.2600    7.2700
    7.2800    7.2900    7.3000    7.3100    7.3200    7.3300    7.3400    7.3500
    7.3600    7.3700    7.3800    7.3900    7.4000    7.4100    7.4200    7.4300
    7.4400    7.4500    7.4600    7.4700    7.4800    7.4900    7.5000    7.5100
    7.5200    7.5300    7.5400    7.5500    7.5600    7.5700    7.5800    7.5900
    7.6000    7.6100    7.6200    7.6300    7.6400    7.6500    7.6600    7.6700
    7.6800    7.6900    7.7000    7.7100    7.7200    7.7300    7.7400    7.7500
    7.7600    7.7700    7.7800    7.7900    7.8000    7.8100    7.8200    7.8300
    7.8400    7.8500    7.8600    7.8700    7.8800    7.8900    7.9000    7.9100
    7.9200    7.9300    7.9400    7.9500    7.9600    7.9700    7.9800    7.9900
    8.0000    8.0100    8.0200    8.0300    8.0400    8.0500    8.0600    8.0700
    8.0800    8.0900    8.1000    8.1100    8.1200    8.1300    8.1400    8.1500
    8.1600    8.1700    8.1800    8.1900    8.2000    8.2100    8.2200    8.2300
    8.2400    8.2500    8.2600    8.2700    8.2800    8.2900    8.3000    8.3100
    8.3200    8.3300    8.3400    8.3500    8.3600    8.3700    8.3800    8.3900
    8.4000    8.4100    8.4200    8.4300    8.4400    8.4500    8.4600    8.4700
    8.4800    8.4900    8.5000    8.5100    8.5200    8.5300    8.5400    8.5500
    8.5600    8.5700    8.5800    8.5900    8.6000    8.6100    8.6200    8.6300
    8.6400    8.6500    8.6600    8.6700    8.6800    8.6900    8.7000    8.7100
    8.7200    8.7300    8.7400    8.7500    8.7600    8.7700    8.7800    8.7900
    8.8000    8.8100    8.8200    8.8300    8.8400    8.8500    8.8600    8.8700
    8.8800    8.8900    8.9000    8.9100    8.9200    8.9300    8.9400    8.9500
    8.9600    8.9700    8.9800    8.9900    9.0000    9.0100    9.0200    9.0300
    9.0400    9.0500    9.0600    9.0700    9.0800    9.0900    9.1000    9.1100
    9.1200    9.1300    9.1400    9.1500    9.1600    9.1700    9.1800    9.1900
    9.2000    9.2100    9.2200    9.2300    9.2400    9.2500    9.2600    9.2700
    9.2800    9.2900    9.3000    9.3100    9.3200    9.3300    9.3400    9.3500
    9.3600    9.3700    9.3800    9.3900    9.4000    9.4100    9.4200    9.4300
    9.4400    9.4500    9.4600    9.4700    9.4800    9.4900    9.5000    9.5100
    9.5200    9.5300    9.5400    9.5500    9.5600    9.5700    9.5800    9.5900
    9.6000    9.6100    9.6200    9.6300    9.6400    9.6500    9.6600    9.6700
    9.6800    9.6900    9.7000    9.7100    9.7200    9.7300    9.7400    9.7500
    9.7600    9.7700    9.7800    9.7900    9.8000    9.8100    9.8200    9.8300
    9.8400    9.8500    9.8600    9.8700    9.8800    9.8900    9.9000    9.9100
    9.9200    9.9300    9.9400    9.9500    9.9600    9.9700    9.9800    9.9900
   10.0000   10.0100   10.0200   10.0300   10.0400   10.0500   10.0600   10.0700
   10.0800   10.0900   10.1000   10.1100   10.1200   10.1300   10.1400   10.1500
   10.1600   10.1700   10.1800   10.1900   10.2000   10.2100   10.2200   10.2300
   10.2400   10.2500   10.2600   10.2700   10.2800   10.2900   10.3000   10.3100
   10.3200   10.3300   10.3400   10.3500   10.3600   10.3700   10.3800   10.3900
   10.4000   10.4100   10.4200   10.4300   10.4400   10.4500   10.4600   10.4700
   10.4800   10.4900   10.5000   10.5100   10.5200   10.5300   10.5400   10.5500
   10.5600   10.5700   10.5800   10.5900   10.6000   10.6100   10.6200   10.6300
   10.6400   10.6500   10.6600   10.6700   10.6800   10.6900   10.7000   10.7100
   10.7200   10.7300   10.7400   10.7500   10.7600   10.7700   10.7800   10.7900
   10.8000   10.8100   10.8200   10.8300   10.8400   10.8500   10.8600   10.8700
   10.8800   10.8900   10.9000   10.9100   10.9200   10.9300   10.9400   10.9500
   10.9600   10.9700   10.9800   10.9900   11.0000   11.0100   11.0200   11.0300
   11.0400   11.0500   11.0600   11.0700   11.0800   11.0900   11.1000   11.1100
   11.1200   11.1300   11.1400   11.1500   11.1600   11.1700   11.1800   11.1900
   11.2000   11.2100   11.2200   11.2300   11.2400   11.2500   11.2600   11.2700
   11.2800   11.2900   11.3000   11.3100   11.3200   11.3300   11.3400   11.3500
   11.3600   11.3700   11.3800   11.3900   11.4000   11.4100   11.4200   11.4300
   11.4400   11.4500   11.4600   11.4700   11.4800   11.4900   11.5000   11.5100
   11.5200   11.5300   11.5400   11.5500   11.5600   11.5700   11.5800   11.5900
   11.6000   11.6100   11.6200   11.6300   11.6400   11.6500   11.6600   11.6700
   11.6800   11.6900   11.7000   11.7100   11.7200   11.7300   11.7400   11.7500
   11.7600   11.7700   11.7800   11.7900   11.8000   11.8100   11.8200   11.8300
   11.8400   11.8500   11.8600   11.8700   11.8800   11.8900   11.9000   11.9100
   11.9200   11.9300   11.9400   11.9500   11.9600   11.9700   11.9800   11.9900
   12.0000   12.0100   12.0200   12.0300   12.0400   12.0500   12.0600   12.0700
   12.0800   12.0900   12.1000   12.1100   12.1200   12.1300   12.1400   12.1500
   12.1600   12.1700   12.1800   12.1900   12.2000   12.2100   12.2200   12.2300
   12.2400   12.2500   12.2600   12.2700   12.2800   12.2900   12.3000   12.3100
   12.3200   12.3300   12.3400   12.3500   12.3600   12.3700   12.3800   12.3900
   12.4000   12.4100   12.4200   12.4300   12.4400   12.4500   12.4600   12.4700
   12.4800   12.4900   12.5000   12.5100   12.5200   12.5300   12.5400   12.5500
   12.5600   12.5700   12.5800   12.5900   12.6000   12.6100   12.6200   12.6300
   12.6400   12.6500   12.6600   12.6700   12.6800   12.6900   12.7000   12.7100
   12.7200   12.7300   12.7400   12.7500   12.7600   12.7700   12.7800   12.7900
   12.8000   12.8100   12.8200   12.8300   12.8400   12.8500   12.8600   12.8700
   12.8800   12.8900   12.9000   12.9100   12.9200   12.9300   12.9400   12.9500
   12.9600   12.9700   12.9800   12.9900   13.0000   13.0100   13.0200   13.0300
   13.0400   13.0500   13.0600   13.0700   13.0800   13.0900   13.1000   13.1100
   13.1200   13.1300   13.1400   13.1500   13.1600   13.1700   13.1800   13.1900
   13.2000   13.2100   13.2200   13.2300   13.2400   13.2500   13.2600   13.2700
   13.2800   13.2900   13.3000   13.3100   13.3200   13.3300   13.3400   13.3500
   13.3600   13.3700   13.3800   13.3900   13.4000   13.4100   13.4200   13.4300
   13.4400   13.4500   13.4600   13.4700   13.4800   13.4900   13.5000   13.5100
   13.5200   13.5300   13.5400   13.5500   13.5600   13.5700   13.5800   13.5900
   13.6000   13.6100   13.6200   13.6300   13.6400   13.6500   13.6600   13.6700
   13.6800   13.6900   13.7000   13.7100   13.7200   13.7300   13.7400   13.7500
   13.7600   13.7700   13.7800   13.7900   13.8000   13.8100   13.8200   13.8300
   13.8400   13.8500   13.8600   13.8700   13.8800   13.8900   13.9000   13.9100
   13.9200   13.9300   13.9400   13.9500   13.9600   13.9700   13.9800   13.9900
   14.0000   14.0100   14.0200   14.0300   14.0400   14.0500   14.0600   14.0700
   14.0800   14.0900   14.1000   14.1100   14.1200   14.1300   14.1400   14.1500
   14.1600   14.1700   14.1800   14.1900   14.2000   14.2100   14.2200   14.2300
   14.2400   14.2500   14.2600   14.2700   14.2800   14.2900   14.3000   14.3100
   14.3200   14.3300   14.3400   14.3500   14.3600   14.3700   14.3800   14.3900
   14.4000   14.4100   14.4200   14.4300   14.4400   14.4500   14.4600   14.4700
   14.4800   14.4900   14.5000   14.5100   14.5200   14.5300   14.5400   14.5500
   14.5600   14.5700   14.5800   14.5900   14.6000   14.6100   14.6200   14.6300
   14.6400   14.6500   14.6600   14.6700   14.6800   14.6900   14.7000   14.7100
   14.7200   14.7300   14.7400   14.7500   14.7600   14.7700   14.7800   14.7900
   14.8000   14.8100   14.8200   14.8300   14.8400   14.8500   14.8600   14.8700
   14.8800   14.8900   14.9000   14.9100   14.9200   14.9300   14.9400   14.9500
   14.9600   14.9700   14.9800   14.9900   15.0000   15.0100   15.0200   15.0300
   15.0400   15.0500   15.0600   15.0700   15.0800   15.0900   15.1000   15.1100
   15.1200   15.1300   15.1400   15.1500   15.1600   15.1700   15.1800   15.1900
   15.2000   15.2100   15.2200   15.2300   15.2400   15.2500   15.2600   15.2700
   15.2800   15.2900   15.3000   15.3100   15.3200   15.3300   15.3400   15.3500
   15.3600   15.3700   15.3800   15.3900   15.4000   15.4100   15.4200   15.4300
   15.4400   15.4500   15.4600   15.4700   15.4800   15.4900   15.5000   15.5100
   15.5200   15.5300   15.5400   15.5500   15.5600   15.5700   15.5800   15.5900
   15.6000   15.6100   15.6200   15.6300   15.6400   15.6500   15.6600   15.6700
   15.6800   15.6900   15.7000   15.7100   15.7200   15.7300   15.7400   15.7500
   15.7600   15.7700   15.7800   15.7900   15.8000   15.8100   15.8200   15.8300
   15.8400   15.8500   15.8600   15.8700   15.8800   15.8900   15.9000   15.9100
   15.9200   15.9300   15.9400   15.9500   15.9600   15.9700   15.9800   15.9900
   16.0000   16.0100   16.0200   16.0300   16.0400   16.0500   16.0600   16.0700
   16.0800   16.0900   16.1000   16.1100   16.1200   16.1300   16.1400   16.1500
   16.1600   16.1700   16.1800   16.1900   16.2000   16.2100   16.2200   16.2300
   16.2400   16.2500   16.2600   16.2700   16.2800   16.2900   16.3000   16.3100
   16.3200   16.3300   16.3400   16.3500   16.3600   16.3700   16.3800   16.3900
   16.4000   16.4100   16.4200   16.4300   16.4400   16.4500   16.4600   16.4700
   16.4800   16.4900   16.5000   16.5100   16.5200   16.5300   16.5400   16.5500
   16.5600   16.5700   16.5800   16.5900   16.6000   16.6100   16.6200   16.6300
   16.6400   16.6500   16.6600   16.6700   16.6800   16.6900   16.7000   16.7100
   16.7200   16.7300   16.7400   16.7500   16.7600   16.7700   16.7800   16.7900
   </PP_R>
   <PP_RAB type="real"  size="1680" columns="8">
    0.0100    0.0100    0.0100    0.0100    0.0100    0.0100    0.0100    0.0100
    0.0100    0.0100    0.0100    0.0100    0.0100    0.0100    0.0100    0.0100
    0.0100    0.0100    0.0100    0.0100    0.0100    0.0100    0.0100    0.0100
    0.0100    0.0100    0.0100    0.0100    0.0100    0.0100    0.0100    0.0100
    0.0100    0.0100    0.0100    0.0100    0.0100    0.0100    0.0100    0.0100
    0.0100    0.0100    0.0100    0.0100    0.0100    0.0100    0.0100    0.0100
    0.0100    0.0100    0.0100    0.0100    0.0100    0.0100    0.0100    0.0100
    0.0100    0.0100    0.0100    0.0100    0.0100    0.0100    0.0100    0.0100
    0.0100    0.0100    0.0100    0.0100    0.0100    0.0100    0.0100    0.0100
    0.0100    0.0100    0.0100    0.0100    0.0100    0.0100    0.0100    0.0100
    0.0100    0.0100    0.0100    0.0100    0.0100    0.0100    0.0100    0.0100
    0.0100    0.0100    0.0100    0.0100    0.0100    0.0100    0.0100    0.0100
    0.0100    0.0100    0.0100    0.0100    0.0100    0.0100    0.0100    0.0100
    0.0100    0.0100    0.0100    0.0100    0.0100    0.0100    0.0100    0.0100
    0.0100    0.0100    0.0100    0.0100    0.0100    0.0100    0.0100    0.0100
    0.0100    0.0100    0.0100    0.0100    0.0100    0.0100    0.0100    0.0100
    0.0100    0.0100    0.0100    0.0100    0.0100    0.0100    0.0100    0.0100
    0.0100    0.0100    0.0100    0.0100    0.0100    0.0100    0.0100    0.0100
    0.0100    0.0100    0.0100    0.0100    0.0100    0.0100    0.0100    0.0100
    0.0100    0.0100    0.0100    0.0100    0.0100    0.0100    0.0100    0.0100
    0.0100    0.0100    0.0100    0.0100    0.0100    0.0100    0.0100    0.0100
    0.0100    0.0100    0.0100    0.0100    0.0100    0.0100    0.0100    0.0100
    0.0100    0.0100    0.0100    0.0100    0.0100    0.0100    0.0100    0.0100
    0.0100    0.0100    0.0100    0.0100    0.0100    0.0100    0.0100    0.0100
    0.0100    0.0100    0.0100    0.0100    0.0100    0.0100    0.0100    0.0100
    0.0100    0.0100    0.0100    0.0100    0.0100    0.0100    0.0100    0.0100
    0.0100    0.0100    0.0100    0.0100    0.0100    0.0100    0.0100    0.0100
    0.0100    0.0100    0.0100    0.0100    0.0100    0.0100    0.0100    0.0100
    0.0100    0.0100    0.0100    0.0100    0.0100    0.0100    0.0100    0.0100
    0.0100    0.0100    0.0100    0.0100    0.0100    0.0100    0.0100    0.0100
    0.0100    0.0100    0.0100    0.0100    0.0100    0.0100    0.0100    0.0100
    0.0100    0.0100    0.0100    0.0100    0.0100    0.0100    0.0100    0.0100
    0.0100    0.0100    0.0100    0.0100    0.0100    0.0100    0.0100    0.0100
    0.0100    0.0100    0.0100    0.0100    0.0100    0.0100    0.0100    0.0100
    0.0100    0.0100    0.0100    0.0100    0.0100    0.0100    0.0100    0.0100
    0.0100    0.0100    0.0100    0.0100    0.0100    0.0100    0.0100    0.0100
    0.0100    0.0100    0.0100    0.0100    0.0100    0.0100    0.0100    0.0100
    0.0100    0.0100    0.0100    0.0100    0.0100    0.0100    0.0100    0.0100
    0.0100    0.0100    0.0100    0.0100    0.0100    0.0100    0.0100    0.0100
    0.0100    0.0100    0.0100    0.0100    0.0100    0.0100    0.0100    0.0100
    0.0100    0.0100    0.0100    0.0100    0.0100    0.0100    0.0100    0.0100
    0.0100    0.0100    0.0100    0.0100    0.0100    0.0100    0.0100    0.0100
    0.0100    0.0100    0.0100    0.0100    0.0100    0.0100    0.0100    0.0100
    0.0100    0.0100    0.0100    0.0100    0.0100    0.0100    0.0100    0.0100
    0.0100    0.0100    0.0100    0.0100    0.0100    0.0100    0.0100    0.0100
    0.0100    0.0100    0.0100    0.0100    0.0100    0.0100    0.0100    0.0100
    0.0100    0.0100    0.0100    0.0100    0.0100    0.0100    0.0100    0.0100
    0.0100    0.0100    0.0100    0.0100    0.0100    0.0100    0.0100    0.0100
    0.0100    0.0100    0.0100    0.0100    0.0100    0.0100    0.0100    0.0100
    0.0100    0.0100    0.0100    0.0100    0.0100    0.0100    0.0100    0.0100
    0.0100    0.0100    0.0100    0.0100    0.0100    0.0100    0.0100    0.0100
    0.0100    0.0100    0.0100    0.0100    0.0100    0.0100    0.0100    0.0100
    0.0100    0.0100    0.0100    0.0100    0.0100    0.0100    0.0100    0.0100
    0.0100    0.0100    0.0100    0.0100    0.0100    0.0100    0.0100    0.0100
    0.0100    0.0100    0.0100    0.0100    0.0100    0.0100    0.0100    0.0100
    0.0100    0.0100    0.0100    0.0100    0.0100    0.0100    0.0100    0.0100
    0.0100    0.0100    0.0100    0.0100    0.0100    0.0100    0.0100    0.0100
    0.0100    0.0100    0.0100    0.0100    0.0100    0.0100    0.0100    0.0100
    0.0100    0.0100    0.0100    0.0100    0.0100    0.0100    0.0100    0.0100
    0.0100    0.0100    0.0100    0.0100    0.0100    0.0100    0.0100    0.0100
    0.0100    0.0100    0.0100    0.0100    0.0100    0.0100    0.0100    0.0100
    0.0100    0.0100    0.0100    0.0100    0.0100    0.0100    0.0100    0.0100
    0.0100    0.0100    0.0100    0.0100    0.0100    0.0100    0.0100    0.0100
    0.0100    0.0100    0.0100    0.0100    0.0100    0.0100    0.0100    0.0100
    0.0100    0.0100    0.0100    0.0100    0.0100    0.0100    0.0100    0.0100
    0.0100    0.0100    0.0100    0.0100    0.0100    0.0100    0.0100    0.0100
    0.0100    0.0100    0.0100    0.0100    0.0100    0.0100    0.0100    0.0100
    0.0100    0.0100    0.0100    0.0100    0.0100    0.0100    0.0100    0.0100
    0.0100    0.0100    0.0100    0.0100    0.0100    0.0100    0.0100    0.0100
    0.0100    0.0100    0.0100    0.0100    0.0100    0.0100    0.0100    0.0100
    0.0100    0.0100    0.0100    0.0100    0.0100    0.0100    0.0100    0.0100
    0.0100    0.0100    0.0100    0.0100    0.0100    0.0100    0.0100    0.0100
    0.0100    0.0100    0.0100    0.0100    0.0100    0.0100    0.0100    0.0100
    0.0100    0.0100    0.0100    0.0100    0.0100    0.0100    0.0100    0.0100
    0.0100    0.0100    0.0100    0.0100    0.0100    0.0100    0.0100    0.0100
    0.0100    0.0100    0.0100    0.0100    0.0100    0.0100    0.0100    0.0100
    0.0100    0.0100    0.0100    0.0100    0.0100    0.0100    0.0100    0.0100
    0.0100    0.0100    0.0100    0.0100    0.0100    0.0100    0.0100    0.0100
    0.0100    0.0100    0.0100    0.0100    0.0100    0.0100    0.0100    0.0100
    0.0100    0.0100    0.0100    0.0100    0.0100    0.0100    0.0100    0.0100
    0.0100    0.0100    0.0100    0.0100    0.0100    0.0100    0.0100    0.0100
    0.0100    0.0100    0.0100    0.0100    0.0100    0.0100    0.0100    0.0100
    0.0100    0.0100    0.0100    0.0100    0.0100    0.0100    0.0100    0.0100
    0.0100    0.0100    0.0100    0.0100    0.0100    0.0100    0.0100    0.0100
    0.0100    0.0100    0.0100    0.0100    0.0100    0.0100    0.0100    0.0100
    0.0100    0.0100    0.0100    0.0100    0.0100    0.0100    0.0100    0.0100
    0.0100    0.0100    0.0100    0.0100    0.0100    0.0100    0.0100    0.0100
    0.0100    0.0100    0.0100    0.0100    0.0100    0.0100    0.0100    0.0100
    0.0100    0.0100    0.0100    0.0100    0.0100    0.0100    0.0100    0.0100
    0.0100    0.0100    0.0100    0.0100    0.0100    0.0100    0.0100    0.0100
    0.0100    0.0100    0.0100    0.0100    0.0100    0.0100    0.0100    0.0100
    0.0100    0.0100    0.0100    0.0100    0.0100    0.0100    0.0100    0.0100
    0.0100    0.0100    0.0100    0.0100    0.0100    0.0100    0.0100    0.0100
    0.0100    0.0100    0.0100    0.0100    0.0100    0.0100    0.0100    0.0100
    0.0100    0.0100    0.0100    0.0100    0.0100    0.0100    0.0100    0.0100
    0.0100    0.0100    0.0100    0.0100    0.0100    0.0100    0.0100    0.0100
    0.0100    0.0100    0.0100    0.0100    0.0100    0.0100    0.0100    0.0100
    0.0100    0.0100    0.0100    0.0100    0.0100    0.0100    0.0100    0.0100
    0.0100    0.0100    0.0100    0.0100    0.0100    0.0100    0.0100    0.0100
    0.0100    0.0100    0.0100    0.0100    0.0100    0.0100    0.0100    0.0100
    0.0100    0.0100    0.0100    0.0100    0.0100    0.0100    0.0100    0.0100
    0.0100    0.0100    0.0100    0.0100    0.0100    0.0100    0.0100    0.0100
    0.0100    0.0100    0.0100    0.0100    0.0100    0.0100    0.0100    0.0100
    0.0100    0.0100    0.0100    0.0100    0.0100    0.0100    0.0100    0.0100
    0.0100    0.0100    0.0100    0.0100    0.0100    0.0100    0.0100    0.0100
    0.0100    0.0100    0.0100    0.0100    0.0100    0.0100    0.0100    0.0100
    0.0100    0.0100    0.0100    0.0100    0.0100    0.0100    0.0100    0.0100
    0.0100    0.0100    0.0100    0.0100    0.0100    0.0100    0.0100    0.0100
    0.0100    0.0100    0.0100    0.0100    0.0100    0.0100    0.0100    0.0100
    0.0100    0.0100    0.0100    0.0100    0.0100    0.0100    0.0100    0.0100
    0.0100    0.0100    0.0100    0.0100    0.0100    0.0100    0.0100    0.0100
    0.0100    0.0100    0.0100    0.0100    0.0100    0.0100    0.0100    0.0100
    0.0100    0.0100    0.0100    0.0100    0.0100    0.0100    0.0100    0.0100
    0.0100    0.0100    0.0100    0.0100    0.0100    0.0100    0.0100    0.0100
    0.0100    0.0100    0.0100    0.0100    0.0100    0.0100    0.0100    0.0100
    0.0100    0.0100    0.0100    0.0100    0.0100    0.0100    0.0100    0.0100
    0.0100    0.0100    0.0100    0.0100    0.0100    0.0100    0.0100    0.0100
    0.0100    0.0100    0.0100    0.0100    0.0100    0.0100    0.0100    0.0100
    0.0100    0.0100    0.0100    0.0100    0.0100    0.0100    0.0100    0.0100
    0.0100    0.0100    0.0100    0.0100    0.0100    0.0100    0.0100    0.0100
    0.0100    0.0100    0.0100    0.0100    0.0100    0.0100    0.0100    0.0100
    0.0100    0.0100    0.0100    0.0100    0.0100    0.0100    0.0100    0.0100
    0.0100    0.0100    0.0100    0.0100    0.0100    0.0100    0.0100    0.0100
    0.0100    0.0100    0.0100    0.0100    0.0100    0.0100    0.0100    0.0100
    0.0100    0.0100    0.0100    0.0100    0.0100    0.0100    0.0100    0.0100
    0.0100    0.0100    0.0100    0.0100    0.0100    0.0100    0.0100    0.0100
    0.0100    0.0100    0.0100    0.0100    0.0100    0.0100    0.0100    0.0100
    0.0100    0.0100    0.0100    0.0100    0.0100    0.0100    0.0100    0.0100
    0.0100    0.0100    0.0100    0.0100    0.0100    0.0100    0.0100    0.0100
    0.0100    0.0100    0.0100    0.0100    0.0100    0.0100    0.0100    0.0100
    0.0100    0.0100    0.0100    0.0100    0.0100    0.0100    0.0100    0.0100
    0.0100    0.0100    0.0100    0.0100    0.0100    0.0100    0.0100    0.0100
    0.0100    0.0100    0.0100    0.0100    0.0100    0.0100    0.0100    0.0100
    0.0100    0.0100    0.0100    0.0100    0.0100    0.0100    0.0100    0.0100
    0.0100    0.0100    0.0100    0.0100    0.0100    0.0100    0.0100    0.0100
    0.0100    0.0100    0.0100    0.0100    0.0100    0.0100    0.0100    0.0100
    0.0100    0.0100    0.0100    0.0100    0.0100    0.0100    0.0100    0.0100
    0.0100    0.0100    0.0100    0.0100    0.0100    0.0100    0.0100    0.0100
    0.0100    0.0100    0.0100    0.0100    0.0100    0.0100    0.0100    0.0100
    0.0100    0.0100    0.0100    0.0100    0.0100    0.0100    0.0100    0.0100
    0.0100    0.0100    0.0100    0.0100    0.0100    0.0100    0.0100    0.0100
    0.0100    0.0100    0.0100    0.0100    0.0100    0.0100    0.0100    0.0100
    0.0100    0.0100    0.0100    0.0100    0.0100    0.0100    0.0100    0.0100
    0.0100    0.0100    0.0100    0.0100    0.0100    0.0100    0.0100    0.0100
    0.0100    0.0100    0.0100    0.0100    0.0100    0.0100    0.0100    0.0100
    0.0100    0.0100    0.0100    0.0100    0.0100    0.0100    0.0100    0.0100
    0.0100    0.0100    0.0100    0.0100    0.0100    0.0100    0.0100    0.0100
    0.0100    0.0100    0.0100    0.0100    0.0100    0.0100    0.0100    0.0100
    0.0100    0.0100    0.0100    0.0100    0.0100    0.0100    0.0100    0.0100
    0.0100    0.0100    0.0100    0.0100    0.0100    0.0100    0.0100    0.0100
    0.0100    0.0100    0.0100    0.0100    0.0100    0.0100    0.0100    0.0100
    0.0100    0.0100    0.0100    0.0100    0.0100    0.0100    0.0100    0.0100
    0.0100    0.0100    0.0100    0.0100    0.0100    0.0100    0.0100    0.0100
    0.0100    0.0100    0.0100    0.0100    0.0100    0.0100    0.0100    0.0100
    0.0100    0.0100    0.0100    0.0100    0.0100    0.0100    0.0100    0.0100
    0.0100    0.0100    0.0100    0.0100    0.0100    0.0100    0.0100    0.0100
    0.0100    0.0100    0.0100    0.0100    0.0100    0.0100    0.0100    0.0100
    0.0100    0.0100    0.0100    0.0100    0.0100    0.0100    0.0100    0.0100
    0.0100    0.0100    0.0100    0.0100    0.0100    0.0100    0.0100    0.0100
    0.0100    0.0100    0.0100    0.0100    0.0100    0.0100    0.0100    0.0100
    0.0100    0.0100    0.0100    0.0100    0.0100    0.0100    0.0100    0.0100
    0.0100    0.0100    0.0100    0.0100    0.0100    0.0100    0.0100    0.0100
    0.0100    0.0100    0.0100    0.0100    0.0100    0.0100    0.0100    0.0100
    0.0100    0.0100    0.0100    0.0100    0.0100    0.0100    0.0100    0.0100
    0.0100    0.0100    0.0100    0.0100    0.0100    0.0100    0.0100    0.0100
    0.0100    0.0100    0.0100    0.0100    0.0100    0.0100    0.0100    0.0100
    0.0100    0.0100    0.0100    0.0100    0.0100    0.0100    0.0100    0.0100
    0.0100    0.0100    0.0100    0.0100    0.0100    0.0100    0.0100    0.0100
    0.0100    0.0100    0.0100    0.0100    0.0100    0.0100    0.0100    0.0100
    0.0100    0.0100    0.0100    0.0100    0.0100    0.0100    0.0100    0.0100
    0.0100    0.0100    0.0100    0.0100    0.0100    0.0100    0.0100    0.0100
    0.0100    0.0100    0.0100    0.0100    0.0100    0.0100    0.0100    0.0100
    0.0100    0.0100    0.0100    0.0100    0.0100    0.0100    0.0100    0.0100
    0.0100    0.0100    0.0100    0.0100    0.0100    0.0100    0.0100    0.0100
    0.0100    0.0100    0.0100    0.0100    0.0100    0.0100    0.0100    0.0100
    0.0100    0.0100    0.0100    0.0100    0.0100    0.0100    0.0100    0.0100
    0.0100    0.0100    0.0100    0.0100    0.0100    0.0100    0.0100    0.0100
    0.0100    0.0100    0.0100    0.0100    0.0100    0.0100    0.0100    0.0100
    0.0100    0.0100    0.0100    0.0100    0.0100    0.0100    0.0100    0.0100
    0.0100    0.0100    0.0100    0.0100    0.0100    0.0100    0.0100    0.0100
    0.0100    0.0100    0.0100    0.0100    0.0100    0.0100    0.0100    0.0100
    0.0100    0.0100    0.0100    0.0100    0.0100    0.0100    0.0100    0.0100
    0.0100    0.0100    0.0100    0.0100    0.0100    0.0100    0.0100    0.0100
    0.0100    0.0100    0.0100    0.0100    0.0100    0.0100    0.0100    0.0100
    0.0100    0.0100    0.0100    0.0100    0.0100    0.0100    0.0100    0.0100
    0.0100    0.0100    0.0100    0.0100    0.0100    0.0100    0.0100    0.0100
    0.0100    0.0100    0.0100    0.0100    0.0100    0.0100    0.0100    0.0100
    0.0100    0.0100    0.0100    0.0100    0.0100    0.0100    0.0100    0.0100
    0.0100    0.0100    0.0100    0.0100    0.0100    0.0100    0.0100    0.0100
    0.0100    0.0100    0.0100    0.0100    0.0100    0.0100    0.0100    0.0100
    0.0100    0.0100    0.0100    0.0100    0.0100    0.0100    0.0100    0.0100
    0.0100    0.0100    0.0100    0.0100    0.0100    0.0100    0.0100    0.0100
    0.0100    0.0100    0.0100    0.0100    0.0100    0.0100    0.0100    0.0100
    0.0100    0.0100    0.0100    0.0100    0.0100    0.0100    0.0100    0.0100
    0.0100    0.0100    0.0100    0.0100    0.0100    0.0100    0.0100    0.0100
    0.0100    0.0100    0.0100    0.0100    0.0100    0.0100    0.0100    0.0100
    0.0100    0.0100    0.0100    0.0100    0.0100    0.0100    0.0100    0.0100
    0.0100    0.0100    0.0100    0.0100    0.0100    0.0100    0.0100    0.0100
    0.0100    0.0100    0.0100    0.0100    0.0100    0.0100    0.0100    0.0100
    0.0100    0.0100    0.0100    0.0100    0.0100    0.0100    0.0100    0.0100
    0.0100    0.0100    0.0100    0.0100    0.0100    0.0100    0.0100    0.0100
    0.0100    0.0100    0.0100    0.0100    0.0100    0.0100    0.0100    0.0100
    0.0100    0.0100    0.0100    0.0100    0.0100    0.0100    0.0100    0.0100
    0.0100    0.0100    0.0100    0.0100    0.0100    0.0100    0.0100    0.0100
    0.0100    0.0100    0.0100    0.0100    0.0100    0.0100    0.0100    0.0100
    0.0100    0.0100    0.0100    0.0100    0.0100    0.0100    0.0100    0.0100
    0.0100    0.0100    0.0100    0.0100    0.0100    0.0100    0.0100    0.0100
    0.0100    0.0100    0.0100    0.0100    0.0100    0.0100    0.0100    0.0100
    0.0100    0.0100    0.0100    0.0100    0.0100    0.0100    0.0100    0.0100
    0.0100    0.0100    0.0100    0.0100    0.0100    0.0100    0.0100    0.0100
   </PP_RAB>
 </PP_MESH>
  <PP_LOCAL type="real"  size="1680" columns="4">
   -3.7202551607E+01   -3.7201128320E+01   -3.7196858529E+01   -3.7189742967E+01
   -3.7179782807E+01   -3.7166979677E+01   -3.7151335659E+01   -3.7132853286E+01
   -3.7111535531E+01   -3.7087385800E+01   -3.7060407925E+01   -3.7030606152E+01
   -3.6997985132E+01   -3.6962549910E+01   -3.6924305917E+01   -3.6883258960E+01
   -3.6839415211E+01   -3.6792781203E+01   -3.6743363823E+01   -3.6691170301E+01
   -3.6636208217E+01   -3.6578485489E+01   -3.6518010378E+01   -3.6454791492E+01
   -3.6388837783E+01   -3.6320158564E+01   -3.6248763510E+01   -3.6174662670E+01
   -3.6097866486E+01   -3.6018385803E+01   -3.5936231891E+01   -3.5851416465E+01
   -3.5763951706E+01   -3.5673850289E+01   -3.5581125407E+01   -3.5485790802E+01
   -3.5387860794E+01   -3.5287350312E+01   -3.5184274931E+01   -3.5078650902E+01
   -3.4970495191E+01   -3.4859825512E+01   -3.4746660366E+01   -3.4631019079E+01
   -3.4512921837E+01   -3.4392389722E+01   -3.4269444754E+01   -3.4144109924E+01
   -3.4016409232E+01   -3.3886367718E+01   -3.3754011504E+01   -3.3619367818E+01
   -3.3482465032E+01   -3.3343332691E+01   -3.3202001541E+01   -3.3058503555E+01
   -3.2912871957E+01   -3.2765141250E+01   -3.2615347230E+01   -3.2463527008E+01
   -3.2309719028E+01   -3.2153963073E+01   -3.1996300285E+01   -3.1836773165E+01
   -3.1675425585E+01   -3.1512302787E+01   -3.1347451383E+01   -3.1180919351E+01
   -3.1012756029E+01   -3.0843012108E+01   -3.0671739614E+01   -3.0498991893E+01
   -3.0324823594E+01   -3.0149290642E+01   -2.9972450210E+01   -2.9794360692E+01
   -2.9615081666E+01   -2.9434673852E+01   -2.9253199076E+01   -2.9070720216E+01
   -2.8887301155E+01   -2.8703006725E+01   -2.8517902649E+01   -2.8332055474E+01
   -2.8145532508E+01   -2.7958401745E+01   -2.7770731794E+01   -2.7582591794E+01
   -2.7394051340E+01   -2.7205180390E+01   -2.7016049179E+01   -2.6826728129E+01
   -2.6637287756E+01   -2.6447798571E+01   -2.6258330984E+01   -2.6068955207E+01
   -2.5879741155E+01   -2.5690758343E+01   -2.5502075789E+01   -2.5313761913E+01
   -2.5125884442E+01   -2.4938510308E+01   -2.4751705556E+01   -2.4565535250E+01
   -2.4380063380E+01   -2.4195352779E+01   -2.4011465029E+01   -2.3828460388E+01
   -2.3646397705E+01   -2.3465334347E+01   -2.3285326125E+01   -2.3106427231E+01
   -2.2928690169E+01   -2.2752165694E+01   -2.2576902758E+01   -2.2402948456E+01
   -2.2230347972E+01   -2.2059144534E+01   -2.1889379372E+01   -2.1721091670E+01
   -2.1554318533E+01   -2.1389094945E+01   -2.1225453736E+01   -2.1063425545E+01
   -2.0903038791E+01   -2.0744319635E+01   -2.0587291953E+01   -2.0431977298E+01
   -2.0278394874E+01   -2.0126561498E+01   -1.9976491568E+01   -1.9828197026E+01
   -1.9681687323E+01   -1.9536969378E+01   -1.9394047539E+01   -1.9252923539E+01
   -1.9113596450E+01   -1.8976062639E+01   -1.8840315710E+01   -1.8706346458E+01
   -1.8574142810E+01   -1.8443689767E+01   -1.8314969342E+01   -1.8187960498E+01
   -1.8062639079E+01   -1.7938977757E+01   -1.7816945925E+01   -1.7696510777E+01
   -1.7577639767E+01   -1.7460301426E+01   -1.7344465162E+01   -1.7230101205E+01
   -1.7117180696E+01   -1.7005675574E+01   -1.6895558566E+01   -1.6786803102E+01
   -1.6679382298E+01   -1.6573268632E+01   -1.6468437120E+01   -1.6364864926E+01
   -1.6262529180E+01   -1.6161407866E+01   -1.6061479583E+01   -1.5962723525E+01
   -1.5865119490E+01   -1.5768647831E+01   -1.5673289375E+01   -1.5579025557E+01
   -1.5485838383E+01   -1.5393710196E+01   -1.5302624623E+01   -1.5212569070E+01
   -1.5123532682E+01   -1.5035500657E+01   -1.4948469745E+01   -1.4862444988E+01
   -1.4777410750E+01   -1.4693352868E+01   -1.4610257525E+01   -1.4528110782E+01
   -1.4446898816E+01   -1.4366607858E+01   -1.4287224201E+01   -1.4208734199E+01
   -1.4131124268E+01   -1.4054380890E+01   -1.3978490620E+01   -1.3903440085E+01
   -1.3829216000E+01   -1.3755805168E+01   -1.3683194494E+01   -1.3611370989E+01
   -1.3540321784E+01   -1.3470034137E+01   -1.3400495440E+01   -1.3331693234E+01
   -1.3263615213E+01   -1.3196249237E+01   -1.3129583335E+01   -1.3063605719E+01
   -1.2998304786E+01   -1.2933669127E+01   -1.2869687531E+01   -1.2806348994E+01
   -1.2743642717E+01   -1.2681558116E+01   -1.2620084821E+01   -1.2559212679E+01
   -1.2498931757E+01   -1.2439232340E+01   -1.2380104937E+01   -1.2321540272E+01
   -1.2263529294E+01   -1.2206063167E+01   -1.2149133274E+01   -1.2092731214E+01
   -1.2036848798E+01   -1.1981478053E+01   -1.1926611209E+01   -1.1872240706E+01
   -1.1818359187E+01   -1.1764959495E+01   -1.1712034670E+01   -1.1659577945E+01
   -1.1607582741E+01   -1.1556042667E+01   -1.1504951511E+01   -1.1454303239E+01
   -1.1404091987E+01   -1.1354312059E+01   -1.1304957922E+01   -1.1256024192E+01
   -1.1207505636E+01   -1.1159397174E+01   -1.1111693854E+01   -1.1064390854E+01
   -1.1017483479E+01   -1.0970967149E+01   -1.0924837394E+01   -1.0879089844E+01
   -1.0833720226E+01   -1.0788724354E+01   -1.0744098124E+01   -1.0699837502E+01
   -1.0655938526E+01   -1.0612397289E+01   -1.0569209941E+01   -1.0526372681E+01
   -1.0483881747E+01   -1.0441733418E+01   -1.0399924003E+01   -1.0358449841E+01
   -1.0317307294E+01   -1.0276492748E+01   -1.0236002605E+01   -1.0195833285E+01
   -1.0155981222E+01   -1.0116442865E+01   -1.0077214675E+01   -1.0038293125E+01
   -9.9996747030E+00   -9.9613559093E+00   -9.9233332593E+00   -9.8856032844E+00
   -9.8481625340E+00   -9.8110075773E+00   -9.7741350056E+00   -9.7375414346E+00
   -9.7012235071E+00   -9.6651778958E+00   -9.6294013056E+00   -9.5938904767E+00
   -9.5586421875E+00   -9.5236532569E+00   -9.4889205471E+00   -9.4544409662E+00
   -9.4202114704E+00   -9.3862290662E+00   -9.3524908125E+00   -9.3189938221E+00
   -9.2857352634E+00   -9.2527123616E+00   -9.2199223997E+00   -9.1873627189E+00
   -9.1550307196E+00   -9.1229238611E+00   -9.0910396615E+00   -9.0593756977E+00
   -9.0279296038E+00   -8.9966990713E+00   -8.9656818471E+00   -8.9348757322E+00
   -8.9042785805E+00   -8.8738882966E+00   -8.8437028336E+00   -8.8137201917E+00
   -8.7839384153E+00   -8.7543555907E+00   -8.7249698440E+00   -8.6957793383E+00
   -8.6667822713E+00   -8.6379768728E+00   -8.6093614019E+00   -8.5809341452E+00
   -8.5526934136E+00   -8.5246375407E+00   -8.4967648799E+00   -8.4690738031E+00
   -8.4415626978E+00   -8.4142299662E+00   -8.3870740229E+00   -8.3600932935E+00
   -8.3332862137E+00   -8.3066512277E+00   -8.2801867871E+00   -8.2538913506E+00
   -8.2277633831E+00   -8.2018013554E+00   -8.1760037434E+00   -8.1503690289E+00
   -8.1248956987E+00   -8.0995822453E+00   -8.0744271674E+00   -8.0494289697E+00
   -8.0245861638E+00   -7.9998972691E+00   -7.9753608131E+00   -7.9509753323E+00
   -7.9267393733E+00   -7.9026514931E+00   -7.8787102609E+00   -7.8549142583E+00
   -7.8312620804E+00   -7.8077523370E+00   -7.7843836531E+00   -7.7611546701E+00
   -7.7380640464E+00   -7.7151104583E+00   -7.6922926004E+00   -7.6696091867E+00
   -7.6470589508E+00   -7.6246406463E+00   -7.6023530476E+00   -7.5801949496E+00
   -7.5581651683E+00   -7.5362625408E+00   -7.5144859253E+00   -7.4928341996E+00
   -7.4713062667E+00   -7.4499010676E+00   -7.4286174923E+00   -7.4074544462E+00
   -7.3864110671E+00   -7.3654863797E+00   -7.3446795592E+00   -7.3239900052E+00
   -7.3034139623E+00   -7.2829439961E+00   -7.2625792394E+00   -7.2423317262E+00
   -7.2222103234E+00   -7.2022071414E+00   -7.1823125201E+00   -7.1625261636E+00
   -7.1428487144E+00   -7.1232792717E+00   -7.1038167628E+00   -7.0844603149E+00
   -7.0652090726E+00   -7.0460621635E+00   -7.0270187504E+00   -7.0080779981E+00
   -6.9892390780E+00   -6.9705011710E+00   -6.9518634668E+00   -6.9333251639E+00
   -6.9148854691E+00   -6.8965435977E+00   -6.8782987734E+00   -6.8601502280E+00
   -6.8420972014E+00   -6.8241389415E+00   -6.8062747040E+00   -6.7885037525E+00
   -6.7708253582E+00   -6.7532387998E+00   -6.7357433636E+00   -6.7183383433E+00
   -6.7010230397E+00   -6.6837967609E+00   -6.6666588222E+00   -6.6496085457E+00
   -6.6326452606E+00   -6.6157683028E+00   -6.5989770149E+00   -6.5822707464E+00
   -6.5656488532E+00   -6.5491106976E+00   -6.5326556485E+00   -6.5162830810E+00
   -6.4999923765E+00   -6.4837829225E+00   -6.4676541128E+00   -6.4516053470E+00
   -6.4356360306E+00   -6.4197455753E+00   -6.4039333983E+00   -6.3881989225E+00
   -6.3725415768E+00   -6.3569607952E+00   -6.3414560177E+00   -6.3260266893E+00
   -6.3106722609E+00   -6.2953921882E+00   -6.2801859325E+00   -6.2650529601E+00
   -6.2499927426E+00   -6.2350047566E+00   -6.2200884837E+00   -6.2052434103E+00
   -6.1904690280E+00   -6.1757648330E+00   -6.1611303264E+00   -6.1465650138E+00
   -6.1320684058E+00   -6.1176400174E+00   -6.1032793680E+00   -6.0889859819E+00
   -6.0747593876E+00   -6.0605991179E+00   -6.0465047102E+00   -6.0324757060E+00
   -6.0185116511E+00   -6.0046120956E+00   -5.9907765935E+00   -5.9770047032E+00
   -5.9632959870E+00   -5.9496500111E+00   -5.9360663458E+00   -5.9225445654E+00
   -5.9090842478E+00   -5.8956849750E+00   -5.8823463327E+00   -5.8690679102E+00
   -5.8558493007E+00   -5.8426901009E+00   -5.8295899112E+00   -5.8165483356E+00
   -5.8035649815E+00   -5.7906394600E+00   -5.7777713855E+00   -5.7649603759E+00
   -5.7522060524E+00   -5.7395080396E+00   -5.7268659655E+00   -5.7142794612E+00
   -5.7017481610E+00   -5.6892717027E+00   -5.6768497270E+00   -5.6644818778E+00
   -5.6521678021E+00   -5.6399071499E+00   -5.6276995744E+00   -5.6155447316E+00
   -5.6034422806E+00   -5.5913918833E+00   -5.5793932048E+00   -5.5674459127E+00
   -5.5555496776E+00   -5.5437041729E+00   -5.5319090749E+00   -5.5201640624E+00
   -5.5084688172E+00   -5.4968230235E+00   -5.4852263684E+00   -5.4736785415E+00
   -5.4621792351E+00   -5.4507281440E+00   -5.4393249656E+00   -5.4279693998E+00
   -5.4166611491E+00   -5.4053999184E+00   -5.3941854149E+00   -5.3830173484E+00
   -5.3718954312E+00   -5.3608193777E+00   -5.3497889049E+00   -5.3388037319E+00
   -5.3278635803E+00   -5.3169681738E+00   -5.3061172385E+00   -5.2953105027E+00
   -5.2845476969E+00   -5.2738285537E+00   -5.2631528080E+00   -5.2525201967E+00
   -5.2419304590E+00   -5.2313833361E+00   -5.2208785712E+00   -5.2104159097E+00
   -5.1999950990E+00   -5.1896158884E+00   -5.1792780294E+00   -5.1689812752E+00
   -5.1587253813E+00   -5.1485101049E+00   -5.1383352052E+00   -5.1282004432E+00
   -5.1181055820E+00   -5.1080503862E+00   -5.0980346227E+00   -5.0880580599E+00
   -5.0781204682E+00   -5.0682216195E+00   -5.0583612878E+00   -5.0485392487E+00
   -5.0387552795E+00   -5.0290091594E+00   -5.0193006692E+00   -5.0096295913E+00
   -4.9999957098E+00   -4.9903988107E+00   -4.9808386813E+00   -4.9713151107E+00
   -4.9618278897E+00   -4.9523768104E+00   -4.9429616668E+00   -4.9335822543E+00
   -4.9242383699E+00   -4.9149298121E+00   -4.9056563809E+00   -4.8964178778E+00
   -4.8872141059E+00   -4.8780448698E+00   -4.8689099753E+00   -4.8598092299E+00
   -4.8507424425E+00   -4.8417094234E+00   -4.8327099842E+00   -4.8237439380E+00
   -4.8148110994E+00   -4.8059112841E+00   -4.7970443095E+00   -4.7882099940E+00
   -4.7794081575E+00   -4.7706386212E+00   -4.7619012078E+00   -4.7531957409E+00
   -4.7445220457E+00   -4.7358799486E+00   -4.7272692772E+00   -4.7186898605E+00
   -4.7101415284E+00   -4.7016241125E+00   -4.6931374453E+00   -4.6846813606E+00
   -4.6762556934E+00   -4.6678602797E+00   -4.6594949571E+00   -4.6511595639E+00
   -4.6428539399E+00   -4.6345779259E+00   -4.6263313637E+00   -4.6181140964E+00
   -4.6099259683E+00   -4.6017668246E+00   -4.5936365117E+00   -4.5855348769E+00
   -4.5774617689E+00   -4.5694170373E+00   -4.5614005326E+00   -4.5534121067E+00
   -4.5454516121E+00   -4.5375189027E+00   -4.5296138333E+00   -4.5217362596E+00
   -4.5138860385E+00   -4.5060630276E+00   -4.4982670859E+00   -4.4904980730E+00
   -4.4827558496E+00   -4.4750402774E+00   -4.4673512191E+00   -4.4596885382E+00
   -4.4520520992E+00   -4.4444417674E+00   -4.4368574094E+00   -4.4292988923E+00
   -4.4217660842E+00   -4.4142588543E+00   -4.4067770724E+00   -4.3993206094E+00
   -4.3918893370E+00   -4.3844831278E+00   -4.3771018551E+00   -4.3697453932E+00
   -4.3624136172E+00   -4.3551064032E+00   -4.3478236278E+00   -4.3405651687E+00
   -4.3333309043E+00   -4.3261207138E+00   -4.3189344772E+00   -4.3117720754E+00
   -4.3046333900E+00   -4.2975183034E+00   -4.2904266987E+00   -4.2833584599E+00
   -4.2763134717E+00   -4.2692916196E+00   -4.2622927898E+00   -4.2553168692E+00
   -4.2483637456E+00   -4.2414333074E+00   -4.2345254437E+00   -4.2276400444E+00
   -4.2207770001E+00   -4.2139362022E+00   -4.2071175426E+00   -4.2003209140E+00
   -4.1935462098E+00   -4.1867933242E+00   -4.1800621519E+00   -4.1733525882E+00
   -4.1666645295E+00   -4.1599978723E+00   -4.1533525142E+00   -4.1467283532E+00
   -4.1401252881E+00   -4.1335432183E+00   -4.1269820437E+00   -4.1204416651E+00
   -4.1139219838E+00   -4.1074229016E+00   -4.1009443210E+00   -4.0944861453E+00
   -4.0880482781E+00   -4.0816306239E+00   -4.0752330875E+00   -4.0688555746E+00
   -4.0624979912E+00   -4.0561602441E+00   -4.0498422407E+00   -4.0435438887E+00
   -4.0372650966E+00   -4.0310057736E+00   -4.0247658291E+00   -4.0185451733E+00
   -4.0123437169E+00   -4.0061613711E+00   -3.9999980478E+00   -3.9938536593E+00
   -3.9877281185E+00   -3.9816213388E+00   -3.9755332341E+00   -3.9694637188E+00
   -3.9634127081E+00   -3.9573801174E+00   -3.9513658626E+00   -3.9453698604E+00
   -3.9393920278E+00   -3.9334322822E+00   -3.9274905419E+00   -3.9215667252E+00
   -3.9156607511E+00   -3.9097725393E+00   -3.9039020097E+00   -3.8980490828E+00
   -3.8922136794E+00   -3.8863957211E+00   -3.8805951298E+00   -3.8748118277E+00
   -3.8690457377E+00   -3.8632967830E+00   -3.8575648875E+00   -3.8518499752E+00
   -3.8461519709E+00   -3.8404707996E+00   -3.8348063868E+00   -3.8291586584E+00
   -3.8235275409E+00   -3.8179129611E+00   -3.8123148463E+00   -3.8067331241E+00
   -3.8011677226E+00   -3.7956185704E+00   -3.7900855963E+00   -3.7845687298E+00
   -3.7790679007E+00   -3.7735830390E+00   -3.7681140754E+00   -3.7626609408E+00
   -3.7572235667E+00   -3.7518018847E+00   -3.7463958272E+00   -3.7410053265E+00
   -3.7356303157E+00   -3.7302707281E+00   -3.7249264975E+00   -3.7195975578E+00
   -3.7142838436E+00   -3.7089852897E+00   -3.7037018314E+00   -3.6984334042E+00
   -3.6931799440E+00   -3.6879413872E+00   -3.6827176705E+00   -3.6775087308E+00
   -3.6723145056E+00   -3.6671349326E+00   -3.6619699499E+00   -3.6568194959E+00
   -3.6516835094E+00   -3.6465619296E+00   -3.6414546959E+00   -3.6363617482E+00
   -3.6312830265E+00   -3.6262184713E+00   -3.6211680235E+00   -3.6161316242E+00
   -3.6111092149E+00   -3.6061007373E+00   -3.6011061335E+00   -3.5961253461E+00
   -3.5911583177E+00   -3.5862049914E+00   -3.5812653107E+00   -3.5763392191E+00
   -3.5714266607E+00   -3.5665275798E+00   -3.5616419211E+00   -3.5567696293E+00
   -3.5519106498E+00   -3.5470649281E+00   -3.5422324100E+00   -3.5374130415E+00
   -3.5326067692E+00   -3.5278135396E+00   -3.5230332998E+00   -3.5182659970E+00
   -3.5135115788E+00   -3.5087699931E+00   -3.5040411879E+00   -3.4993251116E+00
   -3.4946217130E+00   -3.4899309409E+00   -3.4852527446E+00   -3.4805870736E+00
   -3.4759338776E+00   -3.4712931068E+00   -3.4666647113E+00   -3.4620486418E+00
   -3.4574448490E+00   -3.4528532841E+00   -3.4482738985E+00   -3.4437066437E+00
   -3.4391514715E+00   -3.4346083342E+00   -3.4300771840E+00   -3.4255579737E+00
   -3.4210506560E+00   -3.4165551840E+00   -3.4120715113E+00   -3.4075995913E+00
   -3.4031393778E+00   -3.3986908251E+00   -3.3942538875E+00   -3.3898285194E+00
   -3.3854146757E+00   -3.3810123115E+00   -3.3766213820E+00   -3.3722418428E+00
   -3.3678736495E+00   -3.3635167582E+00   -3.3591711250E+00   -3.3548367063E+00
   -3.3505134589E+00   -3.3462013395E+00   -3.3419003053E+00   -3.3376103135E+00
   -3.3333313218E+00   -3.3290632878E+00   -3.3248061695E+00   -3.3205599251E+00
   -3.3163245129E+00   -3.3120998917E+00   -3.3078860202E+00   -3.3036828573E+00
   -3.2994903625E+00   -3.2953084950E+00   -3.2911372145E+00   -3.2869764809E+00
   -3.2828262543E+00   -3.2786864948E+00   -3.2745571630E+00   -3.2704382194E+00
   -3.2663296250E+00   -3.2622313408E+00   -3.2581433280E+00   -3.2540655480E+00
   -3.2499979625E+00   -3.2459405333E+00   -3.2418932224E+00   -3.2378559921E+00
   -3.2338288046E+00   -3.2298116226E+00   -3.2258044088E+00   -3.2218071262E+00
   -3.2178197378E+00   -3.2138422071E+00   -3.2098744975E+00   -3.2059165726E+00
   -3.2019683964E+00   -3.1980299328E+00   -3.1941011460E+00   -3.1901820005E+00
   -3.1862724607E+00   -3.1823724915E+00   -3.1784820577E+00   -3.1746011244E+00
   -3.1707296567E+00   -3.1668676203E+00   -3.1630149805E+00   -3.1591717032E+00
   -3.1553377543E+00   -3.1515130998E+00   -3.1476977061E+00   -3.1438915394E+00
   -3.1400945664E+00   -3.1363067538E+00   -3.1325280686E+00   -3.1287584776E+00
   -3.1249979482E+00   -3.1212464478E+00   -3.1175039437E+00   -3.1137704038E+00
   -3.1100457958E+00   -3.1063300878E+00   -3.1026232478E+00   -3.0989252443E+00
   -3.0952360455E+00   -3.0915556201E+00   -3.0878839368E+00   -3.0842209646E+00
   -3.0805666724E+00   -3.0769210295E+00   -3.0732840052E+00   -3.0696555689E+00
   -3.0660356903E+00   -3.0624243391E+00   -3.0588214852E+00   -3.0552270988E+00
   -3.0516411498E+00   -3.0480636088E+00   -3.0444944461E+00   -3.0409336324E+00
   -3.0373811384E+00   -3.0338369349E+00   -3.0303009930E+00   -3.0267732839E+00
   -3.0232537787E+00   -3.0197424490E+00   -3.0162392663E+00   -3.0127442022E+00
   -3.0092572285E+00   -3.0057783173E+00   -3.0023074405E+00   -2.9988445704E+00
   -2.9953896793E+00   -2.9919427396E+00   -2.9885037240E+00   -2.9850726052E+00
   -2.9816493558E+00   -2.9782339491E+00   -2.9748263579E+00   -2.9714265555E+00
   -2.9680345153E+00   -2.9646502107E+00   -2.9612736152E+00   -2.9579047026E+00
   -2.9545434466E+00   -2.9511898212E+00   -2.9478438004E+00   -2.9445053584E+00
   -2.9411744695E+00   -2.9378511080E+00   -2.9345352485E+00   -2.9312268657E+00
   -2.9279259341E+00   -2.9246324288E+00   -2.9213463246E+00   -2.9180675967E+00
   -2.9147962202E+00   -2.9115321704E+00   -2.9082754228E+00   -2.9050259529E+00
   -2.9017837363E+00   -2.8985487488E+00   -2.8953209661E+00   -2.8921003643E+00
   -2.8888869194E+00   -2.8856806077E+00   -2.8824814052E+00   -2.8792892886E+00
   -2.8761042341E+00   -2.8729262185E+00   -2.8697552184E+00   -2.8665912106E+00
   -2.8634341721E+00   -2.8602840797E+00   -2.8571409106E+00   -2.8540046421E+00
   -2.8508752513E+00   -2.8477527158E+00   -2.8446370129E+00   -2.8415281204E+00
   -2.8384260159E+00   -2.8353306771E+00   -2.8322420821E+00   -2.8291602087E+00
   -2.8260850351E+00   -2.8230165394E+00   -2.8199546999E+00   -2.8168994949E+00
   -2.8138509030E+00   -2.8108089026E+00   -2.8077734725E+00   -2.8047445913E+00
   -2.8017222379E+00   -2.7987063912E+00   -2.7956970303E+00   -2.7926941341E+00
   -2.7896976820E+00   -2.7867076531E+00   -2.7837240269E+00   -2.7807467828E+00
   -2.7777759004E+00   -2.7748113592E+00   -2.7718531390E+00   -2.7689012197E+00
   -2.7659555811E+00   -2.7630162031E+00   -2.7600830659E+00   -2.7571561495E+00
   -2.7542354343E+00   -2.7513209005E+00   -2.7484125285E+00   -2.7455102988E+00
   -2.7426141920E+00   -2.7397241888E+00   -2.7368402697E+00   -2.7339624157E+00
   -2.7310906076E+00   -2.7282248264E+00   -2.7253650532E+00   -2.7225112690E+00
   -2.7196634551E+00   -2.7168215928E+00   -2.7139856634E+00   -2.7111556484E+00
   -2.7083315292E+00   -2.7055132876E+00   -2.7027009050E+00   -2.6998943634E+00
   -2.6970936445E+00   -2.6942987302E+00   -2.6915096025E+00   -2.6887262434E+00
   -2.6859486351E+00   -2.6831767598E+00   -2.6804105996E+00   -2.6776501371E+00
   -2.6748953545E+00   -2.6721462343E+00   -2.6694027592E+00   -2.6666649118E+00
   -2.6639326747E+00   -2.6612060308E+00   -2.6584849628E+00   -2.6557694537E+00
   -2.6530594865E+00   -2.6503550442E+00   -2.6476561099E+00   -2.6449626669E+00
   -2.6422746984E+00   -2.6395921876E+00   -2.6369151181E+00   -2.6342434733E+00
   -2.6315772367E+00   -2.6289163918E+00   -2.6262609225E+00   -2.6236108123E+00
   -2.6209660451E+00   -2.6183266047E+00   -2.6156924751E+00   -2.6130636402E+00
   -2.6104400841E+00   -2.6078217909E+00   -2.6052087449E+00   -2.6026009301E+00
   -2.5999983310E+00   -2.5974009319E+00   -2.5948087173E+00   -2.5922216716E+00
   -2.5896397794E+00   -2.5870630252E+00   -2.5844913939E+00   -2.5819248701E+00
   -2.5793634386E+00   -2.5768070843E+00   -2.5742557920E+00   -2.5717095469E+00
   -2.5691683339E+00   -2.5666321380E+00   -2.5641009446E+00   -2.5615747387E+00
   -2.5590535057E+00   -2.5565372309E+00   -2.5540258997E+00   -2.5515194974E+00
   -2.5490180097E+00   -2.5465214221E+00   -2.5440297202E+00   -2.5415428896E+00
   -2.5390609162E+00   -2.5365837856E+00   -2.5341114837E+00   -2.5316439965E+00
   -2.5291813099E+00   -2.5267234098E+00   -2.5242702823E+00   -2.5218219136E+00
   -2.5193782898E+00   -2.5169393971E+00   -2.5145052218E+00   -2.5120757502E+00
   -2.5096509688E+00   -2.5072308639E+00   -2.5048154220E+00   -2.5024046297E+00
   -2.4999984735E+00   -2.4975969401E+00   -2.4952000162E+00   -2.4928076885E+00
   -2.4904199438E+00   -2.4880367689E+00   -2.4856581508E+00   -2.4832840764E+00
   -2.4809145327E+00   -2.4785495067E+00   -2.4761889855E+00   -2.4738329563E+00
   -2.4714814062E+00   -2.4691343225E+00   -2.4667916925E+00   -2.4644535035E+00
   -2.4621197429E+00   -2.4597903981E+00   -2.4574654566E+00   -2.4551449060E+00
   -2.4528287337E+00   -2.4505169275E+00   -2.4482094749E+00   -2.4459063638E+00
   -2.4436075818E+00   -2.4413131168E+00   -2.4390229566E+00   -2.4367370891E+00
   -2.4344555023E+00   -2.4321781841E+00   -2.4299051226E+00   -2.4276363058E+00
   -2.4253717220E+00   -2.4231113591E+00   -2.4208552055E+00   -2.4186032494E+00
   -2.4163554791E+00   -2.4141118829E+00   -2.4118724492E+00   -2.4096371665E+00
   -2.4074060232E+00   -2.4051790079E+00   -2.4029561090E+00   -2.4007373152E+00
   -2.3985226151E+00   -2.3963119974E+00   -2.3941054508E+00   -2.3919029641E+00
   -2.3897045262E+00   -2.3875101257E+00   -2.3853197517E+00   -2.3831333930E+00
   -2.3809510387E+00   -2.3787726776E+00   -2.3765982990E+00   -2.3744278918E+00
   -2.3722614453E+00   -2.3700989485E+00   -2.3679403907E+00   -2.3657857611E+00
   -2.3636350490E+00   -2.3614882437E+00   -2.3593453347E+00   -2.3572063112E+00
   -2.3550711628E+00   -2.3529398789E+00   -2.3508124491E+00   -2.3486888629E+00
   -2.3465691098E+00   -2.3444531796E+00   -2.3423410618E+00   -2.3402327463E+00
   -2.3381282227E+00   -2.3360274808E+00   -2.3339305104E+00   -2.3318373014E+00
   -2.3297478437E+00   -2.3276621272E+00   -2.3255801418E+00   -2.3235018776E+00
   -2.3214273246E+00   -2.3193564728E+00   -2.3172893124E+00   -2.3152258335E+00
   -2.3131660263E+00   -2.3111098809E+00   -2.3090573877E+00   -2.3070085369E+00
   -2.3049633188E+00   -2.3029217237E+00   -2.3008837421E+00   -2.2988493643E+00
   -2.2968185809E+00   -2.2947913822E+00   -2.2927677589E+00   -2.2907477014E+00
   -2.2887312004E+00   -2.2867182464E+00   -2.2847088301E+00   -2.2827029422E+00
   -2.2807005734E+00   -2.2787017144E+00   -2.2767063561E+00   -2.2747144892E+00
   -2.2727261046E+00   -2.2707411932E+00   -2.2687597458E+00   -2.2667817535E+00
   -2.2648072071E+00   -2.2628360977E+00   -2.2608684163E+00   -2.2589041540E+00
   -2.2569433019E+00   -2.2549858511E+00   -2.2530317927E+00   -2.2510811180E+00
   -2.2491338182E+00   -2.2471898844E+00   -2.2452493081E+00   -2.2433120805E+00
   -2.2413781930E+00   -2.2394476368E+00   -2.2375204035E+00   -2.2355964844E+00
   -2.2336758710E+00   -2.2317585548E+00   -2.2298445273E+00   -2.2279337801E+00
   -2.2260263047E+00   -2.2241220927E+00   -2.2222211358E+00   -2.2203234256E+00
   -2.2184289538E+00   -2.2165377121E+00   -2.2146496923E+00   -2.2127648862E+00
   -2.2108832855E+00   -2.2090048821E+00   -2.2071296679E+00   -2.2052576347E+00
   -2.2033887744E+00   -2.2015230789E+00   -2.1996605404E+00   -2.1978011506E+00
   -2.1959449018E+00   -2.1940917858E+00   -2.1922417948E+00   -2.1903949209E+00
   -2.1885511562E+00   -2.1867104929E+00   -2.1848729231E+00   -2.1830384391E+00
   -2.1812070331E+00   -2.1793786974E+00   -2.1775534241E+00   -2.1757312058E+00
   -2.1739120346E+00   -2.1720959029E+00   -2.1702828032E+00   -2.1684727279E+00
   -2.1666656693E+00   -2.1648616200E+00   -2.1630605725E+00   -2.1612625191E+00
   -2.1594674526E+00   -2.1576753655E+00   -2.1558862503E+00   -2.1541000997E+00
   -2.1523169063E+00   -2.1505366627E+00   -2.1487593617E+00   -2.1469849959E+00
   -2.1452135582E+00   -2.1434450412E+00   -2.1416794377E+00   -2.1399167406E+00
   -2.1381569426E+00   -2.1364000367E+00   -2.1346460157E+00   -2.1328948724E+00
   -2.1311465999E+00   -2.1294011911E+00   -2.1276586389E+00   -2.1259189363E+00
   -2.1241820764E+00   -2.1224480522E+00   -2.1207168567E+00   -2.1189884831E+00
   -2.1172629244E+00   -2.1155401738E+00   -2.1138202244E+00   -2.1121030693E+00
   -2.1103887019E+00   -2.1086771153E+00   -2.1069683027E+00   -2.1052622574E+00
   -2.1035589727E+00   -2.1018584419E+00   -2.1001606584E+00   -2.0984656154E+00
   -2.0967733063E+00   -2.0950837245E+00   -2.0933968636E+00   -2.0917127167E+00
   -2.0900312775E+00   -2.0883525395E+00   -2.0866764960E+00   -2.0850031406E+00
   -2.0833324669E+00   -2.0816644684E+00   -2.0799991387E+00   -2.0783364714E+00
   -2.0766764601E+00   -2.0750190985E+00   -2.0733643802E+00   -2.0717122989E+00
   -2.0700628483E+00   -2.0684160221E+00   -2.0667718140E+00   -2.0651302179E+00
   -2.0634912275E+00   -2.0618548367E+00   -2.0602210391E+00   -2.0585898287E+00
   -2.0569611993E+00   -2.0553351449E+00   -2.0537116592E+00   -2.0520907363E+00
   -2.0504723700E+00   -2.0488565544E+00   -2.0472432833E+00   -2.0456325508E+00
   -2.0440243509E+00   -2.0424186776E+00   -2.0408155251E+00   -2.0392148872E+00
   -2.0376167582E+00   -2.0360211322E+00   -2.0344280032E+00   -2.0328373654E+00
   -2.0312492129E+00   -2.0296635401E+00   -2.0280803409E+00   -2.0264996098E+00
   -2.0249213408E+00   -2.0233455283E+00   -2.0217721665E+00   -2.0202012497E+00
   -2.0186327722E+00   -2.0170667284E+00   -2.0155031125E+00   -2.0139419189E+00
   -2.0123831421E+00   -2.0108267763E+00   -2.0092728161E+00   -2.0077212558E+00
   -2.0061720899E+00   -2.0046253128E+00   -2.0030809190E+00   -2.0015389031E+00
   -1.9999992595E+00   -1.9984619827E+00   -1.9969270674E+00   -1.9953945080E+00
   -1.9938642992E+00   -1.9923364355E+00   -1.9908109116E+00   -1.9892877220E+00
   -1.9877668615E+00   -1.9862483247E+00   -1.9847321063E+00   -1.9832182010E+00
   -1.9817066034E+00   -1.9801973083E+00   -1.9786903105E+00   -1.9771856047E+00
   -1.9756831856E+00   -1.9741830482E+00   -1.9726851871E+00   -1.9711895973E+00
   -1.9696962734E+00   -1.9682052105E+00   -1.9667164034E+00   -1.9652298468E+00
   -1.9637455359E+00   -1.9622634654E+00   -1.9607836303E+00   -1.9593060256E+00
   -1.9578306461E+00   -1.9563574870E+00   -1.9548865431E+00   -1.9534178095E+00
   -1.9519512812E+00   -1.9504869532E+00   -1.9490248207E+00   -1.9475648786E+00
   -1.9461071220E+00   -1.9446515461E+00   -1.9431981459E+00   -1.9417469166E+00
   -1.9402978533E+00   -1.9388509511E+00   -1.9374062053E+00   -1.9359636111E+00
   -1.9345231635E+00   -1.9330848579E+00   -1.9316486894E+00   -1.9302146533E+00
   -1.9287827448E+00   -1.9273529593E+00   -1.9259252920E+00   -1.9244997382E+00
   -1.9230762931E+00   -1.9216549522E+00   -1.9202357108E+00   -1.9188185642E+00
   -1.9174035078E+00   -1.9159905369E+00   -1.9145796470E+00   -1.9131708335E+00
   -1.9117640917E+00   -1.9103594172E+00   -1.9089568053E+00   -1.9075562515E+00
   -1.9061577513E+00   -1.9047613003E+00   -1.9033668938E+00   -1.9019745274E+00
   -1.9005841966E+00   -1.8991958970E+00   -1.8978096240E+00   -1.8964253734E+00
   -1.8950431406E+00   -1.8936629213E+00   -1.8922847110E+00   -1.8909085054E+00
   -1.8895343001E+00   -1.8881620907E+00   -1.8867918730E+00   -1.8854236424E+00
   -1.8840573949E+00   -1.8826931259E+00   -1.8813308313E+00   -1.8799705068E+00
   -1.8786121480E+00   -1.8772557507E+00   -1.8759013108E+00   -1.8745488239E+00
   -1.8731982858E+00   -1.8718496923E+00   -1.8705030393E+00   -1.8691583225E+00
   -1.8678155377E+00   -1.8664746809E+00   -1.8651357478E+00   -1.8637987343E+00
   -1.8624636363E+00   -1.8611304497E+00   -1.8597991704E+00   -1.8584697942E+00
   -1.8571423172E+00   -1.8558167352E+00   -1.8544930441E+00   -1.8531712401E+00
   -1.8518513189E+00   -1.8505332766E+00   -1.8492171092E+00   -1.8479028127E+00
   -1.8465903831E+00   -1.8452798164E+00   -1.8439711087E+00   -1.8426642559E+00
   -1.8413592543E+00   -1.8400560997E+00   -1.8387547884E+00   -1.8374553164E+00
   -1.8361576798E+00   -1.8348618747E+00   -1.8335678973E+00   -1.8322757437E+00
   -1.8309854100E+00   -1.8296968923E+00   -1.8284101870E+00   -1.8271252901E+00
   -1.8258421978E+00   -1.8245609063E+00   -1.8232814119E+00   -1.8220037107E+00
   -1.8207277991E+00   -1.8194536732E+00   -1.8181813292E+00   -1.8169107636E+00
   -1.8156419724E+00   -1.8143749521E+00   -1.8131096989E+00   -1.8118462091E+00
   -1.8105844791E+00   -1.8093245051E+00   -1.8080662835E+00   -1.8068098106E+00
   -1.8055550828E+00   -1.8043020965E+00   -1.8030508481E+00   -1.8018013339E+00
   -1.8005535503E+00   -1.7993074937E+00   -1.7980631606E+00   -1.7968205474E+00
   -1.7955796505E+00   -1.7943404663E+00   -1.7931029914E+00   -1.7918672221E+00
   -1.7906331551E+00   -1.7894007866E+00   -1.7881701133E+00   -1.7869411317E+00
   -1.7857138382E+00   -1.7844882294E+00   -1.7832643018E+00   -1.7820420519E+00
   -1.7808214764E+00   -1.7796025718E+00   -1.7783853346E+00   -1.7771697614E+00
   -1.7759558489E+00   -1.7747435935E+00   -1.7735329920E+00   -1.7723240410E+00
   -1.7711167370E+00   -1.7699110767E+00   -1.7687070567E+00   -1.7675046738E+00
   -1.7663039246E+00   -1.7651048057E+00   -1.7639073138E+00   -1.7627114456E+00
   -1.7615171979E+00   -1.7603245672E+00   -1.7591335504E+00   -1.7579441442E+00
   -1.7567563453E+00   -1.7555701505E+00   -1.7543855564E+00   -1.7532025599E+00
   -1.7520211577E+00   -1.7508413467E+00   -1.7496631235E+00   -1.7484864851E+00
   -1.7473114282E+00   -1.7461379495E+00   -1.7449660460E+00   -1.7437957145E+00
   -1.7426269518E+00   -1.7414597547E+00   -1.7402941202E+00   -1.7391300450E+00
   -1.7379675261E+00   -1.7368065603E+00   -1.7356471445E+00   -1.7344892756E+00
   -1.7333329506E+00   -1.7321781663E+00   -1.7310249197E+00   -1.7298732077E+00
   -1.7287230271E+00   -1.7275743751E+00   -1.7264272485E+00   -1.7252816443E+00
   -1.7241375595E+00   -1.7229949910E+00   -1.7218539359E+00   -1.7207143910E+00
   -1.7195763536E+00   -1.7184398204E+00   -1.7173047886E+00   -1.7161712553E+00
   -1.7150392173E+00   -1.7139086718E+00   -1.7127796158E+00   -1.7116520464E+00
   -1.7105259607E+00   -1.7094013557E+00   -1.7082782284E+00   -1.7071565761E+00
   -1.7060363957E+00   -1.7049176844E+00   -1.7038004394E+00   -1.7026846576E+00
   -1.7015703363E+00   -1.7004574726E+00   -1.6993460636E+00   -1.6982361064E+00
   -1.6971275983E+00   -1.6960205364E+00   -1.6949149179E+00   -1.6938107399E+00
   -1.6927079996E+00   -1.6916066943E+00   -1.6905068211E+00   -1.6894083772E+00
   -1.6883113598E+00   -1.6872157663E+00   -1.6861215937E+00   -1.6850288394E+00
   -1.6839375006E+00   -1.6828475745E+00   -1.6817590584E+00   -1.6806719496E+00
   -1.6795862453E+00   -1.6785019428E+00   -1.6774190394E+00   -1.6763375324E+00
   -1.6752574191E+00   -1.6741786968E+00   -1.6731013628E+00   -1.6720254144E+00
   -1.6709508491E+00   -1.6698776640E+00   -1.6688058565E+00   -1.6677354241E+00
   -1.6666663640E+00   -1.6655986736E+00   -1.6645323503E+00   -1.6634673915E+00
   -1.6624037945E+00   -1.6613415567E+00   -1.6602806756E+00   -1.6592211484E+00
   -1.6581629728E+00   -1.6571061459E+00   -1.6560506654E+00   -1.6549965285E+00
   -1.6539437328E+00   -1.6528922757E+00   -1.6518421546E+00   -1.6507933670E+00
   -1.6497459104E+00   -1.6486997821E+00   -1.6476549798E+00   -1.6466115008E+00
   -1.6455693427E+00   -1.6445285030E+00   -1.6434889790E+00   -1.6424507685E+00
   -1.6414138688E+00   -1.6403782775E+00   -1.6393439922E+00   -1.6383110103E+00
   -1.6372793293E+00   -1.6362489469E+00   -1.6352198606E+00   -1.6341920679E+00
   -1.6331655664E+00   -1.6321403537E+00   -1.6311164273E+00   -1.6300937848E+00
   -1.6290724239E+00   -1.6280523420E+00   -1.6270335368E+00   -1.6260160060E+00
   -1.6249997470E+00   -1.6239847576E+00   -1.6229710354E+00   -1.6219585779E+00
   -1.6209473828E+00   -1.6199374478E+00   -1.6189287705E+00   -1.6179213486E+00
   -1.6169151796E+00   -1.6159102614E+00   -1.6149065915E+00   -1.6139041676E+00
   -1.6129029874E+00   -1.6119030486E+00   -1.6109043489E+00   -1.6099068860E+00
   -1.6089106575E+00   -1.6079156613E+00   -1.6069218949E+00   -1.6059293562E+00
   -1.6049380429E+00   -1.6039479526E+00   -1.6029590831E+00   -1.6019714323E+00
   -1.6009849977E+00   -1.5999997773E+00   -1.5990157686E+00   -1.5980329696E+00
   -1.5970513779E+00   -1.5960709914E+00   -1.5950918078E+00   -1.5941138249E+00
   -1.5931370406E+00   -1.5921614525E+00   -1.5911870586E+00   -1.5902138565E+00
   -1.5892418442E+00   -1.5882710195E+00   -1.5873013802E+00   -1.5863329240E+00
   -1.5853656489E+00   -1.5843995527E+00   -1.5834346332E+00   -1.5824708883E+00
   -1.5815083159E+00   -1.5805469137E+00   -1.5795866797E+00   -1.5786276118E+00
   -1.5776697077E+00   -1.5767129655E+00   -1.5757573830E+00   -1.5748029580E+00
   -1.5738496886E+00   -1.5728975725E+00   -1.5719466077E+00   -1.5709967921E+00
   -1.5700481236E+00   -1.5691006002E+00   -1.5681542197E+00   -1.5672089802E+00
   -1.5662648795E+00   -1.5653219155E+00   -1.5643800864E+00   -1.5634393899E+00
   -1.5624998240E+00   -1.5615613868E+00   -1.5606240761E+00   -1.5596878900E+00
   -1.5587528264E+00   -1.5578188834E+00   -1.5568860588E+00   -1.5559543507E+00
   -1.5550237571E+00   -1.5540942760E+00   -1.5531659054E+00   -1.5522386433E+00
   -1.5513124877E+00   -1.5503874366E+00   -1.5494634881E+00   -1.5485406402E+00
  </PP_LOCAL>
 <PP_NONLOCAL>
   <PP_BETA.1
       type="real"
       size="1680"
       columns="4"
       index="1"
       angular_momentum="0"
       cutoff_radius_index=" 176"
       cutoff_radius="    1.7500000000E+00" >
   -3.0756952540E-11    5.7651300280E-02    1.1521548241E-01    1.7260560095E-01
    2.2973505515E-01    2.8651775940E-01    3.4286831153E-01    3.9870215818E-01
    4.5393575655E-01    5.0848673203E-01    5.6227403095E-01    6.1521806804E-01
    6.6724086812E-01    7.1826620144E-01    7.6821971255E-01    8.1702904225E-01
    8.6462394244E-01    9.1093638370E-01    9.5590065568E-01    9.9945346000E-01
    1.0415339960E+00    1.0820840396E+00    1.1210480146E+00    1.1583730583E+00
    1.1940090799E+00    1.2279088135E+00    1.2600278657E+00    1.2903247577E+00
    1.3187609631E+00    1.3453009416E+00    1.3699121697E+00    1.3925651674E+00
    1.4132335238E+00    1.4318939194E+00    1.4485261484E+00    1.4631131393E+00
    1.4756409751E+00    1.4860989135E+00    1.4944794080E+00    1.5007781282E+00
    1.5049939822E+00    1.5071291394E+00    1.5071890535E+00    1.5051824882E+00
    1.5011215413E+00    1.4950216716E+00    1.4869017244E+00    1.4767839578E+00
    1.4646940675E+00    1.4506612116E+00    1.4347180318E+00    1.4169006733E+00
    1.3972488005E+00    1.3758056084E+00    1.3526178287E+00    1.3277357293E+00
    1.3012131066E+00    1.2731072694E+00    1.2434790125E+00    1.2123925807E+00
    1.1799156202E+00    1.1461191173E+00    1.1110773238E+00    1.0748676672E+00
    1.0375706454E+00    9.9926970498E-01    9.6005110246E-01    9.2000374773E-01
    8.7921902957E-01    8.3779062259E-01    7.9581427570E-01    7.5338758197E-01
    7.1060973013E-01    6.6758123806E-01    6.2440366878E-01    5.8117932969E-01
    5.3801095599E-01    4.9500137938E-01    4.5225318327E-01    4.0986834611E-01
    3.6794787436E-01    3.2659142700E-01    2.8589693360E-01    2.4596020793E-01
    2.0687455962E-01    1.6873040598E-01    1.3161488673E-01    9.5611484032E-02
    6.0799650499E-02    2.7254447933E-02   -4.9538006269E-03   -3.5759842798E-02
   -6.5103810048E-02   -9.2931509595E-02   -1.1919469249E-01   -1.4385129549E-01
   -1.6686565435E-01   -1.8820868657E-01   -2.0785804149E-01   -2.2579821596E-01
   -2.4202063427E-01   -2.5652369073E-01   -2.6931275411E-01   -2.8040013300E-01
   -2.8980500172E-01   -2.9755328643E-01   -3.0367751178E-01   -3.0821660819E-01
   -3.1121568076E-01   -3.1272574071E-01   -3.1280340063E-01   -3.1151053529E-01
   -3.0891390985E-01   -3.0508477760E-01   -3.0009844987E-01   -2.9403384061E-01
   -2.8697298861E-01   -2.7900056055E-01   -2.7020333807E-01   -2.6066969237E-01
   -2.5048904980E-01   -2.3975135217E-01   -2.2854651541E-01   -2.1696389031E-01
   -2.0509172903E-01   -1.9301666103E-01   -1.8082318205E-01   -1.6859315944E-01
   -1.5640535741E-01   -1.4433498506E-01   -1.3245327027E-01   -1.2082706220E-01
   -1.0951846465E-01   -9.8584502519E-02   -8.8076823302E-02   -7.8041434901E-02
   -6.8518481116E-02   -5.9542055527E-02   -5.1140054245E-02   -4.3334067589E-02
   -3.6139310405E-02   -2.9564590357E-02   -2.3612313148E-02   -1.8278523226E-02
   -1.3552977962E-02   -9.4192604301E-03   -5.8548982626E-03   -2.8321269249E-03
   -3.1947612300E-04    1.7173602176E-03    3.3150699278E-03    4.5122303034E-03
    5.3488120841E-03    5.8656782616E-03    6.1040820581E-03    6.1051682342E-03
    5.9094818505E-03    5.5564885100E-03    5.0841100905E-03    4.5282806488E-03
    3.9225185603E-03    3.2975482512E-03    2.6793838337E-03    2.0870519331E-03
    1.5430157733E-03    1.0659617997E-03    6.6985468922E-04    3.6378668913E-04
    1.5153114936E-04    3.3123461594E-05   -9.6412753171E-07    1.9518995971E-07
   -2.2720360027E-08   -1.4694614324E-12   -5.4506865994E-13    0.0000000000E+00
 0. 0. 0. 0.
 0. 0. 0. 0.
 0. 0. 0. 0.
 0. 0. 0. 0.
 0. 0. 0. 0.
 0. 0. 0. 0.
 0. 0. 0. 0.
 0. 0. 0. 0.
 0. 0. 0. 0.
 0. 0. 0. 0.
 0. 0. 0. 0.
 0. 0. 0. 0.
 0. 0. 0. 0.
 0. 0. 0. 0.
 0. 0. 0. 0.
 0. 0. 0. 0.
 0. 0. 0. 0.
 0. 0. 0. 0.
 0. 0. 0. 0.
 0. 0. 0. 0.
 0. 0. 0. 0.
 0. 0. 0. 0.
 0. 0. 0. 0.
 0. 0. 0. 0.
 0. 0. 0. 0.
 0. 0. 0. 0.
 0. 0. 0. 0.
 0. 0. 0. 0.
 0. 0. 0. 0.
 0. 0. 0. 0.
 0. 0. 0. 0.
 0. 0. 0. 0.
 0. 0. 0. 0.
 0. 0. 0. 0.
 0. 0. 0. 0.
 0. 0. 0. 0.
 0. 0. 0. 0.
 0. 0. 0. 0.
 0. 0. 0. 0.
 0. 0. 0. 0.
 0. 0. 0. 0.
 0. 0. 0. 0.
 0. 0. 0. 0.
 0. 0. 0. 0.
 0. 0. 0. 0.
 0. 0. 0. 0.
 0. 0. 0. 0.
 0. 0. 0. 0.
 0. 0. 0. 0.
 0. 0. 0. 0.
 0. 0. 0. 0.
 0. 0. 0. 0.
 0. 0. 0. 0.
 0. 0. 0. 0.
 0. 0. 0. 0.
 0. 0. 0. 0.
 0. 0. 0. 0.
 0. 0. 0. 0.
 0. 0. 0. 0.
 0. 0. 0. 0.
 0. 0. 0. 0.
 0. 0. 0. 0.
 0. 0. 0. 0.
 0. 0. 0. 0.
 0. 0. 0. 0.
 0. 0. 0. 0.
 0. 0. 0. 0.
 0. 0. 0. 0.
 0. 0. 0. 0.
 0. 0. 0. 0.
 0. 0. 0. 0.
 0. 0. 0. 0.
 0. 0. 0. 0.
 0. 0. 0. 0.
 0. 0. 0. 0.
 0. 0. 0. 0.
 0. 0. 0. 0.
 0. 0. 0. 0.
 0. 0. 0. 0.
 0. 0. 0. 0.
 0. 0. 0. 0.
 0. 0. 0. 0.
 0. 0. 0. 0.
 0. 0. 0. 0.
 0. 0. 0. 0.
 0. 0. 0. 0.
 0. 0. 0. 0.
 0. 0. 0. 0.
 0. 0. 0. 0.
 0. 0. 0. 0.
 0. 0. 0. 0.
 0. 0. 0. 0.
 0. 0. 0. 0.
 0. 0. 0. 0.
 0. 0. 0. 0.
 0. 0. 0. 0.
 0. 0. 0. 0.
 0. 0. 0. 0.
 0. 0. 0. 0.
 0. 0. 0. 0.
 0. 0. 0. 0.
 0. 0. 0. 0.
 0. 0. 0. 0.
 0. 0. 0. 0.
 0. 0. 0. 0.
 0. 0. 0. 0.
 0. 0. 0. 0.
 0. 0. 0. 0.
 0. 0. 0. 0.
 0. 0. 0. 0.
 0. 0. 0. 0.
 0. 0. 0. 0.
 0. 0. 0. 0.
 0. 0. 0. 0.
 0. 0. 0. 0.
 0. 0. 0. 0.
 0. 0. 0. 0.
 0. 0. 0. 0.
 0. 0. 0. 0.
 0. 0. 0. 0.
 0. 0. 0. 0.
 0. 0. 0. 0.
 0. 0. 0. 0.
 0. 0. 0. 0.
 0. 0. 0. 0.
 0. 0. 0. 0.
 0. 0. 0. 0.
 0. 0. 0. 0.
 0. 0. 0. 0.
 0. 0. 0. 0.
 0. 0. 0. 0.
 0. 0. 0. 0.
 0. 0. 0. 0.
 0. 0. 0. 0.
 0. 0. 0. 0.
 0. 0. 0. 0.
 0. 0. 0. 0.
 0. 0. 0. 0.
 0. 0. 0. 0.
 0. 0. 0. 0.
 0. 0. 0. 0.
 0. 0. 0. 0.
 0. 0. 0. 0.
 0. 0. 0. 0.
 0. 0. 0. 0.
 0. 0. 0. 0.
 0. 0. 0. 0.
 0. 0. 0. 0.
 0. 0. 0. 0.
 0. 0. 0. 0.
 0. 0. 0. 0.
 0. 0. 0. 0.
 0. 0. 0. 0.
 0. 0. 0. 0.
 0. 0. 0. 0.
 0. 0. 0. 0.
 0. 0. 0. 0.
 0. 0. 0. 0.
 0. 0. 0. 0.
 0. 0. 0. 0.
 0. 0. 0. 0.
 0. 0. 0. 0.
 0. 0. 0. 0.
 0. 0. 0. 0.
 0. 0. 0. 0.
 0. 0. 0. 0.
 0. 0. 0. 0.
 0. 0. 0. 0.
 0. 0. 0. 0.
 0. 0. 0. 0.
 0. 0. 0. 0.
 0. 0. 0. 0.
 0. 0. 0. 0.
 0. 0. 0. 0.
 0. 0. 0. 0.
 0. 0. 0. 0.
 0. 0. 0. 0.
 0. 0. 0. 0.
 0. 0. 0. 0.
 0. 0. 0. 0.
 0. 0. 0. 0.
 0. 0. 0. 0.
 0. 0. 0. 0.
 0. 0. 0. 0.
 0. 0. 0. 0.
 0. 0. 0. 0.
 0. 0. 0. 0.
 0. 0. 0. 0.
 0. 0. 0. 0.
 0. 0. 0. 0.
 0. 0. 0. 0.
 0. 0. 0. 0.
 0. 0. 0. 0.
 0. 0. 0. 0.
 0. 0. 0. 0.
 0. 0. 0. 0.
 0. 0. 0. 0.
 0. 0. 0. 0.
 0. 0. 0. 0.
 0. 0. 0. 0.
 0. 0. 0. 0.
 0. 0. 0. 0.
 0. 0. 0. 0.
 0. 0. 0. 0.
 0. 0. 0. 0.
 0. 0. 0. 0.
 0. 0. 0. 0.
 0. 0. 0. 0.
 0. 0. 0. 0.
 0. 0. 0. 0.
 0. 0. 0. 0.
 0. 0. 0. 0.
 0. 0. 0. 0.
 0. 0. 0. 0.
 0. 0. 0. 0.
 0. 0. 0. 0.
 0. 0. 0. 0.
 0. 0. 0. 0.
 0. 0. 0. 0.
 0. 0. 0. 0.
 0. 0. 0. 0.
 0. 0. 0. 0.
 0. 0. 0. 0.
 0. 0. 0. 0.
 0. 0. 0. 0.
 0. 0. 0. 0.
 0. 0. 0. 0.
 0. 0. 0. 0.
 0. 0. 0. 0.
 0. 0. 0. 0.
 0. 0. 0. 0.
 0. 0. 0. 0.
 0. 0. 0. 0.
 0. 0. 0. 0.
 0. 0. 0. 0.
 0. 0. 0. 0.
 0. 0. 0. 0.
 0. 0. 0. 0.
 0. 0. 0. 0.
 0. 0. 0. 0.
 0. 0. 0. 0.
 0. 0. 0. 0.
 0. 0. 0. 0.
 0. 0. 0. 0.
 0. 0. 0. 0.
 0. 0. 0. 0.
 0. 0. 0. 0.
 0. 0. 0. 0.
 0. 0. 0. 0.
 0. 0. 0. 0.
 0. 0. 0. 0.
 0. 0. 0. 0.
 0. 0. 0. 0.
 0. 0. 0. 0.
 0. 0. 0. 0.
 0. 0. 0. 0.
 0. 0. 0. 0.
 0. 0. 0. 0.
 0. 0. 0. 0.
 0. 0. 0. 0.
 0. 0. 0. 0.
 0. 0. 0. 0.
 0. 0. 0. 0.
 0. 0. 0. 0.
 0. 0. 0. 0.
 0. 0. 0. 0.
 0. 0. 0. 0.
 0. 0. 0. 0.
 0. 0. 0. 0.
 0. 0. 0. 0.
 0. 0. 0. 0.
 0. 0. 0. 0.
 0. 0. 0. 0.
 0. 0. 0. 0.
 0. 0. 0. 0.
 0. 0. 0. 0.
 0. 0. 0. 0.
 0. 0. 0. 0.
 0. 0. 0. 0.
 0. 0. 0. 0.
 0. 0. 0. 0.
 0. 0. 0. 0.
 0. 0. 0. 0.
 0. 0. 0. 0.
 0. 0. 0. 0.
 0. 0. 0. 0.
 0. 0. 0. 0.
 0. 0. 0. 0.
 0. 0. 0. 0.
 0. 0. 0. 0.
 0. 0. 0. 0.
 0. 0. 0. 0.
 0. 0. 0. 0.
 0. 0. 0. 0.
 0. 0. 0. 0.
 0. 0. 0. 0.
 0. 0. 0. 0.
 0. 0. 0. 0.
 0. 0. 0. 0.
 0. 0. 0. 0.
 0. 0. 0. 0.
 0. 0. 0. 0.
 0. 0. 0. 0.
 0. 0. 0. 0.
 0. 0. 0. 0.
 0. 0. 0. 0.
 0. 0. 0. 0.
 0. 0. 0. 0.
 0. 0. 0. 0.
 0. 0. 0. 0.
 0. 0. 0. 0.
 0. 0. 0. 0.
 0. 0. 0. 0.
 0. 0. 0. 0.
 0. 0. 0. 0.
 0. 0. 0. 0.
 0. 0. 0. 0.
 0. 0. 0. 0.
 0. 0. 0. 0.
 0. 0. 0. 0.
 0. 0. 0. 0.
 0. 0. 0. 0.
 0. 0. 0. 0.
 0. 0. 0. 0.
 0. 0. 0. 0.
 0. 0. 0. 0.
 0. 0. 0. 0.
 0. 0. 0. 0.
 0. 0. 0. 0.
 0. 0. 0. 0.
 0. 0. 0. 0.
 0. 0. 0. 0.
 0. 0. 0. 0.
 0. 0. 0. 0.
 0. 0. 0. 0.
 0. 0. 0. 0.
 0. 0. 0. 0.
 0. 0. 0. 0.
 0. 0. 0. 0.
 0. 0. 0. 0.
 0. 0. 0. 0.
 0. 0. 0. 0.
 0. 0. 0. 0.
 0. 0. 0. 0.
 0. 0. 0. 0.
 0. 0. 0. 0.
 0. 0. 0. 0.
 0. 0. 0. 0.
 0. 0. 0. 0.
 0. 0. 0. 0.
 0. 0. 0. 0.
 0. 0. 0. 0.
 0. 0. 0. 0.
 0. 0. 0. 0.
 0. 0. 0. 0.
 0. 0. 0. 0.
 0. 0. 0. 0.
 0. 0. 0. 0.
 0. 0. 0. 0.
 0. 0. 0. 0.
 0. 0. 0. 0.
 0. 0. 0. 0.
 0. 0. 0. 0.
 0. 0. 0. 0.
 0. 0. 0. 0.
 0. 0. 0. 0.
 0. 0. 0. 0.
 0. 0. 0. 0.
 0. 0. 0. 0.
 0. 0. 0. 0.
 0. 0. 0. 0.
 0. 0. 0. 0.
 0. 0. 0. 0.
 0. 0. 0. 0.
 0. 0. 0. 0.
 0. 0. 0. 0.
   </PP_BETA.1>
   <PP_BETA.2
       type="real"
       size="1680"
       columns="4"
       index="2"
       angular_momentum="0"
       cutoff_radius_index=" 176"
       cutoff_radius="    1.7500000000E+00" >
    1.3932963117E-10   -2.7224264700E-02   -5.4336036345E-02   -8.1223293189E-02
   -1.0777495262E-01   -1.3388133204E-01   -1.5943459942E-01   -1.8432921024E-01
   -2.0846232773E-01   -2.3173422337E-01   -2.5404865489E-01   -2.7531321939E-01
   -2.9543967901E-01   -3.1434425745E-01   -3.3194790542E-01   -3.4817653377E-01
   -3.6296121318E-01   -3.7623833964E-01   -3.8794976552E-01   -3.9804289596E-01
   -4.0647075117E-01   -4.1319199508E-01   -4.1817093148E-01   -4.2137746885E-01
   -4.2278705570E-01   -4.2238058809E-01   -4.2014429169E-01   -4.1606958073E-01
   -4.1015289639E-01   -4.0239552762E-01   -3.9280341715E-01   -3.8138695575E-01
   -3.6816076809E-01   -3.5314349308E-01   -3.3635756200E-01   -3.1782897758E-01
   -2.9758709694E-01   -2.7566442142E-01   -2.5209639598E-01   -2.2692122086E-01
   -2.0017967770E-01   -1.7191497230E-01   -1.4217259588E-01   -1.1100020618E-01
   -7.8447529664E-02   -4.4566285643E-02   -9.4101326875E-03    2.6965362569E-02
    6.4502734588E-02    1.0314260675E-01    1.4282365897E-01    1.8348257654E-01
    2.2505398216E-01    2.6747035320E-01    3.1066192686E-01    3.5455659599E-01
    3.9907979869E-01    4.4415440504E-01    4.8970060454E-01    5.3563579787E-01
    5.8187449687E-01    6.2832823669E-01    6.7490550386E-01    7.2151168436E-01
    7.6804903530E-01    8.1441668414E-01    8.6051065867E-01    9.0622395125E-01
    9.5144662016E-01    9.9606593077E-01    1.0399665388E+00    1.0830307177E+00
    1.1251386308E+00    1.1661686511E+00    1.2059977259E+00    1.2445017900E+00
    1.2815562232E+00    1.3170363533E+00    1.3508180022E+00    1.3827780710E+00
    1.4127951644E+00    1.4407502471E+00    1.4665273312E+00    1.4900141881E+00
    1.5111030806E+00    1.5296915091E+00    1.5456829666E+00    1.5589876956E+00
    1.5695234408E+00    1.5772161896E+00    1.5820008956E+00    1.5838221748E+00
    1.5826349705E+00    1.5784051774E+00    1.5711102187E+00    1.5607395702E+00
    1.5472952224E+00    1.5307920770E+00    1.5112582705E+00    1.4887354188E+00
    1.4632787803E+00    1.4349573298E+00    1.4038537432E+00    1.3700642870E+00
    1.3336986128E+00    1.2948794532E+00    1.2537422207E+00    1.2104345084E+00
    1.1651154939E+00    1.1179552491E+00    1.0691339581E+00    1.0188410469E+00
    9.6727422979E-01    9.1463847819E-01    8.6114491671E-01    8.0700965486E-01
    7.5245256094E-01    6.9769598660E-01    6.4296345068E-01    5.8847829141E-01
    5.3446229657E-01    4.8113432131E-01    4.2870890366E-01    3.7739488786E-01
    3.2739406554E-01    2.7889984489E-01    2.3209595751E-01    1.8715521262E-01
    1.4423830771E-01    1.0349270434E-01    6.5051577268E-02    2.9032844252E-02
   -4.4617165511E-03   -3.5347255803E-02   -6.3556543664E-02   -8.9040557806E-02
   -1.1176896559E-01   -1.3173049823E-01   -1.4893321589E-01   -1.6340466356E-01
   -1.7519191885E-01   -1.8436153367E-01   -1.9099937308E-01   -1.9521035565E-01
   -1.9711810162E-01   -1.9686446496E-01   -1.9460908309E-01   -1.9052625025E-01
   -1.8479849407E-01   -1.7761340013E-01   -1.6916226092E-01   -1.5963858406E-01
   -1.4923660287E-01   -1.3814977675E-01   -1.2656929406E-01   -1.1468258925E-01
   -1.0267188603E-01   -9.0712778091E-02   -7.8972858677E-02   -6.7610412200E-02
   -5.6773159296E-02   -4.6597139708E-02   -3.7201633338E-02   -2.8682940259E-02
   -2.1141346230E-02   -1.4662738387E-02   -9.3160511165E-03   -5.1531865314E-03
   -2.2033430384E-03   -4.9891277820E-04    1.5042561600E-05   -2.9972879157E-06
    3.4107216321E-07    1.3176608417E-12    4.8876112938E-13    0.0000000000E+00
 0. 0. 0. 0.
 0. 0. 0. 0.
 0. 0. 0. 0.
 0. 0. 0. 0.
 0. 0. 0. 0.
 0. 0. 0. 0.
 0. 0. 0. 0.
 0. 0. 0. 0.
 0. 0. 0. 0.
 0. 0. 0. 0.
 0. 0. 0. 0.
 0. 0. 0. 0.
 0. 0. 0. 0.
 0. 0. 0. 0.
 0. 0. 0. 0.
 0. 0. 0. 0.
 0. 0. 0. 0.
 0. 0. 0. 0.
 0. 0. 0. 0.
 0. 0. 0. 0.
 0. 0. 0. 0.
 0. 0. 0. 0.
 0. 0. 0. 0.
 0. 0. 0. 0.
 0. 0. 0. 0.
 0. 0. 0. 0.
 0. 0. 0. 0.
 0. 0. 0. 0.
 0. 0. 0. 0.
 0. 0. 0. 0.
 0. 0. 0. 0.
 0. 0. 0. 0.
 0. 0. 0. 0.
 0. 0. 0. 0.
 0. 0. 0. 0.
 0. 0. 0. 0.
 0. 0. 0. 0.
 0. 0. 0. 0.
 0. 0. 0. 0.
 0. 0. 0. 0.
 0. 0. 0. 0.
 0. 0. 0. 0.
 0. 0. 0. 0.
 0. 0. 0. 0.
 0. 0. 0. 0.
 0. 0. 0. 0.
 0. 0. 0. 0.
 0. 0. 0. 0.
 0. 0. 0. 0.
 0. 0. 0. 0.
 0. 0. 0. 0.
 0. 0. 0. 0.
 0. 0. 0. 0.
 0. 0. 0. 0.
 0. 0. 0. 0.
 0. 0. 0. 0.
 0. 0. 0. 0.
 0. 0. 0. 0.
 0. 0. 0. 0.
 0. 0. 0. 0.
 0. 0. 0. 0.
 0. 0. 0. 0.
 0. 0. 0. 0.
 0. 0. 0. 0.
 0. 0. 0. 0.
 0. 0. 0. 0.
 0. 0. 0. 0.
 0. 0. 0. 0.
 0. 0. 0. 0.
 0. 0. 0. 0.
 0. 0. 0. 0.
 0. 0. 0. 0.
 0. 0. 0. 0.
 0. 0. 0. 0.
 0. 0. 0. 0.
 0. 0. 0. 0.
 0. 0. 0. 0.
 0. 0. 0. 0.
 0. 0. 0. 0.
 0. 0. 0. 0.
 0. 0. 0. 0.
 0. 0. 0. 0.
 0. 0. 0. 0.
 0. 0. 0. 0.
 0. 0. 0. 0.
 0. 0. 0. 0.
 0. 0. 0. 0.
 0. 0. 0. 0.
 0. 0. 0. 0.
 0. 0. 0. 0.
 0. 0. 0. 0.
 0. 0. 0. 0.
 0. 0. 0. 0.
 0. 0. 0. 0.
 0. 0. 0. 0.
 0. 0. 0. 0.
 0. 0. 0. 0.
 0. 0. 0. 0.
 0. 0. 0. 0.
 0. 0. 0. 0.
 0. 0. 0. 0.
 0. 0. 0. 0.
 0. 0. 0. 0.
 0. 0. 0. 0.
 0. 0. 0. 0.
 0. 0. 0. 0.
 0. 0. 0. 0.
 0. 0. 0. 0.
 0. 0. 0. 0.
 0. 0. 0. 0.
 0. 0. 0. 0.
 0. 0. 0. 0.
 0. 0. 0. 0.
 0. 0. 0. 0.
 0. 0. 0. 0.
 0. 0. 0. 0.
 0. 0. 0. 0.
 0. 0. 0. 0.
 0. 0. 0. 0.
 0. 0. 0. 0.
 0. 0. 0. 0.
 0. 0. 0. 0.
 0. 0. 0. 0.
 0. 0. 0. 0.
 0. 0. 0. 0.
 0. 0. 0. 0.
 0. 0. 0. 0.
 0. 0. 0. 0.
 0. 0. 0. 0.
 0. 0. 0. 0.
 0. 0. 0. 0.
 0. 0. 0. 0.
 0. 0. 0. 0.
 0. 0. 0. 0.
 0. 0. 0. 0.
 0. 0. 0. 0.
 0. 0. 0. 0.
 0. 0. 0. 0.
 0. 0. 0. 0.
 0. 0. 0. 0.
 0. 0. 0. 0.
 0. 0. 0. 0.
 0. 0. 0. 0.
 0. 0. 0. 0.
 0. 0. 0. 0.
 0. 0. 0. 0.
 0. 0. 0. 0.
 0. 0. 0. 0.
 0. 0. 0. 0.
 0. 0. 0. 0.
 0. 0. 0. 0.
 0. 0. 0. 0.
 0. 0. 0. 0.
 0. 0. 0. 0.
 0. 0. 0. 0.
 0. 0. 0. 0.
 0. 0. 0. 0.
 0. 0. 0. 0.
 0. 0. 0. 0.
 0. 0. 0. 0.
 0. 0. 0. 0.
 0. 0. 0. 0.
 0. 0. 0. 0.
 0. 0. 0. 0.
 0. 0. 0. 0.
 0. 0. 0. 0.
 0. 0. 0. 0.
 0. 0. 0. 0.
 0. 0. 0. 0.
 0. 0. 0. 0.
 0. 0. 0. 0.
 0. 0. 0. 0.
 0. 0. 0. 0.
 0. 0. 0. 0.
 0. 0. 0. 0.
 0. 0. 0. 0.
 0. 0. 0. 0.
 0. 0. 0. 0.
 0. 0. 0. 0.
 0. 0. 0. 0.
 0. 0. 0. 0.
 0. 0. 0. 0.
 0. 0. 0. 0.
 0. 0. 0. 0.
 0. 0. 0. 0.
 0. 0. 0. 0.
 0. 0. 0. 0.
 0. 0. 0. 0.
 0. 0. 0. 0.
 0. 0. 0. 0.
 0. 0. 0. 0.
 0. 0. 0. 0.
 0. 0. 0. 0.
 0. 0. 0. 0.
 0. 0. 0. 0.
 0. 0. 0. 0.
 0. 0. 0. 0.
 0. 0. 0. 0.
 0. 0. 0. 0.
 0. 0. 0. 0.
 0. 0. 0. 0.
 0. 0. 0. 0.
 0. 0. 0. 0.
 0. 0. 0. 0.
 0. 0. 0. 0.
 0. 0. 0. 0.
 0. 0. 0. 0.
 0. 0. 0. 0.
 0. 0. 0. 0.
 0. 0. 0. 0.
 0. 0. 0. 0.
 0. 0. 0. 0.
 0. 0. 0. 0.
 0. 0. 0. 0.
 0. 0. 0. 0.
 0. 0. 0. 0.
 0. 0. 0. 0.
 0. 0. 0. 0.
 0. 0. 0. 0.
 0. 0. 0. 0.
 0. 0. 0. 0.
 0. 0. 0. 0.
 0. 0. 0. 0.
 0. 0. 0. 0.
 0. 0. 0. 0.
 0. 0. 0. 0.
 0. 0. 0. 0.
 0. 0. 0. 0.
 0. 0. 0. 0.
 0. 0. 0. 0.
 0. 0. 0. 0.
 0. 0. 0. 0.
 0. 0. 0. 0.
 0. 0. 0. 0.
 0. 0. 0. 0.
 0. 0. 0. 0.
 0. 0. 0. 0.
 0. 0. 0. 0.
 0. 0. 0. 0.
 0. 0. 0. 0.
 0. 0. 0. 0.
 0. 0. 0. 0.
 0. 0. 0. 0.
 0. 0. 0. 0.
 0. 0. 0. 0.
 0. 0. 0. 0.
 0. 0. 0. 0.
 0. 0. 0. 0.
 0. 0. 0. 0.
 0. 0. 0. 0.
 0. 0. 0. 0.
 0. 0. 0. 0.
 0. 0. 0. 0.
 0. 0. 0. 0.
 0. 0. 0. 0.
 0. 0. 0. 0.
 0. 0. 0. 0.
 0. 0. 0. 0.
 0. 0. 0. 0.
 0. 0. 0. 0.
 0. 0. 0. 0.
 0. 0. 0. 0.
 0. 0. 0. 0.
 0. 0. 0. 0.
 0. 0. 0. 0.
 0. 0. 0. 0.
 0. 0. 0. 0.
 0. 0. 0. 0.
 0. 0. 0. 0.
 0. 0. 0. 0.
 0. 0. 0. 0.
 0. 0. 0. 0.
 0. 0. 0. 0.
 0. 0. 0. 0.
 0. 0. 0. 0.
 0. 0. 0. 0.
 0. 0. 0. 0.
 0. 0. 0. 0.
 0. 0. 0. 0.
 0. 0. 0. 0.
 0. 0. 0. 0.
 0. 0. 0. 0.
 0. 0. 0. 0.
 0. 0. 0. 0.
 0. 0. 0. 0.
 0. 0. 0. 0.
 0. 0. 0. 0.
 0. 0. 0. 0.
 0. 0. 0. 0.
 0. 0. 0. 0.
 0. 0. 0. 0.
 0. 0. 0. 0.
 0. 0. 0. 0.
 0. 0. 0. 0.
 0. 0. 0. 0.
 0. 0. 0. 0.
 0. 0. 0. 0.
 0. 0. 0. 0.
 0. 0. 0. 0.
 0. 0. 0. 0.
 0. 0. 0. 0.
 0. 0. 0. 0.
 0. 0. 0. 0.
 0. 0. 0. 0.
 0. 0. 0. 0.
 0. 0. 0. 0.
 0. 0. 0. 0.
 0. 0. 0. 0.
 0. 0. 0. 0.
 0. 0. 0. 0.
 0. 0. 0. 0.
 0. 0. 0. 0.
 0. 0. 0. 0.
 0. 0. 0. 0.
 0. 0. 0. 0.
 0. 0. 0. 0.
 0. 0. 0. 0.
 0. 0. 0. 0.
 0. 0. 0. 0.
 0. 0. 0. 0.
 0. 0. 0. 0.
 0. 0. 0. 0.
 0. 0. 0. 0.
 0. 0. 0. 0.
 0. 0. 0. 0.
 0. 0. 0. 0.
 0. 0. 0. 0.
 0. 0. 0. 0.
 0. 0. 0. 0.
 0. 0. 0. 0.
 0. 0. 0. 0.
 0. 0. 0. 0.
 0. 0. 0. 0.
 0. 0. 0. 0.
 0. 0. 0. 0.
 0. 0. 0. 0.
 0. 0. 0. 0.
 0. 0. 0. 0.
 0. 0. 0. 0.
 0. 0. 0. 0.
 0. 0. 0. 0.
 0. 0. 0. 0.
 0. 0. 0. 0.
 0. 0. 0. 0.
 0. 0. 0. 0.
 0. 0. 0. 0.
 0. 0. 0. 0.
 0. 0. 0. 0.
 0. 0. 0. 0.
 0. 0. 0. 0.
 0. 0. 0. 0.
 0. 0. 0. 0.
 0. 0. 0. 0.
 0. 0. 0. 0.
 0. 0. 0. 0.
 0. 0. 0. 0.
 0. 0. 0. 0.
 0. 0. 0. 0.
 0. 0. 0. 0.
 0. 0. 0. 0.
 0. 0. 0. 0.
 0. 0. 0. 0.
 0. 0. 0. 0.
 0. 0. 0. 0.
 0. 0. 0. 0.
 0. 0. 0. 0.
 0. 0. 0. 0.
 0. 0. 0. 0.
 0. 0. 0. 0.
 0. 0. 0. 0.
 0. 0. 0. 0.
 0. 0. 0. 0.
 0. 0. 0. 0.
 0. 0. 0. 0.
 0. 0. 0. 0.
 0. 0. 0. 0.
   </PP_BETA.2>
   <PP_BETA.3
       type="real"
       size="1680"
       columns="4"
       index="3"
       angular_momentum="1"
       cutoff_radius_index=" 176"
       cutoff_radius="    1.7500000000E+00" >
    1.6141544490E-09    1.3470928650E-03    5.3825929051E-03    1.2089216837E-02
    2.1438332815E-02    3.3390217481E-02    4.7894409117E-02    6.4890150376E-02
    8.4306912446E-02    1.0606499106E-01    1.3007616356E-01    1.5624439526E-01
    1.8446658252E-01    2.1463331975E-01    2.4662967712E-01    2.8033597605E-01
    3.1562855002E-01    3.5238047881E-01    3.9046228531E-01    4.2974258531E-01
    4.7008868185E-01    5.1136709774E-01    5.5344404106E-01    5.9618580071E-01
    6.3945907077E-01    6.8313120442E-01    7.2707039993E-01    7.7114582325E-01
    8.1522767324E-01    8.5918719717E-01    9.0289666550E-01    9.4622931604E-01
    9.8905927849E-01    1.0312614908E+00    1.0727116194E+00    1.1132859950E+00
    1.1528615754E+00    1.1913159467E+00    1.2285273721E+00    1.2643748984E+00
    1.2987385261E+00    1.3314994502E+00    1.3625403751E+00    1.3917459055E+00
    1.4190030135E+00    1.4442015800E+00    1.4672350049E+00    1.4880008818E+00
    1.5064017270E+00    1.5223457529E+00    1.5357476751E+00    1.5465295389E+00
    1.5546215506E+00    1.5599628991E+00    1.5625025512E+00    1.5622000048E+00
    1.5590259839E+00    1.5529630596E+00    1.5440061832E+00    1.5321631170E+00
    1.5174547510E+00    1.4999152958E+00    1.4795923422E+00    1.4565467828E+00
    1.4308525915E+00    1.4025964592E+00    1.3718772886E+00    1.3388055516E+00
    1.3035025153E+00    1.2660993483E+00    1.2267361162E+00    1.1855606822E+00
    1.1427275280E+00    1.0983965119E+00    1.0527315833E+00    1.0058994738E+00
    9.5806838328E-01    9.0940668355E-01    8.6008165776E-01    8.1025829594E-01
    7.6009816465E-01    7.0975836750E-01    6.5939061174E-01    6.0914039354E-01
    5.5914631272E-01    5.0953952443E-01    4.6044333303E-01    4.1197293012E-01
    3.6423527580E-01    3.1732911935E-01    2.7134515242E-01    2.2636628519E-01
    1.8246803342E-01    1.3971900182E-01    9.8181447412E-02    5.7911904521E-02
    1.8961852287E-02   -1.8621595760E-02   -5.4795000570E-02   -8.9517925467E-02
   -1.2275230308E-01   -1.5446186031E-01   -1.8461161895E-01   -2.1316748765E-01
   -2.4009595870E-01   -2.6536392062E-01   -2.8893859457E-01   -3.1078759957E-01
   -3.3087914835E-01   -3.4918237209E-01   -3.6566776930E-01   -3.8030777048E-01
   -3.9307740718E-01   -4.0395507108E-01   -4.1292334598E-01   -4.1996989325E-01
   -4.2508836918E-01   -4.2827935127E-01   -4.2955124927E-01   -4.2892117631E-01
   -4.2641575529E-01   -4.2207183638E-01   -4.1593710223E-01   -4.0807053935E-01
   -3.9854275598E-01   -3.8743612936E-01   -3.7484476818E-01   -3.6087427955E-01
   -3.4564133311E-01   -3.2927301898E-01   -3.1190600032E-01   -2.9368546508E-01
   -2.7476388599E-01   -2.5529960152E-01   -2.3545523451E-01   -2.1539596891E-01
   -1.9528770783E-01   -1.7529513958E-01   -1.5557974029E-01   -1.3629774367E-01
   -1.1759810995E-01   -9.9620526449E-02   -8.2493472522E-02   -6.6332380852E-02
   -5.1237925634E-02   -3.7294476402E-02   -2.4568703780E-02   -1.3109219636E-02
   -2.9475327892E-03    5.9017134313E-03    1.3440821717E-02    1.9688824481E-02
    2.4681009090E-02    2.8468179941E-02    3.1115665074E-02    3.2702079486E-02
    3.3317861890E-02    3.3063605895E-02    3.2048210688E-02    3.0386879663E-02
    2.8198999258E-02    2.5605929589E-02    2.2728747297E-02    1.9685978496E-02
    1.6591377779E-02    1.3548340937E-02    1.0646329923E-02    7.9759680036E-03
    5.6152189607E-03    3.6271323022E-03    2.0586185836E-03    9.3739990992E-04
    2.8017766695E-04    6.6459403451E-05    3.6776995765E-07   -4.4048714840E-07
 0. 0. 0. 0.
 0. 0. 0. 0.
 0. 0. 0. 0.
 0. 0. 0. 0.
 0. 0. 0. 0.
 0. 0. 0. 0.
 0. 0. 0. 0.
 0. 0. 0. 0.
 0. 0. 0. 0.
 0. 0. 0. 0.
 0. 0. 0. 0.
 0. 0. 0. 0.
 0. 0. 0. 0.
 0. 0. 0. 0.
 0. 0. 0. 0.
 0. 0. 0. 0.
 0. 0. 0. 0.
 0. 0. 0. 0.
 0. 0. 0. 0.
 0. 0. 0. 0.
 0. 0. 0. 0.
 0. 0. 0. 0.
 0. 0. 0. 0.
 0. 0. 0. 0.
 0. 0. 0. 0.
 0. 0. 0. 0.
 0. 0. 0. 0.
 0. 0. 0. 0.
 0. 0. 0. 0.
 0. 0. 0. 0.
 0. 0. 0. 0.
 0. 0. 0. 0.
 0. 0. 0. 0.
 0. 0. 0. 0.
 0. 0. 0. 0.
 0. 0. 0. 0.
 0. 0. 0. 0.
 0. 0. 0. 0.
 0. 0. 0. 0.
 0. 0. 0. 0.
 0. 0. 0. 0.
 0. 0. 0. 0.
 0. 0. 0. 0.
 0. 0. 0. 0.
 0. 0. 0. 0.
 0. 0. 0. 0.
 0. 0. 0. 0.
 0. 0. 0. 0.
 0. 0. 0. 0.
 0. 0. 0. 0.
 0. 0. 0. 0.
 0. 0. 0. 0.
 0. 0. 0. 0.
 0. 0. 0. 0.
 0. 0. 0. 0.
 0. 0. 0. 0.
 0. 0. 0. 0.
 0. 0. 0. 0.
 0. 0. 0. 0.
 0. 0. 0. 0.
 0. 0. 0. 0.
 0. 0. 0. 0.
 0. 0. 0. 0.
 0. 0. 0. 0.
 0. 0. 0. 0.
 0. 0. 0. 0.
 0. 0. 0. 0.
 0. 0. 0. 0.
 0. 0. 0. 0.
 0. 0. 0. 0.
 0. 0. 0. 0.
 0. 0. 0. 0.
 0. 0. 0. 0.
 0. 0. 0. 0.
 0. 0. 0. 0.
 0. 0. 0. 0.
 0. 0. 0. 0.
 0. 0. 0. 0.
 0. 0. 0. 0.
 0. 0. 0. 0.
 0. 0. 0. 0.
 0. 0. 0. 0.
 0. 0. 0. 0.
 0. 0. 0. 0.
 0. 0. 0. 0.
 0. 0. 0. 0.
 0. 0. 0. 0.
 0. 0. 0. 0.
 0. 0. 0. 0.
 0. 0. 0. 0.
 0. 0. 0. 0.
 0. 0. 0. 0.
 0. 0. 0. 0.
 0. 0. 0. 0.
 0. 0. 0. 0.
 0. 0. 0. 0.
 0. 0. 0. 0.
 0. 0. 0. 0.
 0. 0. 0. 0.
 0. 0. 0. 0.
 0. 0. 0. 0.
 0. 0. 0. 0.
 0. 0. 0. 0.
 0. 0. 0. 0.
 0. 0. 0. 0.
 0. 0. 0. 0.
 0. 0. 0. 0.
 0. 0. 0. 0.
 0. 0. 0. 0.
 0. 0. 0. 0.
 0. 0. 0. 0.
 0. 0. 0. 0.
 0. 0. 0. 0.
 0. 0. 0. 0.
 0. 0. 0. 0.
 0. 0. 0. 0.
 0. 0. 0. 0.
 0. 0. 0. 0.
 0. 0. 0. 0.
 0. 0. 0. 0.
 0. 0. 0. 0.
 0. 0. 0. 0.
 0. 0. 0. 0.
 0. 0. 0. 0.
 0. 0. 0. 0.
 0. 0. 0. 0.
 0. 0. 0. 0.
 0. 0. 0. 0.
 0. 0. 0. 0.
 0. 0. 0. 0.
 0. 0. 0. 0.
 0. 0. 0. 0.
 0. 0. 0. 0.
 0. 0. 0. 0.
 0. 0. 0. 0.
 0. 0. 0. 0.
 0. 0. 0. 0.
 0. 0. 0. 0.
 0. 0. 0. 0.
 0. 0. 0. 0.
 0. 0. 0. 0.
 0. 0. 0. 0.
 0. 0. 0. 0.
 0. 0. 0. 0.
 0. 0. 0. 0.
 0. 0. 0. 0.
 0. 0. 0. 0.
 0. 0. 0. 0.
 0. 0. 0. 0.
 0. 0. 0. 0.
 0. 0. 0. 0.
 0. 0. 0. 0.
 0. 0. 0. 0.
 0. 0. 0. 0.
 0. 0. 0. 0.
 0. 0. 0. 0.
 0. 0. 0. 0.
 0. 0. 0. 0.
 0. 0. 0. 0.
 0. 0. 0. 0.
 0. 0. 0. 0.
 0. 0. 0. 0.
 0. 0. 0. 0.
 0. 0. 0. 0.
 0. 0. 0. 0.
 0. 0. 0. 0.
 0. 0. 0. 0.
 0. 0. 0. 0.
 0. 0. 0. 0.
 0. 0. 0. 0.
 0. 0. 0. 0.
 0. 0. 0. 0.
 0. 0. 0. 0.
 0. 0. 0. 0.
 0. 0. 0. 0.
 0. 0. 0. 0.
 0. 0. 0. 0.
 0. 0. 0. 0.
 0. 0. 0. 0.
 0. 0. 0. 0.
 0. 0. 0. 0.
 0. 0. 0. 0.
 0. 0. 0. 0.
 0. 0. 0. 0.
 0. 0. 0. 0.
 0. 0. 0. 0.
 0. 0. 0. 0.
 0. 0. 0. 0.
 0. 0. 0. 0.
 0. 0. 0. 0.
 0. 0. 0. 0.
 0. 0. 0. 0.
 0. 0. 0. 0.
 0. 0. 0. 0.
 0. 0. 0. 0.
 0. 0. 0. 0.
 0. 0. 0. 0.
 0. 0. 0. 0.
 0. 0. 0. 0.
 0. 0. 0. 0.
 0. 0. 0. 0.
 0. 0. 0. 0.
 0. 0. 0. 0.
 0. 0. 0. 0.
 0. 0. 0. 0.
 0. 0. 0. 0.
 0. 0. 0. 0.
 0. 0. 0. 0.
 0. 0. 0. 0.
 0. 0. 0. 0.
 0. 0. 0. 0.
 0. 0. 0. 0.
 0. 0. 0. 0.
 0. 0. 0. 0.
 0. 0. 0. 0.
 0. 0. 0. 0.
 0. 0. 0. 0.
 0. 0. 0. 0.
 0. 0. 0. 0.
 0. 0. 0. 0.
 0. 0. 0. 0.
 0. 0. 0. 0.
 0. 0. 0. 0.
 0. 0. 0. 0.
 0. 0. 0. 0.
 0. 0. 0. 0.
 0. 0. 0. 0.
 0. 0. 0. 0.
 0. 0. 0. 0.
 0. 0. 0. 0.
 0. 0. 0. 0.
 0. 0. 0. 0.
 0. 0. 0. 0.
 0. 0. 0. 0.
 0. 0. 0. 0.
 0. 0. 0. 0.
 0. 0. 0. 0.
 0. 0. 0. 0.
 0. 0. 0. 0.
 0. 0. 0. 0.
 0. 0. 0. 0.
 0. 0. 0. 0.
 0. 0. 0. 0.
 0. 0. 0. 0.
 0. 0. 0. 0.
 0. 0. 0. 0.
 0. 0. 0. 0.
 0. 0. 0. 0.
 0. 0. 0. 0.
 0. 0. 0. 0.
 0. 0. 0. 0.
 0. 0. 0. 0.
 0. 0. 0. 0.
 0. 0. 0. 0.
 0. 0. 0. 0.
 0. 0. 0. 0.
 0. 0. 0. 0.
 0. 0. 0. 0.
 0. 0. 0. 0.
 0. 0. 0. 0.
 0. 0. 0. 0.
 0. 0. 0. 0.
 0. 0. 0. 0.
 0. 0. 0. 0.
 0. 0. 0. 0.
 0. 0. 0. 0.
 0. 0. 0. 0.
 0. 0. 0. 0.
 0. 0. 0. 0.
 0. 0. 0. 0.
 0. 0. 0. 0.
 0. 0. 0. 0.
 0. 0. 0. 0.
 0. 0. 0. 0.
 0. 0. 0. 0.
 0. 0. 0. 0.
 0. 0. 0. 0.
 0. 0. 0. 0.
 0. 0. 0. 0.
 0. 0. 0. 0.
 0. 0. 0. 0.
 0. 0. 0. 0.
 0. 0. 0. 0.
 0. 0. 0. 0.
 0. 0. 0. 0.
 0. 0. 0. 0.
 0. 0. 0. 0.
 0. 0. 0. 0.
 0. 0. 0. 0.
 0. 0. 0. 0.
 0. 0. 0. 0.
 0. 0. 0. 0.
 0. 0. 0. 0.
 0. 0. 0. 0.
 0. 0. 0. 0.
 0. 0. 0. 0.
 0. 0. 0. 0.
 0. 0. 0. 0.
 0. 0. 0. 0.
 0. 0. 0. 0.
 0. 0. 0. 0.
 0. 0. 0. 0.
 0. 0. 0. 0.
 0. 0. 0. 0.
 0. 0. 0. 0.
 0. 0. 0. 0.
 0. 0. 0. 0.
 0. 0. 0. 0.
 0. 0. 0. 0.
 0. 0. 0. 0.
 0. 0. 0. 0.
 0. 0. 0. 0.
 0. 0. 0. 0.
 0. 0. 0. 0.
 0. 0. 0. 0.
 0. 0. 0. 0.
 0. 0. 0. 0.
 0. 0. 0. 0.
 0. 0. 0. 0.
 0. 0. 0. 0.
 0. 0. 0. 0.
 0. 0. 0. 0.
 0. 0. 0. 0.
 0. 0. 0. 0.
 0. 0. 0. 0.
 0. 0. 0. 0.
 0. 0. 0. 0.
 0. 0. 0. 0.
 0. 0. 0. 0.
 0. 0. 0. 0.
 0. 0. 0. 0.
 0. 0. 0. 0.
 0. 0. 0. 0.
 0. 0. 0. 0.
 0. 0. 0. 0.
 0. 0. 0. 0.
 0. 0. 0. 0.
 0. 0. 0. 0.
 0. 0. 0. 0.
 0. 0. 0. 0.
 0. 0. 0. 0.
 0. 0. 0. 0.
 0. 0. 0. 0.
 0. 0. 0. 0.
 0. 0. 0. 0.
 0. 0. 0. 0.
 0. 0. 0. 0.
 0. 0. 0. 0.
 0. 0. 0. 0.
 0. 0. 0. 0.
 0. 0. 0. 0.
 0. 0. 0. 0.
 0. 0. 0. 0.
 0. 0. 0. 0.
 0. 0. 0. 0.
 0. 0. 0. 0.
 0. 0. 0. 0.
 0. 0. 0. 0.
 0. 0. 0. 0.
 0. 0. 0. 0.
 0. 0. 0. 0.
 0. 0. 0. 0.
 0. 0. 0. 0.
 0. 0. 0. 0.
 0. 0. 0. 0.
 0. 0. 0. 0.
 0. 0. 0. 0.
 0. 0. 0. 0.
 0. 0. 0. 0.
 0. 0. 0. 0.
 0. 0. 0. 0.
 0. 0. 0. 0.
 0. 0. 0. 0.
 0. 0. 0. 0.
 0. 0. 0. 0.
 0. 0. 0. 0.
   </PP_BETA.3>
   <PP_BETA.4
       type="real"
       size="1680"
       columns="4"
       index="4"
       angular_momentum="1"
       cutoff_radius_index=" 176"
       cutoff_radius="    1.7500000000E+00" >
    1.4442712720E-09    1.3059402008E-03    5.2183779245E-03    1.1721211597E-02
    2.0787761256E-02    3.2380999509E-02    4.6453868858E-02    6.2949679552E-02
    8.1802580671E-02    1.0293809586E-01    1.2627371408E-01    1.5171952479E-01
    1.7917888640E-01    2.0854911651E-01    2.3972219207E-01    2.7258544807E-01
    3.0702226349E-01    3.4291272392E-01    3.8013425136E-01    4.1856219238E-01
    4.5807035751E-01    4.9853150584E-01    5.3981777066E-01    5.8180102327E-01
    6.2435317416E-01    6.6734641226E-01    7.1065338453E-01    7.5414732025E-01
    7.9770210524E-01    8.4119231315E-01    8.8449320190E-01    9.2748068434E-01
    9.7003128305E-01    1.0120220797E+00    1.0533306695E+00    1.0938351314E+00
    1.1334140246E+00    1.1719464207E+00    1.2093119804E+00    1.2453910833E+00
    1.2800650162E+00    1.3132162260E+00    1.3447286400E+00    1.3744880553E+00
    1.4023825967E+00    1.4283032424E+00    1.4521444108E+00    1.4738046049E+00
    1.4931871053E+00    1.5102007022E+00    1.5247604565E+00    1.5367884765E+00
    1.5462146978E+00    1.5529776524E+00    1.5570252121E+00    1.5583152910E+00
    1.5568164939E+00    1.5525086953E+00    1.5453835360E+00    1.5354448252E+00
    1.5227088363E+00    1.5072044891E+00    1.4889734080E+00    1.4680698540E+00
    1.4445605243E+00    1.4185242213E+00    1.3900513905E+00    1.3592435324E+00
    1.3262124942E+00    1.2910796502E+00    1.2539749811E+00    1.2150360656E+00
    1.1744069984E+00    1.1322372497E+00    1.0886804848E+00    1.0438933604E+00
    9.9803431691E-01    9.5126238396E-01    9.0373601898E-01    8.5561199509E-01
    8.0704435575E-01    7.5818345099E-01    7.0917506904E-01    6.6015967505E-01
    6.1127176625E-01    5.6263935078E-01    5.1438355455E-01    4.6661835819E-01
    4.1945046303E-01    3.7297928268E-01    3.2729705396E-01    2.8248905857E-01
    2.3863394435E-01    1.9580413316E-01    1.5406630028E-01    1.1348190911E-01
    7.4107783482E-02    3.5996699297E-02   -8.0202301997E-04   -3.6241943927E-02
   -7.0278965986E-02   -1.0287084803E-01   -1.3397678809E-01   -1.6355708907E-01
   -1.9157291938E-01   -2.1798617807E-01   -2.4275947157E-01   -2.6585620638E-01
   -2.8724079901E-01   -3.0687900142E-01   -3.2473833725E-01   -3.4078864108E-01
   -3.5500269005E-01   -3.6735691460E-01   -3.7783217240E-01   -3.8641456778E-01
   -3.9309629658E-01   -3.9787649568E-01   -4.0076207479E-01   -4.0176850817E-01
   -4.0092056344E-01   -3.9825294562E-01   -3.9381083495E-01   -3.8765029909E-01
   -3.7983856168E-01   -3.7045411185E-01   -3.5958664206E-01   -3.4733680439E-01
   -3.3381577911E-01   -3.1914465249E-01   -3.0345360498E-01   -2.8688091418E-01
   -2.6957178104E-01   -2.5167699137E-01   -2.3335142812E-01   -2.1475245327E-01
   -1.9603818116E-01   -1.7736566756E-01   -1.5888904099E-01   -1.4075760464E-01
   -1.2311393818E-01   -1.0609202946E-01   -8.9815466283E-02   -7.4395717562E-02
   -5.9930532018E-02   -4.6502490063E-02   -3.4177696081E-02   -2.3005425838E-02
   -1.3018995451E-02   -4.2359773392E-03    3.3418747355E-03    9.7284260444E-03
    1.4952722069E-02    1.9058306267E-02    2.2102301602E-02    2.4154267123E-02
    2.5294845069E-02    2.5614217907E-02    2.5210398426E-02    2.4187379167E-02
    2.2653170929E-02    2.0717759467E-02    1.8491017772E-02    1.6080608478E-02
    1.3589929124E-02    1.1112981242E-02    8.7310426998E-03    6.5264399138E-03
    4.5699675612E-03    2.9187963507E-03    1.6152492311E-03    6.8485665282E-04
    1.3922764379E-04   -3.3490566241E-05   -5.2134460092E-07    8.5594295554E-07
 0. 0. 0. 0.
 0. 0. 0. 0.
 0. 0. 0. 0.
 0. 0. 0. 0.
 0. 0. 0. 0.
 0. 0. 0. 0.
 0. 0. 0. 0.
 0. 0. 0. 0.
 0. 0. 0. 0.
 0. 0. 0. 0.
 0. 0. 0. 0.
 0. 0. 0. 0.
 0. 0. 0. 0.
 0. 0. 0. 0.
 0. 0. 0. 0.
 0. 0. 0. 0.
 0. 0. 0. 0.
 0. 0. 0. 0.
 0. 0. 0. 0.
 0. 0. 0. 0.
 0. 0. 0. 0.
 0. 0. 0. 0.
 0. 0. 0. 0.
 0. 0. 0. 0.
 0. 0. 0. 0.
 0. 0. 0. 0.
 0. 0. 0. 0.
 0. 0. 0. 0.
 0. 0. 0. 0.
 0. 0. 0. 0.
 0. 0. 0. 0.
 0. 0. 0. 0.
 0. 0. 0. 0.
 0. 0. 0. 0.
 0. 0. 0. 0.
 0. 0. 0. 0.
 0. 0. 0. 0.
 0. 0. 0. 0.
 0. 0. 0. 0.
 0. 0. 0. 0.
 0. 0. 0. 0.
 0. 0. 0. 0.
 0. 0. 0. 0.
 0. 0. 0. 0.
 0. 0. 0. 0.
 0. 0. 0. 0.
 0. 0. 0. 0.
 0. 0. 0. 0.
 0. 0. 0. 0.
 0. 0. 0. 0.
 0. 0. 0. 0.
 0. 0. 0. 0.
 0. 0. 0. 0.
 0. 0. 0. 0.
 0. 0. 0. 0.
 0. 0. 0. 0.
 0. 0. 0. 0.
 0. 0. 0. 0.
 0. 0. 0. 0.
 0. 0. 0. 0.
 0. 0. 0. 0.
 0. 0. 0. 0.
 0. 0. 0. 0.
 0. 0. 0. 0.
 0. 0. 0. 0.
 0. 0. 0. 0.
 0. 0. 0. 0.
 0. 0. 0. 0.
 0. 0. 0. 0.
 0. 0. 0. 0.
 0. 0. 0. 0.
 0. 0. 0. 0.
 0. 0. 0. 0.
 0. 0. 0. 0.
 0. 0. 0. 0.
 0. 0. 0. 0.
 0. 0. 0. 0.
 0. 0. 0. 0.
 0. 0. 0. 0.
 0. 0. 0. 0.
 0. 0. 0. 0.
 0. 0. 0. 0.
 0. 0. 0. 0.
 0. 0. 0. 0.
 0. 0. 0. 0.
 0. 0. 0. 0.
 0. 0. 0. 0.
 0. 0. 0. 0.
 0. 0. 0. 0.
 0. 0. 0. 0.
 0. 0. 0. 0.
 0. 0. 0. 0.
 0. 0. 0. 0.
 0. 0. 0. 0.
 0. 0. 0. 0.
 0. 0. 0. 0.
 0. 0. 0. 0.
 0. 0. 0. 0.
 0. 0. 0. 0.
 0. 0. 0. 0.
 0. 0. 0. 0.
 0. 0. 0. 0.
 0. 0. 0. 0.
 0. 0. 0. 0.
 0. 0. 0. 0.
 0. 0. 0. 0.
 0. 0. 0. 0.
 0. 0. 0. 0.
 0. 0. 0. 0.
 0. 0. 0. 0.
 0. 0. 0. 0.
 0. 0. 0. 0.
 0. 0. 0. 0.
 0. 0. 0. 0.
 0. 0. 0. 0.
 0. 0. 0. 0.
 0. 0. 0. 0.
 0. 0. 0. 0.
 0. 0. 0. 0.
 0. 0. 0. 0.
 0. 0. 0. 0.
 0. 0. 0. 0.
 0. 0. 0. 0.
 0. 0. 0. 0.
 0. 0. 0. 0.
 0. 0. 0. 0.
 0. 0. 0. 0.
 0. 0. 0. 0.
 0. 0. 0. 0.
 0. 0. 0. 0.
 0. 0. 0. 0.
 0. 0. 0. 0.
 0. 0. 0. 0.
 0. 0. 0. 0.
 0. 0. 0. 0.
 0. 0. 0. 0.
 0. 0. 0. 0.
 0. 0. 0. 0.
 0. 0. 0. 0.
 0. 0. 0. 0.
 0. 0. 0. 0.
 0. 0. 0. 0.
 0. 0. 0. 0.
 0. 0. 0. 0.
 0. 0. 0. 0.
 0. 0. 0. 0.
 0. 0. 0. 0.
 0. 0. 0. 0.
 0. 0. 0. 0.
 0. 0. 0. 0.
 0. 0. 0. 0.
 0. 0. 0. 0.
 0. 0. 0. 0.
 0. 0. 0. 0.
 0. 0. 0. 0.
 0. 0. 0. 0.
 0. 0. 0. 0.
 0. 0. 0. 0.
 0. 0. 0. 0.
 0. 0. 0. 0.
 0. 0. 0. 0.
 0. 0. 0. 0.
 0. 0. 0. 0.
 0. 0. 0. 0.
 0. 0. 0. 0.
 0. 0. 0. 0.
 0. 0. 0. 0.
 0. 0. 0. 0.
 0. 0. 0. 0.
 0. 0. 0. 0.
 0. 0. 0. 0.
 0. 0. 0. 0.
 0. 0. 0. 0.
 0. 0. 0. 0.
 0. 0. 0. 0.
 0. 0. 0. 0.
 0. 0. 0. 0.
 0. 0. 0. 0.
 0. 0. 0. 0.
 0. 0. 0. 0.
 0. 0. 0. 0.
 0. 0. 0. 0.
 0. 0. 0. 0.
 0. 0. 0. 0.
 0. 0. 0. 0.
 0. 0. 0. 0.
 0. 0. 0. 0.
 0. 0. 0. 0.
 0. 0. 0. 0.
 0. 0. 0. 0.
 0. 0. 0. 0.
 0. 0. 0. 0.
 0. 0. 0. 0.
 0. 0. 0. 0.
 0. 0. 0. 0.
 0. 0. 0. 0.
 0. 0. 0. 0.
 0. 0. 0. 0.
 0. 0. 0. 0.
 0. 0. 0. 0.
 0. 0. 0. 0.
 0. 0. 0. 0.
 0. 0. 0. 0.
 0. 0. 0. 0.
 0. 0. 0. 0.
 0. 0. 0. 0.
 0. 0. 0. 0.
 0. 0. 0. 0.
 0. 0. 0. 0.
 0. 0. 0. 0.
 0. 0. 0. 0.
 0. 0. 0. 0.
 0. 0. 0. 0.
 0. 0. 0. 0.
 0. 0. 0. 0.
 0. 0. 0. 0.
 0. 0. 0. 0.
 0. 0. 0. 0.
 0. 0. 0. 0.
 0. 0. 0. 0.
 0. 0. 0. 0.
 0. 0. 0. 0.
 0. 0. 0. 0.
 0. 0. 0. 0.
 0. 0. 0. 0.
 0. 0. 0. 0.
 0. 0. 0. 0.
 0. 0. 0. 0.
 0. 0. 0. 0.
 0. 0. 0. 0.
 0. 0. 0. 0.
 0. 0. 0. 0.
 0. 0. 0. 0.
 0. 0. 0. 0.
 0. 0. 0. 0.
 0. 0. 0. 0.
 0. 0. 0. 0.
 0. 0. 0. 0.
 0. 0. 0. 0.
 0. 0. 0. 0.
 0. 0. 0. 0.
 0. 0. 0. 0.
 0. 0. 0. 0.
 0. 0. 0. 0.
 0. 0. 0. 0.
 0. 0. 0. 0.
 0. 0. 0. 0.
 0. 0. 0. 0.
 0. 0. 0. 0.
 0. 0. 0. 0.
 0. 0. 0. 0.
 0. 0. 0. 0.
 0. 0. 0. 0.
 0. 0. 0. 0.
 0. 0. 0. 0.
 0. 0. 0. 0.
 0. 0. 0. 0.
 0. 0. 0. 0.
 0. 0. 0. 0.
 0. 0. 0. 0.
 0. 0. 0. 0.
 0. 0. 0. 0.
 0. 0. 0. 0.
 0. 0. 0. 0.
 0. 0. 0. 0.
 0. 0. 0. 0.
 0. 0. 0. 0.
 0. 0. 0. 0.
 0. 0. 0. 0.
 0. 0. 0. 0.
 0. 0. 0. 0.
 0. 0. 0. 0.
 0. 0. 0. 0.
 0. 0. 0. 0.
 0. 0. 0. 0.
 0. 0. 0. 0.
 0. 0. 0. 0.
 0. 0. 0. 0.
 0. 0. 0. 0.
 0. 0. 0. 0.
 0. 0. 0. 0.
 0. 0. 0. 0.
 0. 0. 0. 0.
 0. 0. 0. 0.
 0. 0. 0. 0.
 0. 0. 0. 0.
 0. 0. 0. 0.
 0. 0. 0. 0.
 0. 0. 0. 0.
 0. 0. 0. 0.
 0. 0. 0. 0.
 0. 0. 0. 0.
 0. 0. 0. 0.
 0. 0. 0. 0.
 0. 0. 0. 0.
 0. 0. 0. 0.
 0. 0. 0. 0.
 0. 0. 0. 0.
 0. 0. 0. 0.
 0. 0. 0. 0.
 0. 0. 0. 0.
 0. 0. 0. 0.
 0. 0. 0. 0.
 0. 0. 0. 0.
 0. 0. 0. 0.
 0. 0. 0. 0.
 0. 0. 0. 0.
 0. 0. 0. 0.
 0. 0. 0. 0.
 0. 0. 0. 0.
 0. 0. 0. 0.
 0. 0. 0. 0.
 0. 0. 0. 0.
 0. 0. 0. 0.
 0. 0. 0. 0.
 0. 0. 0. 0.
 0. 0. 0. 0.
 0. 0. 0. 0.
 0. 0. 0. 0.
 0. 0. 0. 0.
 0. 0. 0. 0.
 0. 0. 0. 0.
 0. 0. 0. 0.
 0. 0. 0. 0.
 0. 0. 0. 0.
 0. 0. 0. 0.
 0. 0. 0. 0.
 0. 0. 0. 0.
 0. 0. 0. 0.
 0. 0. 0. 0.
 0. 0. 0. 0.
 0. 0. 0. 0.
 0. 0. 0. 0.
 0. 0. 0. 0.
 0. 0. 0. 0.
 0. 0. 0. 0.
 0. 0. 0. 0.
 0. 0. 0. 0.
 0. 0. 0. 0.
 0. 0. 0. 0.
 0. 0. 0. 0.
 0. 0. 0. 0.
 0. 0. 0. 0.
 0. 0. 0. 0.
 0. 0. 0. 0.
 0. 0. 0. 0.
 0. 0. 0. 0.
 0. 0. 0. 0.
 0. 0. 0. 0.
 0. 0. 0. 0.
 0. 0. 0. 0.
 0. 0. 0. 0.
 0. 0. 0. 0.
 0. 0. 0. 0.
 0. 0. 0. 0.
 0. 0. 0. 0.
 0. 0. 0. 0.
 0. 0. 0. 0.
 0. 0. 0. 0.
 0. 0. 0. 0.
 0. 0. 0. 0.
 0. 0. 0. 0.
 0. 0. 0. 0.
 0. 0. 0. 0.
 0. 0. 0. 0.
 0. 0. 0. 0.
 0. 0. 0. 0.
 0. 0. 0. 0.
 0. 0. 0. 0.
 0. 0. 0. 0.
 0. 0. 0. 0.
 0. 0. 0. 0.
 0. 0. 0. 0.
 0. 0. 0. 0.
 0. 0. 0. 0.
 0. 0. 0. 0.
   </PP_BETA.4>
   <PP_BETA.5
       type="real"
       size="1680"
       columns="4"
       index="5"
       angular_momentum="1"
       cutoff_radius_index=" 176"
       cutoff_radius="    1.7500000000E+00" >
   -3.8052497750E-09   -7.1805458476E-04   -2.8651216226E-03   -6.4200181956E-03
   -1.1347794564E-02   -1.7600258803E-02   -2.5116695385E-02   -3.3824762242E-02
   -4.3641547027E-02   -5.4474759940E-02   -6.6224037630E-02   -7.8782330439E-02
   -9.2037343612E-02   -1.0587300216E-01   -1.2017090885E-01   -1.3481176511E-01
   -1.4967672609E-01   -1.6464866250E-01   -1.7961330480E-01   -1.9446024786E-01
   -2.0908379818E-01   -2.2338364932E-01   -2.3726537591E-01   -2.5064074062E-01
   -2.6342781375E-01   -2.7555090924E-01   -2.8694034581E-01   -2.9753204636E-01
   -3.0726699265E-01   -3.1609055631E-01   -3.2395173017E-01   -3.3080228679E-01
   -3.3659589302E-01   -3.4128721073E-01   -3.4483101453E-01   -3.4718135730E-01
   -3.4829081310E-01   -3.4810982601E-01   -3.4658619048E-01   -3.4366468634E-01
   -3.3928688772E-01   -3.3339116101E-01   -3.2591286272E-01   -3.1678474277E-01
   -3.0593755404E-01   -2.9330086342E-01   -2.7880405466E-01   -2.6237750784E-01
   -2.4395393582E-01   -2.2346985313E-01   -2.0086714893E-01   -1.7609473212E-01
   -1.4911021377E-01   -1.1988159015E-01   -8.8388887966E-02   -5.4625733355E-02
   -1.8600806201E-02    1.9660857166E-02    6.0116747868E-02    1.0270598697E-01
    1.4734867486E-01    1.9394551152E-01    2.4237770641E-01    2.9250719157E-01
    3.4417714508E-01    3.9721282635E-01    4.5142271773E-01    5.0659996116E-01
    5.6252407169E-01    6.1896290417E-01    6.7567484355E-01    7.3241118401E-01
    7.8891865817E-01    8.4494207325E-01    9.0022700874E-01    9.5452252795E-01
    1.0075838547E+00    1.0591749670E+00    1.1090710594E+00    1.1570608296E+00
    1.2029485463E+00    1.2465558595E+00    1.2877233209E+00    1.3263115849E+00
    1.3622022703E+00    1.3952984653E+00    1.4255248716E+00    1.4528275837E+00
    1.4771735138E+00    1.4985494749E+00    1.5169609460E+00    1.5324305464E+00
    1.5449962564E+00    1.5547094235E+00    1.5616326010E+00    1.5658372674E+00
    1.5674014806E+00    1.5664075191E+00    1.5629395668E+00    1.5570814940E+00
    1.5489147877E+00    1.5385166811E+00    1.5259585259E+00    1.5113044497E+00
    1.4946103306E+00    1.4759231178E+00    1.4552805165E+00    1.4327110487E+00
    1.4082344942E+00    1.3818627027E+00    1.3536007652E+00    1.3234485202E+00
    1.2914023622E+00    1.2574573147E+00    1.2216093205E+00    1.1838576963E+00
    1.1442076946E+00    1.1026731119E+00    1.0592788767E+00    1.0140635541E+00
    9.6708169898E-01    9.1840599454E-01    8.6812911407E-01    8.1636524823E-01
    7.6325124570E-01    7.0894732156E-01    6.5363729543E-01    5.9752833005E-01
    5.4085015050E-01    4.8385373401E-01    4.2680947111E-01    3.7000480917E-01
    3.1374140002E-01    2.5833178400E-01    2.0409565229E-01    1.5135573885E-01
    1.0043340178E-01    5.1643961087E-02    5.2918660637E-03   -3.8334229485E-02
   -7.8966402896E-02   -1.1636232580E-01   -1.5030997130E-01   -1.8063208338E-01
   -2.0719033071E-01   -2.2988903392E-01   -2.4867855161E-01   -2.6355498632E-01
   -2.7455539883E-01   -2.8175641938E-01   -2.8527448154E-01   -2.8526526188E-01
   -2.8192247837E-01   -2.7547602395E-01   -2.6618945413E-01   -2.5435685868E-01
   -2.4029915905E-01   -2.2435988399E-01   -2.0690048658E-01   -1.8829527406E-01
   -1.6892603272E-01   -1.4917642507E-01   -1.2942626945E-01   -1.1004578117E-01
   -9.1389928960E-02   -7.3786145572E-02   -5.7525884479E-02   -4.2893449303E-02
   -3.0138028080E-02   -1.9468288646E-02   -1.1049750454E-02   -4.9921696494E-03
   -1.3912808514E-03   -2.0567957317E-04   -4.7468492202E-07    1.5043629464E-07
 0. 0. 0. 0.
 0. 0. 0. 0.
 0. 0. 0. 0.
 0. 0. 0. 0.
 0. 0. 0. 0.
 0. 0. 0. 0.
 0. 0. 0. 0.
 0. 0. 0. 0.
 0. 0. 0. 0.
 0. 0. 0. 0.
 0. 0. 0. 0.
 0. 0. 0. 0.
 0. 0. 0. 0.
 0. 0. 0. 0.
 0. 0. 0. 0.
 0. 0. 0. 0.
 0. 0. 0. 0.
 0. 0. 0. 0.
 0. 0. 0. 0.
 0. 0. 0. 0.
 0. 0. 0. 0.
 0. 0. 0. 0.
 0. 0. 0. 0.
 0. 0. 0. 0.
 0. 0. 0. 0.
 0. 0. 0. 0.
 0. 0. 0. 0.
 0. 0. 0. 0.
 0. 0. 0. 0.
 0. 0. 0. 0.
 0. 0. 0. 0.
 0. 0. 0. 0.
 0. 0. 0. 0.
 0. 0. 0. 0.
 0. 0. 0. 0.
 0. 0. 0. 0.
 0. 0. 0. 0.
 0. 0. 0. 0.
 0. 0. 0. 0.
 0. 0. 0. 0.
 0. 0. 0. 0.
 0. 0. 0. 0.
 0. 0. 0. 0.
 0. 0. 0. 0.
 0. 0. 0. 0.
 0. 0. 0. 0.
 0. 0. 0. 0.
 0. 0. 0. 0.
 0. 0. 0. 0.
 0. 0. 0. 0.
 0. 0. 0. 0.
 0. 0. 0. 0.
 0. 0. 0. 0.
 0. 0. 0. 0.
 0. 0. 0. 0.
 0. 0. 0. 0.
 0. 0. 0. 0.
 0. 0. 0. 0.
 0. 0. 0. 0.
 0. 0. 0. 0.
 0. 0. 0. 0.
 0. 0. 0. 0.
 0. 0. 0. 0.
 0. 0. 0. 0.
 0. 0. 0. 0.
 0. 0. 0. 0.
 0. 0. 0. 0.
 0. 0. 0. 0.
 0. 0. 0. 0.
 0. 0. 0. 0.
 0. 0. 0. 0.
 0. 0. 0. 0.
 0. 0. 0. 0.
 0. 0. 0. 0.
 0. 0. 0. 0.
 0. 0. 0. 0.
 0. 0. 0. 0.
 0. 0. 0. 0.
 0. 0. 0. 0.
 0. 0. 0. 0.
 0. 0. 0. 0.
 0. 0. 0. 0.
 0. 0. 0. 0.
 0. 0. 0. 0.
 0. 0. 0. 0.
 0. 0. 0. 0.
 0. 0. 0. 0.
 0. 0. 0. 0.
 0. 0. 0. 0.
 0. 0. 0. 0.
 0. 0. 0. 0.
 0. 0. 0. 0.
 0. 0. 0. 0.
 0. 0. 0. 0.
 0. 0. 0. 0.
 0. 0. 0. 0.
 0. 0. 0. 0.
 0. 0. 0. 0.
 0. 0. 0. 0.
 0. 0. 0. 0.
 0. 0. 0. 0.
 0. 0. 0. 0.
 0. 0. 0. 0.
 0. 0. 0. 0.
 0. 0. 0. 0.
 0. 0. 0. 0.
 0. 0. 0. 0.
 0. 0. 0. 0.
 0. 0. 0. 0.
 0. 0. 0. 0.
 0. 0. 0. 0.
 0. 0. 0. 0.
 0. 0. 0. 0.
 0. 0. 0. 0.
 0. 0. 0. 0.
 0. 0. 0. 0.
 0. 0. 0. 0.
 0. 0. 0. 0.
 0. 0. 0. 0.
 0. 0. 0. 0.
 0. 0. 0. 0.
 0. 0. 0. 0.
 0. 0. 0. 0.
 0. 0. 0. 0.
 0. 0. 0. 0.
 0. 0. 0. 0.
 0. 0. 0. 0.
 0. 0. 0. 0.
 0. 0. 0. 0.
 0. 0. 0. 0.
 0. 0. 0. 0.
 0. 0. 0. 0.
 0. 0. 0. 0.
 0. 0. 0. 0.
 0. 0. 0. 0.
 0. 0. 0. 0.
 0. 0. 0. 0.
 0. 0. 0. 0.
 0. 0. 0. 0.
 0. 0. 0. 0.
 0. 0. 0. 0.
 0. 0. 0. 0.
 0. 0. 0. 0.
 0. 0. 0. 0.
 0. 0. 0. 0.
 0. 0. 0. 0.
 0. 0. 0. 0.
 0. 0. 0. 0.
 0. 0. 0. 0.
 0. 0. 0. 0.
 0. 0. 0. 0.
 0. 0. 0. 0.
 0. 0. 0. 0.
 0. 0. 0. 0.
 0. 0. 0. 0.
 0. 0. 0. 0.
 0. 0. 0. 0.
 0. 0. 0. 0.
 0. 0. 0. 0.
 0. 0. 0. 0.
 0. 0. 0. 0.
 0. 0. 0. 0.
 0. 0. 0. 0.
 0. 0. 0. 0.
 0. 0. 0. 0.
 0. 0. 0. 0.
 0. 0. 0. 0.
 0. 0. 0. 0.
 0. 0. 0. 0.
 0. 0. 0. 0.
 0. 0. 0. 0.
 0. 0. 0. 0.
 0. 0. 0. 0.
 0. 0. 0. 0.
 0. 0. 0. 0.
 0. 0. 0. 0.
 0. 0. 0. 0.
 0. 0. 0. 0.
 0. 0. 0. 0.
 0. 0. 0. 0.
 0. 0. 0. 0.
 0. 0. 0. 0.
 0. 0. 0. 0.
 0. 0. 0. 0.
 0. 0. 0. 0.
 0. 0. 0. 0.
 0. 0. 0. 0.
 0. 0. 0. 0.
 0. 0. 0. 0.
 0. 0. 0. 0.
 0. 0. 0. 0.
 0. 0. 0. 0.
 0. 0. 0. 0.
 0. 0. 0. 0.
 0. 0. 0. 0.
 0. 0. 0. 0.
 0. 0. 0. 0.
 0. 0. 0. 0.
 0. 0. 0. 0.
 0. 0. 0. 0.
 0. 0. 0. 0.
 0. 0. 0. 0.
 0. 0. 0. 0.
 0. 0. 0. 0.
 0. 0. 0. 0.
 0. 0. 0. 0.
 0. 0. 0. 0.
 0. 0. 0. 0.
 0. 0. 0. 0.
 0. 0. 0. 0.
 0. 0. 0. 0.
 0. 0. 0. 0.
 0. 0. 0. 0.
 0. 0. 0. 0.
 0. 0. 0. 0.
 0. 0. 0. 0.
 0. 0. 0. 0.
 0. 0. 0. 0.
 0. 0. 0. 0.
 0. 0. 0. 0.
 0. 0. 0. 0.
 0. 0. 0. 0.
 0. 0. 0. 0.
 0. 0. 0. 0.
 0. 0. 0. 0.
 0. 0. 0. 0.
 0. 0. 0. 0.
 0. 0. 0. 0.
 0. 0. 0. 0.
 0. 0. 0. 0.
 0. 0. 0. 0.
 0. 0. 0. 0.
 0. 0. 0. 0.
 0. 0. 0. 0.
 0. 0. 0. 0.
 0. 0. 0. 0.
 0. 0. 0. 0.
 0. 0. 0. 0.
 0. 0. 0. 0.
 0. 0. 0. 0.
 0. 0. 0. 0.
 0. 0. 0. 0.
 0. 0. 0. 0.
 0. 0. 0. 0.
 0. 0. 0. 0.
 0. 0. 0. 0.
 0. 0. 0. 0.
 0. 0. 0. 0.
 0. 0. 0. 0.
 0. 0. 0. 0.
 0. 0. 0. 0.
 0. 0. 0. 0.
 0. 0. 0. 0.
 0. 0. 0. 0.
 0. 0. 0. 0.
 0. 0. 0. 0.
 0. 0. 0. 0.
 0. 0. 0. 0.
 0. 0. 0. 0.
 0. 0. 0. 0.
 0. 0. 0. 0.
 0. 0. 0. 0.
 0. 0. 0. 0.
 0. 0. 0. 0.
 0. 0. 0. 0.
 0. 0. 0. 0.
 0. 0. 0. 0.
 0. 0. 0. 0.
 0. 0. 0. 0.
 0. 0. 0. 0.
 0. 0. 0. 0.
 0. 0. 0. 0.
 0. 0. 0. 0.
 0. 0. 0. 0.
 0. 0. 0. 0.
 0. 0. 0. 0.
 0. 0. 0. 0.
 0. 0. 0. 0.
 0. 0. 0. 0.
 0. 0. 0. 0.
 0. 0. 0. 0.
 0. 0. 0. 0.
 0. 0. 0. 0.
 0. 0. 0. 0.
 0. 0. 0. 0.
 0. 0. 0. 0.
 0. 0. 0. 0.
 0. 0. 0. 0.
 0. 0. 0. 0.
 0. 0. 0. 0.
 0. 0. 0. 0.
 0. 0. 0. 0.
 0. 0. 0. 0.
 0. 0. 0. 0.
 0. 0. 0. 0.
 0. 0. 0. 0.
 0. 0. 0. 0.
 0. 0. 0. 0.
 0. 0. 0. 0.
 0. 0. 0. 0.
 0. 0. 0. 0.
 0. 0. 0. 0.
 0. 0. 0. 0.
 0. 0. 0. 0.
 0. 0. 0. 0.
 0. 0. 0. 0.
 0. 0. 0. 0.
 0. 0. 0. 0.
 0. 0. 0. 0.
 0. 0. 0. 0.
 0. 0. 0. 0.
 0. 0. 0. 0.
 0. 0. 0. 0.
 0. 0. 0. 0.
 0. 0. 0. 0.
 0. 0. 0. 0.
 0. 0. 0. 0.
 0. 0. 0. 0.
 0. 0. 0. 0.
 0. 0. 0. 0.
 0. 0. 0. 0.
 0. 0. 0. 0.
 0. 0. 0. 0.
 0. 0. 0. 0.
 0. 0. 0. 0.
 0. 0. 0. 0.
 0. 0. 0. 0.
 0. 0. 0. 0.
 0. 0. 0. 0.
 0. 0. 0. 0.
 0. 0. 0. 0.
 0. 0. 0. 0.
 0. 0. 0. 0.
 0. 0. 0. 0.
 0. 0. 0. 0.
 0. 0. 0. 0.
 0. 0. 0. 0.
 0. 0. 0. 0.
 0. 0. 0. 0.
 0. 0. 0. 0.
 0. 0. 0. 0.
 0. 0. 0. 0.
 0. 0. 0. 0.
 0. 0. 0. 0.
 0. 0. 0. 0.
 0. 0. 0. 0.
 0. 0. 0. 0.
 0. 0. 0. 0.
 0. 0. 0. 0.
 0. 0. 0. 0.
 0. 0. 0. 0.
 0. 0. 0. 0.
 0. 0. 0. 0.
 0. 0. 0. 0.
 0. 0. 0. 0.
 0. 0. 0. 0.
 0. 0. 0. 0.
 0. 0. 0. 0.
 0. 0. 0. 0.
 0. 0. 0. 0.
 0. 0. 0. 0.
 0. 0. 0. 0.
 0. 0. 0. 0.
 0. 0. 0. 0.
 0. 0. 0. 0.
 0. 0. 0. 0.
 0. 0. 0. 0.
 0. 0. 0. 0.
 0. 0. 0. 0.
 0. 0. 0. 0.
 0. 0. 0. 0.
 0. 0. 0. 0.
 0. 0. 0. 0.
 0. 0. 0. 0.
 0. 0. 0. 0.
 0. 0. 0. 0.
   </PP_BETA.5>
   <PP_BETA.6
       type="real"
       size="1680"
       columns="4"
       index="6"
       angular_momentum="1"
       cutoff_radius_index=" 176"
       cutoff_radius="    1.7500000000E+00" >
   -3.4882896849E-09   -7.2339670440E-04   -2.8868566786E-03   -6.4702880270E-03
   -1.1440530539E-02   -1.7751837725E-02   -2.5346537083E-02   -3.4155854389E-02
   -4.4100884349E-02   -5.5093686846E-02   -6.7038485423E-02   -7.9832942570E-02
   -9.3369484916E-02   -1.0753665055E-01   -1.2222043050E-01   -1.3730557686E-01
   -1.5267685098E-01   -1.6822018710E-01   -1.8382374880E-01   -1.9937885852E-01
   -2.1478078377E-01   -2.2992936724E-01   -2.4472949176E-01   -2.5909137562E-01
   -2.7293069781E-01   -2.8616855688E-01   -2.9873127187E-01   -3.1055003720E-01
   -3.2156044751E-01   -3.3170191194E-01   -3.4091697984E-01   -3.4915060282E-01
   -3.5634935955E-01   -3.6246067103E-01   -3.6743203462E-01   -3.7121030491E-01
   -3.7374104857E-01   -3.7496799910E-01   -3.7483263471E-01   -3.7327390029E-01
   -3.7022809076E-01   -3.6562890922E-01   -3.5940770947E-01   -3.5149392734E-01
   -3.4181570108E-01   -3.3030067591E-01   -3.1687698291E-01   -3.0147437810E-01
   -2.8402552258E-01   -2.6446738081E-01   -2.4274271027E-01   -2.1880161252E-01
   -1.9260311318E-01   -1.6411673648E-01   -1.3332403875E-01   -1.0022006505E-01
   -6.4814693317E-02   -2.7133831956E-02    1.2779561552E-02    5.4864670348E-02
    9.9042242225E-02    1.4521426977E-01    1.9326394376E-01    2.4305589169E-01
    2.9443670782E-01    3.4723577527E-01    4.0126637474E-01    4.5632706855E-01
    5.1220334268E-01    5.6866948420E-01    6.2549066593E-01    6.8242520580E-01
    7.3922696398E-01    7.9564783764E-01    8.5144031056E-01    9.0636001291E-01
    9.6016824594E-01    1.0126344261E+00    1.0635384044E+00    1.1126726188E+00
    1.1598440399E+00    1.2048758747E+00    1.2476089974E+00    1.2879030814E+00
    1.3256374118E+00    1.3607113668E+00    1.3930445597E+00    1.4225766419E+00
    1.4492667751E+00    1.4730927864E+00    1.4940500266E+00    1.5121499610E+00
    1.5274185234E+00    1.5398942742E+00    1.5496264042E+00    1.5566726300E+00
    1.5610970319E+00    1.5629678830E+00    1.5623555217E+00    1.5593303175E+00
    1.5539607797E+00    1.5463118531E+00    1.5364434443E+00    1.5244092155E+00
    1.5102556759E+00    1.4940215974E+00    1.4757377699E+00    1.4554271091E+00
    1.4331051157E+00    1.4087806817E+00    1.3824572288E+00    1.3541341557E+00
    1.3238085648E+00    1.2914772304E+00    1.2571387645E+00    1.2207959299E+00
    1.1824580475E+00    1.1421434380E+00    1.0998818388E+00    1.0557167327E+00
    1.0097075281E+00    9.6193152977E-01    9.1248564104E-01    8.6148774566E-01
    8.0907771892E-01    7.5541802648E-01    7.0069387521E-01    6.4511288939E-01
    5.8890429401E-01    5.3231759648E-01    4.7562076809E-01    4.1909793625E-01
    3.6304660874E-01    3.0777446096E-01    2.5359572621E-01    2.0082723818E-01
    1.4978418228E-01    1.0077561959E-01    5.4099852949E-02    1.0039709121E-02
   -3.1142185788E-02   -6.9208058926E-02   -1.0394949229E-01   -1.3519169609E-01
   -1.6279748035E-01   -1.8667081940E-01   -2.0676009263E-01   -2.2305778849E-01
   -2.3559587542E-01   -2.4444442766E-01   -2.4971181578E-01   -2.5154414051E-01
   -2.5012405741E-01   -2.4566897006E-01   -2.3842860979E-01   -2.2868203092E-01
   -2.1673406090E-01   -2.0291125564E-01   -1.8755741971E-01   -1.7102875961E-01
   -1.5368874778E-01   -1.3590277092E-01   -1.1803266731E-01   -1.0043122708E-01
   -8.3436803708E-02   -6.7361702115E-02   -5.2484101637E-02   -3.9074970371E-02
   -2.7371926770E-02   -1.7574078265E-02   -9.8392551361E-03   -4.2746405171E-03
   -9.6223770218E-04    1.1315915866E-04    2.3845025927E-06   -4.0305791073E-06
 0. 0. 0. 0.
 0. 0. 0. 0.
 0. 0. 0. 0.
 0. 0. 0. 0.
 0. 0. 0. 0.
 0. 0. 0. 0.
 0. 0. 0. 0.
 0. 0. 0. 0.
 0. 0. 0. 0.
 0. 0. 0. 0.
 0. 0. 0. 0.
 0. 0. 0. 0.
 0. 0. 0. 0.
 0. 0. 0. 0.
 0. 0. 0. 0.
 0. 0. 0. 0.
 0. 0. 0. 0.
 0. 0. 0. 0.
 0. 0. 0. 0.
 0. 0. 0. 0.
 0. 0. 0. 0.
 0. 0. 0. 0.
 0. 0. 0. 0.
 0. 0. 0. 0.
 0. 0. 0. 0.
 0. 0. 0. 0.
 0. 0. 0. 0.
 0. 0. 0. 0.
 0. 0. 0. 0.
 0. 0. 0. 0.
 0. 0. 0. 0.
 0. 0. 0. 0.
 0. 0. 0. 0.
 0. 0. 0. 0.
 0. 0. 0. 0.
 0. 0. 0. 0.
 0. 0. 0. 0.
 0. 0. 0. 0.
 0. 0. 0. 0.
 0. 0. 0. 0.
 0. 0. 0. 0.
 0. 0. 0. 0.
 0. 0. 0. 0.
 0. 0. 0. 0.
 0. 0. 0. 0.
 0. 0. 0. 0.
 0. 0. 0. 0.
 0. 0. 0. 0.
 0. 0. 0. 0.
 0. 0. 0. 0.
 0. 0. 0. 0.
 0. 0. 0. 0.
 0. 0. 0. 0.
 0. 0. 0. 0.
 0. 0. 0. 0.
 0. 0. 0. 0.
 0. 0. 0. 0.
 0. 0. 0. 0.
 0. 0. 0. 0.
 0. 0. 0. 0.
 0. 0. 0. 0.
 0. 0. 0. 0.
 0. 0. 0. 0.
 0. 0. 0. 0.
 0. 0. 0. 0.
 0. 0. 0. 0.
 0. 0. 0. 0.
 0. 0. 0. 0.
 0. 0. 0. 0.
 0. 0. 0. 0.
 0. 0. 0. 0.
 0. 0. 0. 0.
 0. 0. 0. 0.
 0. 0. 0. 0.
 0. 0. 0. 0.
 0. 0. 0. 0.
 0. 0. 0. 0.
 0. 0. 0. 0.
 0. 0. 0. 0.
 0. 0. 0. 0.
 0. 0. 0. 0.
 0. 0. 0. 0.
 0. 0. 0. 0.
 0. 0. 0. 0.
 0. 0. 0. 0.
 0. 0. 0. 0.
 0. 0. 0. 0.
 0. 0. 0. 0.
 0. 0. 0. 0.
 0. 0. 0. 0.
 0. 0. 0. 0.
 0. 0. 0. 0.
 0. 0. 0. 0.
 0. 0. 0. 0.
 0. 0. 0. 0.
 0. 0. 0. 0.
 0. 0. 0. 0.
 0. 0. 0. 0.
 0. 0. 0. 0.
 0. 0. 0. 0.
 0. 0. 0. 0.
 0. 0. 0. 0.
 0. 0. 0. 0.
 0. 0. 0. 0.
 0. 0. 0. 0.
 0. 0. 0. 0.
 0. 0. 0. 0.
 0. 0. 0. 0.
 0. 0. 0. 0.
 0. 0. 0. 0.
 0. 0. 0. 0.
 0. 0. 0. 0.
 0. 0. 0. 0.
 0. 0. 0. 0.
 0. 0. 0. 0.
 0. 0. 0. 0.
 0. 0. 0. 0.
 0. 0. 0. 0.
 0. 0. 0. 0.
 0. 0. 0. 0.
 0. 0. 0. 0.
 0. 0. 0. 0.
 0. 0. 0. 0.
 0. 0. 0. 0.
 0. 0. 0. 0.
 0. 0. 0. 0.
 0. 0. 0. 0.
 0. 0. 0. 0.
 0. 0. 0. 0.
 0. 0. 0. 0.
 0. 0. 0. 0.
 0. 0. 0. 0.
 0. 0. 0. 0.
 0. 0. 0. 0.
 0. 0. 0. 0.
 0. 0. 0. 0.
 0. 0. 0. 0.
 0. 0. 0. 0.
 0. 0. 0. 0.
 0. 0. 0. 0.
 0. 0. 0. 0.
 0. 0. 0. 0.
 0. 0. 0. 0.
 0. 0. 0. 0.
 0. 0. 0. 0.
 0. 0. 0. 0.
 0. 0. 0. 0.
 0. 0. 0. 0.
 0. 0. 0. 0.
 0. 0. 0. 0.
 0. 0. 0. 0.
 0. 0. 0. 0.
 0. 0. 0. 0.
 0. 0. 0. 0.
 0. 0. 0. 0.
 0. 0. 0. 0.
 0. 0. 0. 0.
 0. 0. 0. 0.
 0. 0. 0. 0.
 0. 0. 0. 0.
 0. 0. 0. 0.
 0. 0. 0. 0.
 0. 0. 0. 0.
 0. 0. 0. 0.
 0. 0. 0. 0.
 0. 0. 0. 0.
 0. 0. 0. 0.
 0. 0. 0. 0.
 0. 0. 0. 0.
 0. 0. 0. 0.
 0. 0. 0. 0.
 0. 0. 0. 0.
 0. 0. 0. 0.
 0. 0. 0. 0.
 0. 0. 0. 0.
 0. 0. 0. 0.
 0. 0. 0. 0.
 0. 0. 0. 0.
 0. 0. 0. 0.
 0. 0. 0. 0.
 0. 0. 0. 0.
 0. 0. 0. 0.
 0. 0. 0. 0.
 0. 0. 0. 0.
 0. 0. 0. 0.
 0. 0. 0. 0.
 0. 0. 0. 0.
 0. 0. 0. 0.
 0. 0. 0. 0.
 0. 0. 0. 0.
 0. 0. 0. 0.
 0. 0. 0. 0.
 0. 0. 0. 0.
 0. 0. 0. 0.
 0. 0. 0. 0.
 0. 0. 0. 0.
 0. 0. 0. 0.
 0. 0. 0. 0.
 0. 0. 0. 0.
 0. 0. 0. 0.
 0. 0. 0. 0.
 0. 0. 0. 0.
 0. 0. 0. 0.
 0. 0. 0. 0.
 0. 0. 0. 0.
 0. 0. 0. 0.
 0. 0. 0. 0.
 0. 0. 0. 0.
 0. 0. 0. 0.
 0. 0. 0. 0.
 0. 0. 0. 0.
 0. 0. 0. 0.
 0. 0. 0. 0.
 0. 0. 0. 0.
 0. 0. 0. 0.
 0. 0. 0. 0.
 0. 0. 0. 0.
 0. 0. 0. 0.
 0. 0. 0. 0.
 0. 0. 0. 0.
 0. 0. 0. 0.
 0. 0. 0. 0.
 0. 0. 0. 0.
 0. 0. 0. 0.
 0. 0. 0. 0.
 0. 0. 0. 0.
 0. 0. 0. 0.
 0. 0. 0. 0.
 0. 0. 0. 0.
 0. 0. 0. 0.
 0. 0. 0. 0.
 0. 0. 0. 0.
 0. 0. 0. 0.
 0. 0. 0. 0.
 0. 0. 0. 0.
 0. 0. 0. 0.
 0. 0. 0. 0.
 0. 0. 0. 0.
 0. 0. 0. 0.
 0. 0. 0. 0.
 0. 0. 0. 0.
 0. 0. 0. 0.
 0. 0. 0. 0.
 0. 0. 0. 0.
 0. 0. 0. 0.
 0. 0. 0. 0.
 0. 0. 0. 0.
 0. 0. 0. 0.
 0. 0. 0. 0.
 0. 0. 0. 0.
 0. 0. 0. 0.
 0. 0. 0. 0.
 0. 0. 0. 0.
 0. 0. 0. 0.
 0. 0. 0. 0.
 0. 0. 0. 0.
 0. 0. 0. 0.
 0. 0. 0. 0.
 0. 0. 0. 0.
 0. 0. 0. 0.
 0. 0. 0. 0.
 0. 0. 0. 0.
 0. 0. 0. 0.
 0. 0. 0. 0.
 0. 0. 0. 0.
 0. 0. 0. 0.
 0. 0. 0. 0.
 0. 0. 0. 0.
 0. 0. 0. 0.
 0. 0. 0. 0.
 0. 0. 0. 0.
 0. 0. 0. 0.
 0. 0. 0. 0.
 0. 0. 0. 0.
 0. 0. 0. 0.
 0. 0. 0. 0.
 0. 0. 0. 0.
 0. 0. 0. 0.
 0. 0. 0. 0.
 0. 0. 0. 0.
 0. 0. 0. 0.
 0. 0. 0. 0.
 0. 0. 0. 0.
 0. 0. 0. 0.
 0. 0. 0. 0.
 0. 0. 0. 0.
 0. 0. 0. 0.
 0. 0. 0. 0.
 0. 0. 0. 0.
 0. 0. 0. 0.
 0. 0. 0. 0.
 0. 0. 0. 0.
 0. 0. 0. 0.
 0. 0. 0. 0.
 0. 0. 0. 0.
 0. 0. 0. 0.
 0. 0. 0. 0.
 0. 0. 0. 0.
 0. 0. 0. 0.
 0. 0. 0. 0.
 0. 0. 0. 0.
 0. 0. 0. 0.
 0. 0. 0. 0.
 0. 0. 0. 0.
 0. 0. 0. 0.
 0. 0. 0. 0.
 0. 0. 0. 0.
 0. 0. 0. 0.
 0. 0. 0. 0.
 0. 0. 0. 0.
 0. 0. 0. 0.
 0. 0. 0. 0.
 0. 0. 0. 0.
 0. 0. 0. 0.
 0. 0. 0. 0.
 0. 0. 0. 0.
 0. 0. 0. 0.
 0. 0. 0. 0.
 0. 0. 0. 0.
 0. 0. 0. 0.
 0. 0. 0. 0.
 0. 0. 0. 0.
 0. 0. 0. 0.
 0. 0. 0. 0.
 0. 0. 0. 0.
 0. 0. 0. 0.
 0. 0. 0. 0.
 0. 0. 0. 0.
 0. 0. 0. 0.
 0. 0. 0. 0.
 0. 0. 0. 0.
 0. 0. 0. 0.
 0. 0. 0. 0.
 0. 0. 0. 0.
 0. 0. 0. 0.
 0. 0. 0. 0.
 0. 0. 0. 0.
 0. 0. 0. 0.
 0. 0. 0. 0.
 0. 0. 0. 0.
 0. 0. 0. 0.
 0. 0. 0. 0.
 0. 0. 0. 0.
 0. 0. 0. 0.
 0. 0. 0. 0.
 0. 0. 0. 0.
 0. 0. 0. 0.
 0. 0. 0. 0.
 0. 0. 0. 0.
 0. 0. 0. 0.
 0. 0. 0. 0.
 0. 0. 0. 0.
 0. 0. 0. 0.
 0. 0. 0. 0.
 0. 0. 0. 0.
 0. 0. 0. 0.
 0. 0. 0. 0.
 0. 0. 0. 0.
 0. 0. 0. 0.
 0. 0. 0. 0.
 0. 0. 0. 0.
 0. 0. 0. 0.
 0. 0. 0. 0.
 0. 0. 0. 0.
 0. 0. 0. 0.
 0. 0. 0. 0.
 0. 0. 0. 0.
 0. 0. 0. 0.
 0. 0. 0. 0.
 0. 0. 0. 0.
 0. 0. 0. 0.
 0. 0. 0. 0.
 0. 0. 0. 0.
 0. 0. 0. 0.
 0. 0. 0. 0.
 0. 0. 0. 0.
   </PP_BETA.6>
   <PP_BETA.7
       type="real"
       size="1680"
       columns="4"
       index="7"
       angular_momentum="2"
       cutoff_radius_index=" 176"
       cutoff_radius="    1.7500000000E+00" >
   -8.5323791392E-09   -1.0157598783E-05   -8.0345435103E-05   -2.6604102444E-04
   -6.1372819033E-04   -1.1566773640E-03   -1.9110522429E-03   -2.8724413558E-03
   -4.0129045524E-03   -5.2786140634E-03   -6.5881577726E-03   -7.8315589044E-03
   -8.8700517299E-03   -9.5366373846E-03   -9.6374277744E-03   -8.9537691150E-03
   -7.2451202155E-03   -4.2526444952E-03    2.9654079234E-04    6.6845292487E-03
    1.5197288463E-02    2.6118918058E-02    3.9725609384E-02    5.6279421918E-02
    7.6021997722E-02    9.9168339330E-02    1.2590077816E-01    1.5636325991E-01
    1.9065607026E-01    2.2883111889E-01    2.7088789194E-01    3.1677017314E-01
    3.6636362200E-01    4.1949428332E-01    4.7592808710E-01    5.3537138089E-01
    5.9747251887E-01    6.6182451302E-01    7.2796873287E-01    7.9539962074E-01
    8.6357037061E-01    9.3189950001E-01    9.9977822708E-01    1.0665785482E+00
    1.1316618973E+00    1.1943882544E+00    1.2541255605E+00    1.3102592877E+00
    1.3622020059E+00    1.4094027861E+00    1.4513562781E+00    1.4876113025E+00
    1.5177788036E+00    1.5415390144E+00    1.5586476996E+00    1.5689413494E+00
    1.5723412197E+00    1.5688561240E+00    1.5585839078E+00    1.5417115522E+00
    1.5185138804E+00    1.4893508578E+00    1.4546635060E+00    1.4149684683E+00
    1.3708512932E+00    1.3229585209E+00    1.2719886795E+00    1.2186823201E+00
    1.1638112352E+00    1.1081670212E+00    1.0525491608E+00    9.9775281004E-01
    9.4455648204E-01    8.9370982679E-01    8.4592170435E-01    8.0184874900E-01
    7.6208461605E-01    7.2715009414E-01    6.9748425463E-01    6.7343679481E-01
    6.5526171388E-01    6.4311244111E-01    6.3703851296E-01    6.3698387172E-01
    6.4278683302E-01    6.5418174217E-01    6.7080231256E-01    6.9218661117E-01
    7.1778362924E-01    7.4696134954E-01    7.7901619597E-01    8.1318372772E-01
    8.4865041814E-01    8.8456633929E-01    9.2005855645E-01    9.5424502312E-01
    9.8624875730E-01    1.0152120725E+00    1.0403106344E+00    1.0607671149E+00
    1.0758642188E+00    1.0849568681E+00    1.0874833400E+00    1.0829751699E+00
    1.0710656485E+00    1.0514967674E+00    1.0241244853E+00    9.8892222033E-01
    9.4598249696E-01    8.9551670784E-01    8.3785298168E-01    7.7343217771E-01
    7.0280205905E-01    6.2660972683E-01    5.4559242597E-01    4.6056686057E-01
    3.7241718219E-01    2.8208183658E-01    1.9053947439E-01    9.8794147244E-02
    7.8600239568E-03   -8.1254130024E-02   -1.6756046133E-01   -2.5010727634E-01
   -3.2799378158E-01   -4.0038407810E-01   -4.6652018205E-01   -5.2573385892E-01
   -5.7745707727E-01   -6.2123090997E-01   -6.5671273508E-01   -6.8368161658E-01
   -7.0204177358E-01   -7.1182407809E-01   -7.1318555315E-01   -7.0640687529E-01
   -6.9188791806E-01   -6.7014140470E-01   -6.4178476923E-01   -6.0753035374E-01
   -5.6817409686E-01   -5.2458289275E-01   -4.7768082107E-01   -4.2843446632E-01
   -3.7783755843E-01   -3.2689520102E-01   -2.7660781993E-01   -2.2795709090E-01
   -1.8189342415E-01   -1.3932447299E-01   -1.0111186962E-01   -6.8046941379E-02
   -4.0839320249E-02   -2.0116334425E-02   -6.3411141876E-03   -2.1301212212E-04
    1.7139836771E-04   -4.1436857017E-05    6.0886805622E-06   -1.9640512242E-07
    0.0000000000E+00    0.0000000000E+00    0.0000000000E+00    0.0000000000E+00
    0.0000000000E+00    0.0000000000E+00    0.0000000000E+00    0.0000000000E+00
    0.0000000000E+00    0.0000000000E+00    0.0000000000E+00    0.0000000000E+00
    0.0000000000E+00    0.0000000000E+00    0.0000000000E+00    0.0000000000E+00
 0. 0. 0. 0.
 0. 0. 0. 0.
 0. 0. 0. 0.
 0. 0. 0. 0.
 0. 0. 0. 0.
 0. 0. 0. 0.
 0. 0. 0. 0.
 0. 0. 0. 0.
 0. 0. 0. 0.
 0. 0. 0. 0.
 0. 0. 0. 0.
 0. 0. 0. 0.
 0. 0. 0. 0.
 0. 0. 0. 0.
 0. 0. 0. 0.
 0. 0. 0. 0.
 0. 0. 0. 0.
 0. 0. 0. 0.
 0. 0. 0. 0.
 0. 0. 0. 0.
 0. 0. 0. 0.
 0. 0. 0. 0.
 0. 0. 0. 0.
 0. 0. 0. 0.
 0. 0. 0. 0.
 0. 0. 0. 0.
 0. 0. 0. 0.
 0. 0. 0. 0.
 0. 0. 0. 0.
 0. 0. 0. 0.
 0. 0. 0. 0.
 0. 0. 0. 0.
 0. 0. 0. 0.
 0. 0. 0. 0.
 0. 0. 0. 0.
 0. 0. 0. 0.
 0. 0. 0. 0.
 0. 0. 0. 0.
 0. 0. 0. 0.
 0. 0. 0. 0.
 0. 0. 0. 0.
 0. 0. 0. 0.
 0. 0. 0. 0.
 0. 0. 0. 0.
 0. 0. 0. 0.
 0. 0. 0. 0.
 0. 0. 0. 0.
 0. 0. 0. 0.
 0. 0. 0. 0.
 0. 0. 0. 0.
 0. 0. 0. 0.
 0. 0. 0. 0.
 0. 0. 0. 0.
 0. 0. 0. 0.
 0. 0. 0. 0.
 0. 0. 0. 0.
 0. 0. 0. 0.
 0. 0. 0. 0.
 0. 0. 0. 0.
 0. 0. 0. 0.
 0. 0. 0. 0.
 0. 0. 0. 0.
 0. 0. 0. 0.
 0. 0. 0. 0.
 0. 0. 0. 0.
 0. 0. 0. 0.
 0. 0. 0. 0.
 0. 0. 0. 0.
 0. 0. 0. 0.
 0. 0. 0. 0.
 0. 0. 0. 0.
 0. 0. 0. 0.
 0. 0. 0. 0.
 0. 0. 0. 0.
 0. 0. 0. 0.
 0. 0. 0. 0.
 0. 0. 0. 0.
 0. 0. 0. 0.
 0. 0. 0. 0.
 0. 0. 0. 0.
 0. 0. 0. 0.
 0. 0. 0. 0.
 0. 0. 0. 0.
 0. 0. 0. 0.
 0. 0. 0. 0.
 0. 0. 0. 0.
 0. 0. 0. 0.
 0. 0. 0. 0.
 0. 0. 0. 0.
 0. 0. 0. 0.
 0. 0. 0. 0.
 0. 0. 0. 0.
 0. 0. 0. 0.
 0. 0. 0. 0.
 0. 0. 0. 0.
 0. 0. 0. 0.
 0. 0. 0. 0.
 0. 0. 0. 0.
 0. 0. 0. 0.
 0. 0. 0. 0.
 0. 0. 0. 0.
 0. 0. 0. 0.
 0. 0. 0. 0.
 0. 0. 0. 0.
 0. 0. 0. 0.
 0. 0. 0. 0.
 0. 0. 0. 0.
 0. 0. 0. 0.
 0. 0. 0. 0.
 0. 0. 0. 0.
 0. 0. 0. 0.
 0. 0. 0. 0.
 0. 0. 0. 0.
 0. 0. 0. 0.
 0. 0. 0. 0.
 0. 0. 0. 0.
 0. 0. 0. 0.
 0. 0. 0. 0.
 0. 0. 0. 0.
 0. 0. 0. 0.
 0. 0. 0. 0.
 0. 0. 0. 0.
 0. 0. 0. 0.
 0. 0. 0. 0.
 0. 0. 0. 0.
 0. 0. 0. 0.
 0. 0. 0. 0.
 0. 0. 0. 0.
 0. 0. 0. 0.
 0. 0. 0. 0.
 0. 0. 0. 0.
 0. 0. 0. 0.
 0. 0. 0. 0.
 0. 0. 0. 0.
 0. 0. 0. 0.
 0. 0. 0. 0.
 0. 0. 0. 0.
 0. 0. 0. 0.
 0. 0. 0. 0.
 0. 0. 0. 0.
 0. 0. 0. 0.
 0. 0. 0. 0.
 0. 0. 0. 0.
 0. 0. 0. 0.
 0. 0. 0. 0.
 0. 0. 0. 0.
 0. 0. 0. 0.
 0. 0. 0. 0.
 0. 0. 0. 0.
 0. 0. 0. 0.
 0. 0. 0. 0.
 0. 0. 0. 0.
 0. 0. 0. 0.
 0. 0. 0. 0.
 0. 0. 0. 0.
 0. 0. 0. 0.
 0. 0. 0. 0.
 0. 0. 0. 0.
 0. 0. 0. 0.
 0. 0. 0. 0.
 0. 0. 0. 0.
 0. 0. 0. 0.
 0. 0. 0. 0.
 0. 0. 0. 0.
 0. 0. 0. 0.
 0. 0. 0. 0.
 0. 0. 0. 0.
 0. 0. 0. 0.
 0. 0. 0. 0.
 0. 0. 0. 0.
 0. 0. 0. 0.
 0. 0. 0. 0.
 0. 0. 0. 0.
 0. 0. 0. 0.
 0. 0. 0. 0.
 0. 0. 0. 0.
 0. 0. 0. 0.
 0. 0. 0. 0.
 0. 0. 0. 0.
 0. 0. 0. 0.
 0. 0. 0. 0.
 0. 0. 0. 0.
 0. 0. 0. 0.
 0. 0. 0. 0.
 0. 0. 0. 0.
 0. 0. 0. 0.
 0. 0. 0. 0.
 0. 0. 0. 0.
 0. 0. 0. 0.
 0. 0. 0. 0.
 0. 0. 0. 0.
 0. 0. 0. 0.
 0. 0. 0. 0.
 0. 0. 0. 0.
 0. 0. 0. 0.
 0. 0. 0. 0.
 0. 0. 0. 0.
 0. 0. 0. 0.
 0. 0. 0. 0.
 0. 0. 0. 0.
 0. 0. 0. 0.
 0. 0. 0. 0.
 0. 0. 0. 0.
 0. 0. 0. 0.
 0. 0. 0. 0.
 0. 0. 0. 0.
 0. 0. 0. 0.
 0. 0. 0. 0.
 0. 0. 0. 0.
 0. 0. 0. 0.
 0. 0. 0. 0.
 0. 0. 0. 0.
 0. 0. 0. 0.
 0. 0. 0. 0.
 0. 0. 0. 0.
 0. 0. 0. 0.
 0. 0. 0. 0.
 0. 0. 0. 0.
 0. 0. 0. 0.
 0. 0. 0. 0.
 0. 0. 0. 0.
 0. 0. 0. 0.
 0. 0. 0. 0.
 0. 0. 0. 0.
 0. 0. 0. 0.
 0. 0. 0. 0.
 0. 0. 0. 0.
 0. 0. 0. 0.
 0. 0. 0. 0.
 0. 0. 0. 0.
 0. 0. 0. 0.
 0. 0. 0. 0.
 0. 0. 0. 0.
 0. 0. 0. 0.
 0. 0. 0. 0.
 0. 0. 0. 0.
 0. 0. 0. 0.
 0. 0. 0. 0.
 0. 0. 0. 0.
 0. 0. 0. 0.
 0. 0. 0. 0.
 0. 0. 0. 0.
 0. 0. 0. 0.
 0. 0. 0. 0.
 0. 0. 0. 0.
 0. 0. 0. 0.
 0. 0. 0. 0.
 0. 0. 0. 0.
 0. 0. 0. 0.
 0. 0. 0. 0.
 0. 0. 0. 0.
 0. 0. 0. 0.
 0. 0. 0. 0.
 0. 0. 0. 0.
 0. 0. 0. 0.
 0. 0. 0. 0.
 0. 0. 0. 0.
 0. 0. 0. 0.
 0. 0. 0. 0.
 0. 0. 0. 0.
 0. 0. 0. 0.
 0. 0. 0. 0.
 0. 0. 0. 0.
 0. 0. 0. 0.
 0. 0. 0. 0.
 0. 0. 0. 0.
 0. 0. 0. 0.
 0. 0. 0. 0.
 0. 0. 0. 0.
 0. 0. 0. 0.
 0. 0. 0. 0.
 0. 0. 0. 0.
 0. 0. 0. 0.
 0. 0. 0. 0.
 0. 0. 0. 0.
 0. 0. 0. 0.
 0. 0. 0. 0.
 0. 0. 0. 0.
 0. 0. 0. 0.
 0. 0. 0. 0.
 0. 0. 0. 0.
 0. 0. 0. 0.
 0. 0. 0. 0.
 0. 0. 0. 0.
 0. 0. 0. 0.
 0. 0. 0. 0.
 0. 0. 0. 0.
 0. 0. 0. 0.
 0. 0. 0. 0.
 0. 0. 0. 0.
 0. 0. 0. 0.
 0. 0. 0. 0.
 0. 0. 0. 0.
 0. 0. 0. 0.
 0. 0. 0. 0.
 0. 0. 0. 0.
 0. 0. 0. 0.
 0. 0. 0. 0.
 0. 0. 0. 0.
 0. 0. 0. 0.
 0. 0. 0. 0.
 0. 0. 0. 0.
 0. 0. 0. 0.
 0. 0. 0. 0.
 0. 0. 0. 0.
 0. 0. 0. 0.
 0. 0. 0. 0.
 0. 0. 0. 0.
 0. 0. 0. 0.
 0. 0. 0. 0.
 0. 0. 0. 0.
 0. 0. 0. 0.
 0. 0. 0. 0.
 0. 0. 0. 0.
 0. 0. 0. 0.
 0. 0. 0. 0.
 0. 0. 0. 0.
 0. 0. 0. 0.
 0. 0. 0. 0.
 0. 0. 0. 0.
 0. 0. 0. 0.
 0. 0. 0. 0.
 0. 0. 0. 0.
 0. 0. 0. 0.
 0. 0. 0. 0.
 0. 0. 0. 0.
 0. 0. 0. 0.
 0. 0. 0. 0.
 0. 0. 0. 0.
 0. 0. 0. 0.
 0. 0. 0. 0.
 0. 0. 0. 0.
 0. 0. 0. 0.
 0. 0. 0. 0.
 0. 0. 0. 0.
 0. 0. 0. 0.
 0. 0. 0. 0.
 0. 0. 0. 0.
 0. 0. 0. 0.
 0. 0. 0. 0.
 0. 0. 0. 0.
 0. 0. 0. 0.
 0. 0. 0. 0.
 0. 0. 0. 0.
 0. 0. 0. 0.
 0. 0. 0. 0.
 0. 0. 0. 0.
 0. 0. 0. 0.
 0. 0. 0. 0.
 0. 0. 0. 0.
 0. 0. 0. 0.
 0. 0. 0. 0.
 0. 0. 0. 0.
 0. 0. 0. 0.
 0. 0. 0. 0.
 0. 0. 0. 0.
 0. 0. 0. 0.
 0. 0. 0. 0.
 0. 0. 0. 0.
 0. 0. 0. 0.
 0. 0. 0. 0.
 0. 0. 0. 0.
 0. 0. 0. 0.
 0. 0. 0. 0.
 0. 0. 0. 0.
 0. 0. 0. 0.
 0. 0. 0. 0.
 0. 0. 0. 0.
 0. 0. 0. 0.
 0. 0. 0. 0.
 0. 0. 0. 0.
 0. 0. 0. 0.
 0. 0. 0. 0.
 0. 0. 0. 0.
 0. 0. 0. 0.
 0. 0. 0. 0.
   </PP_BETA.7>
   <PP_BETA.8
       type="real"
       size="1680"
       columns="4"
       index="8"
       angular_momentum="2"
       cutoff_radius_index=" 176"
       cutoff_radius="    1.7500000000E+00" >
   -8.7738729251E-09   -1.2716257547E-05   -1.0076540747E-04   -3.3468195961E-04
   -7.7551926193E-04   -1.4703956299E-03   -2.4483781368E-03   -3.7168060926E-03
   -5.2581474641E-03   -7.0274708287E-03   -8.9506031010E-03   -1.0923029456E-02
   -1.2809576848E-02   -1.4444906565E-02   -1.5634824679E-02   -1.6158402327E-02
   -1.5770880849E-02   -1.4207320178E-02   -1.1186932921E-02   -6.4180314834E-03
    3.9649822241E-04    9.5532953048E-03    2.1342304067E-02    3.6040353910E-02
    5.3904663570E-02    7.5166398522E-02    1.0002441228E-01    1.2863930173E-01
    1.6112790355E-01    1.9755835338E-01    2.3794582149E-01    2.8224902856E-01
    3.3036763311E-01    3.8214056782E-01    4.3734538644E-01    4.9569866544E-01
    5.5685748661E-01    6.2042200745E-01    6.8593910649E-01    7.5290707132E-01
    8.2078127713E-01    8.8898078492E-01    9.5689577037E-01    1.0238956777E+00
    1.0893379774E+00    1.1525773938E+00    1.2129754564E+00    1.2699102217E+00
    1.3227860030E+00    1.3710429462E+00    1.4141662842E+00    1.4516951084E+00
    1.4832304988E+00    1.5084428615E+00    1.5270783351E+00    1.5389641380E+00
    1.5440127461E+00    1.5422248064E+00    1.5336907135E+00    1.5185907952E+00
    1.4971940769E+00    1.4698556186E+00    1.4370124395E+00    1.3991780723E+00
    1.3569358105E+00    1.3109307365E+00    1.2618606388E+00    1.2104659477E+00
    1.1575188375E+00    1.1038116579E+00    1.0501448741E+00    9.9731470136E-01
    9.4610063265E-01    8.9725305925E-01    8.5148118683E-01    8.0944144792E-01
    7.7172660550E-01    7.3885573456E-01    7.1126525607E-01    6.8930118311E-01
    6.7321272091E-01    6.6314734234E-01    6.5914743749E-01    6.6114861150E-01
    6.6897967864E-01    6.8236437331E-01    7.0092477070E-01    7.2418638181E-01
    7.5158485954E-01    7.8247422552E-01    8.1613650129E-01    8.5179260325E-01
    8.8861433848E-01    9.2573731890E-01    9.6227459412E-01    9.9733078966E-01
    1.0300165267E+00    1.0594628926E+00    1.0848357294E+00    1.1053495055E+00
    1.1202805445E+00    1.1289793899E+00    1.1308820984E+00    1.1255202700E+00
    1.1125296414E+00    1.0916570932E+00    1.0627659422E+00    1.0258394226E+00
    9.8098228259E-01    9.2842045876E-01    8.6849881763E-01    8.0167698719E-01
    7.2852333214E-01    6.4970715720E-01    5.6598925224E-01    4.7821092091E-01
    3.8728165993E-01    2.9416567930E-01    1.9986747362E-01    1.0541667141E-01
    1.1852402333E-02   -7.9792568853E-02   -1.6850768742E-01   -2.5332017816E-01
   -3.3331008764E-01   -4.0762455514E-01   -4.7549107986E-01   -5.3622956723E-01
   -5.8926295645E-01   -6.3412625354E-01   -6.7047381980E-01   -6.9808479328E-01
   -7.1686655102E-01   -7.2685615135E-01   -7.2821972829E-01   -7.2124984316E-01
   -7.0636083176E-01   -6.8408221805E-01   -6.5505029652E-01   -6.1999801549E-01
   -5.7974332068E-01   -5.3517614373E-01   -4.8724424190E-01   -4.3693811343E-01
   -3.8527522709E-01   -3.3328383810E-01   -2.8198652996E-01   -2.3238564454E-01
   -1.8544984579E-01   -1.4210109518E-01   -1.0321374712E-01   -6.9588912136E-02
   -4.1942288076E-02   -2.0904447637E-02   -6.9214398001E-03   -7.7301432510E-04
    4.7960477668E-05   -1.6659610297E-05    1.8290507696E-06    1.2200238606E-07
    0.0000000000E+00    0.0000000000E+00    0.0000000000E+00    0.0000000000E+00
    0.0000000000E+00    0.0000000000E+00    0.0000000000E+00    0.0000000000E+00
    0.0000000000E+00    0.0000000000E+00    0.0000000000E+00    0.0000000000E+00
    0.0000000000E+00    0.0000000000E+00    0.0000000000E+00    0.0000000000E+00
 0. 0. 0. 0.
 0. 0. 0. 0.
 0. 0. 0. 0.
 0. 0. 0. 0.
 0. 0. 0. 0.
 0. 0. 0. 0.
 0. 0. 0. 0.
 0. 0. 0. 0.
 0. 0. 0. 0.
 0. 0. 0. 0.
 0. 0. 0. 0.
 0. 0. 0. 0.
 0. 0. 0. 0.
 0. 0. 0. 0.
 0. 0. 0. 0.
 0. 0. 0. 0.
 0. 0. 0. 0.
 0. 0. 0. 0.
 0. 0. 0. 0.
 0. 0. 0. 0.
 0. 0. 0. 0.
 0. 0. 0. 0.
 0. 0. 0. 0.
 0. 0. 0. 0.
 0. 0. 0. 0.
 0. 0. 0. 0.
 0. 0. 0. 0.
 0. 0. 0. 0.
 0. 0. 0. 0.
 0. 0. 0. 0.
 0. 0. 0. 0.
 0. 0. 0. 0.
 0. 0. 0. 0.
 0. 0. 0. 0.
 0. 0. 0. 0.
 0. 0. 0. 0.
 0. 0. 0. 0.
 0. 0. 0. 0.
 0. 0. 0. 0.
 0. 0. 0. 0.
 0. 0. 0. 0.
 0. 0. 0. 0.
 0. 0. 0. 0.
 0. 0. 0. 0.
 0. 0. 0. 0.
 0. 0. 0. 0.
 0. 0. 0. 0.
 0. 0. 0. 0.
 0. 0. 0. 0.
 0. 0. 0. 0.
 0. 0. 0. 0.
 0. 0. 0. 0.
 0. 0. 0. 0.
 0. 0. 0. 0.
 0. 0. 0. 0.
 0. 0. 0. 0.
 0. 0. 0. 0.
 0. 0. 0. 0.
 0. 0. 0. 0.
 0. 0. 0. 0.
 0. 0. 0. 0.
 0. 0. 0. 0.
 0. 0. 0. 0.
 0. 0. 0. 0.
 0. 0. 0. 0.
 0. 0. 0. 0.
 0. 0. 0. 0.
 0. 0. 0. 0.
 0. 0. 0. 0.
 0. 0. 0. 0.
 0. 0. 0. 0.
 0. 0. 0. 0.
 0. 0. 0. 0.
 0. 0. 0. 0.
 0. 0. 0. 0.
 0. 0. 0. 0.
 0. 0. 0. 0.
 0. 0. 0. 0.
 0. 0. 0. 0.
 0. 0. 0. 0.
 0. 0. 0. 0.
 0. 0. 0. 0.
 0. 0. 0. 0.
 0. 0. 0. 0.
 0. 0. 0. 0.
 0. 0. 0. 0.
 0. 0. 0. 0.
 0. 0. 0. 0.
 0. 0. 0. 0.
 0. 0. 0. 0.
 0. 0. 0. 0.
 0. 0. 0. 0.
 0. 0. 0. 0.
 0. 0. 0. 0.
 0. 0. 0. 0.
 0. 0. 0. 0.
 0. 0. 0. 0.
 0. 0. 0. 0.
 0. 0. 0. 0.
 0. 0. 0. 0.
 0. 0. 0. 0.
 0. 0. 0. 0.
 0. 0. 0. 0.
 0. 0. 0. 0.
 0. 0. 0. 0.
 0. 0. 0. 0.
 0. 0. 0. 0.
 0. 0. 0. 0.
 0. 0. 0. 0.
 0. 0. 0. 0.
 0. 0. 0. 0.
 0. 0. 0. 0.
 0. 0. 0. 0.
 0. 0. 0. 0.
 0. 0. 0. 0.
 0. 0. 0. 0.
 0. 0. 0. 0.
 0. 0. 0. 0.
 0. 0. 0. 0.
 0. 0. 0. 0.
 0. 0. 0. 0.
 0. 0. 0. 0.
 0. 0. 0. 0.
 0. 0. 0. 0.
 0. 0. 0. 0.
 0. 0. 0. 0.
 0. 0. 0. 0.
 0. 0. 0. 0.
 0. 0. 0. 0.
 0. 0. 0. 0.
 0. 0. 0. 0.
 0. 0. 0. 0.
 0. 0. 0. 0.
 0. 0. 0. 0.
 0. 0. 0. 0.
 0. 0. 0. 0.
 0. 0. 0. 0.
 0. 0. 0. 0.
 0. 0. 0. 0.
 0. 0. 0. 0.
 0. 0. 0. 0.
 0. 0. 0. 0.
 0. 0. 0. 0.
 0. 0. 0. 0.
 0. 0. 0. 0.
 0. 0. 0. 0.
 0. 0. 0. 0.
 0. 0. 0. 0.
 0. 0. 0. 0.
 0. 0. 0. 0.
 0. 0. 0. 0.
 0. 0. 0. 0.
 0. 0. 0. 0.
 0. 0. 0. 0.
 0. 0. 0. 0.
 0. 0. 0. 0.
 0. 0. 0. 0.
 0. 0. 0. 0.
 0. 0. 0. 0.
 0. 0. 0. 0.
 0. 0. 0. 0.
 0. 0. 0. 0.
 0. 0. 0. 0.
 0. 0. 0. 0.
 0. 0. 0. 0.
 0. 0. 0. 0.
 0. 0. 0. 0.
 0. 0. 0. 0.
 0. 0. 0. 0.
 0. 0. 0. 0.
 0. 0. 0. 0.
 0. 0. 0. 0.
 0. 0. 0. 0.
 0. 0. 0. 0.
 0. 0. 0. 0.
 0. 0. 0. 0.
 0. 0. 0. 0.
 0. 0. 0. 0.
 0. 0. 0. 0.
 0. 0. 0. 0.
 0. 0. 0. 0.
 0. 0. 0. 0.
 0. 0. 0. 0.
 0. 0. 0. 0.
 0. 0. 0. 0.
 0. 0. 0. 0.
 0. 0. 0. 0.
 0. 0. 0. 0.
 0. 0. 0. 0.
 0. 0. 0. 0.
 0. 0. 0. 0.
 0. 0. 0. 0.
 0. 0. 0. 0.
 0. 0. 0. 0.
 0. 0. 0. 0.
 0. 0. 0. 0.
 0. 0. 0. 0.
 0. 0. 0. 0.
 0. 0. 0. 0.
 0. 0. 0. 0.
 0. 0. 0. 0.
 0. 0. 0. 0.
 0. 0. 0. 0.
 0. 0. 0. 0.
 0. 0. 0. 0.
 0. 0. 0. 0.
 0. 0. 0. 0.
 0. 0. 0. 0.
 0. 0. 0. 0.
 0. 0. 0. 0.
 0. 0. 0. 0.
 0. 0. 0. 0.
 0. 0. 0. 0.
 0. 0. 0. 0.
 0. 0. 0. 0.
 0. 0. 0. 0.
 0. 0. 0. 0.
 0. 0. 0. 0.
 0. 0. 0. 0.
 0. 0. 0. 0.
 0. 0. 0. 0.
 0. 0. 0. 0.
 0. 0. 0. 0.
 0. 0. 0. 0.
 0. 0. 0. 0.
 0. 0. 0. 0.
 0. 0. 0. 0.
 0. 0. 0. 0.
 0. 0. 0. 0.
 0. 0. 0. 0.
 0. 0. 0. 0.
 0. 0. 0. 0.
 0. 0. 0. 0.
 0. 0. 0. 0.
 0. 0. 0. 0.
 0. 0. 0. 0.
 0. 0. 0. 0.
 0. 0. 0. 0.
 0. 0. 0. 0.
 0. 0. 0. 0.
 0. 0. 0. 0.
 0. 0. 0. 0.
 0. 0. 0. 0.
 0. 0. 0. 0.
 0. 0. 0. 0.
 0. 0. 0. 0.
 0. 0. 0. 0.
 0. 0. 0. 0.
 0. 0. 0. 0.
 0. 0. 0. 0.
 0. 0. 0. 0.
 0. 0. 0. 0.
 0. 0. 0. 0.
 0. 0. 0. 0.
 0. 0. 0. 0.
 0. 0. 0. 0.
 0. 0. 0. 0.
 0. 0. 0. 0.
 0. 0. 0. 0.
 0. 0. 0. 0.
 0. 0. 0. 0.
 0. 0. 0. 0.
 0. 0. 0. 0.
 0. 0. 0. 0.
 0. 0. 0. 0.
 0. 0. 0. 0.
 0. 0. 0. 0.
 0. 0. 0. 0.
 0. 0. 0. 0.
 0. 0. 0. 0.
 0. 0. 0. 0.
 0. 0. 0. 0.
 0. 0. 0. 0.
 0. 0. 0. 0.
 0. 0. 0. 0.
 0. 0. 0. 0.
 0. 0. 0. 0.
 0. 0. 0. 0.
 0. 0. 0. 0.
 0. 0. 0. 0.
 0. 0. 0. 0.
 0. 0. 0. 0.
 0. 0. 0. 0.
 0. 0. 0. 0.
 0. 0. 0. 0.
 0. 0. 0. 0.
 0. 0. 0. 0.
 0. 0. 0. 0.
 0. 0. 0. 0.
 0. 0. 0. 0.
 0. 0. 0. 0.
 0. 0. 0. 0.
 0. 0. 0. 0.
 0. 0. 0. 0.
 0. 0. 0. 0.
 0. 0. 0. 0.
 0. 0. 0. 0.
 0. 0. 0. 0.
 0. 0. 0. 0.
 0. 0. 0. 0.
 0. 0. 0. 0.
 0. 0. 0. 0.
 0. 0. 0. 0.
 0. 0. 0. 0.
 0. 0. 0. 0.
 0. 0. 0. 0.
 0. 0. 0. 0.
 0. 0. 0. 0.
 0. 0. 0. 0.
 0. 0. 0. 0.
 0. 0. 0. 0.
 0. 0. 0. 0.
 0. 0. 0. 0.
 0. 0. 0. 0.
 0. 0. 0. 0.
 0. 0. 0. 0.
 0. 0. 0. 0.
 0. 0. 0. 0.
 0. 0. 0. 0.
 0. 0. 0. 0.
 0. 0. 0. 0.
 0. 0. 0. 0.
 0. 0. 0. 0.
 0. 0. 0. 0.
 0. 0. 0. 0.
 0. 0. 0. 0.
 0. 0. 0. 0.
 0. 0. 0. 0.
 0. 0. 0. 0.
 0. 0. 0. 0.
 0. 0. 0. 0.
 0. 0. 0. 0.
 0. 0. 0. 0.
 0. 0. 0. 0.
 0. 0. 0. 0.
 0. 0. 0. 0.
 0. 0. 0. 0.
 0. 0. 0. 0.
 0. 0. 0. 0.
 0. 0. 0. 0.
 0. 0. 0. 0.
 0. 0. 0. 0.
 0. 0. 0. 0.
 0. 0. 0. 0.
 0. 0. 0. 0.
 0. 0. 0. 0.
 0. 0. 0. 0.
 0. 0. 0. 0.
 0. 0. 0. 0.
 0. 0. 0. 0.
 0. 0. 0. 0.
 0. 0. 0. 0.
 0. 0. 0. 0.
 0. 0. 0. 0.
 0. 0. 0. 0.
 0. 0. 0. 0.
 0. 0. 0. 0.
 0. 0. 0. 0.
 0. 0. 0. 0.
 0. 0. 0. 0.
 0. 0. 0. 0.
 0. 0. 0. 0.
 0. 0. 0. 0.
 0. 0. 0. 0.
 0. 0. 0. 0.
 0. 0. 0. 0.
 0. 0. 0. 0.
 0. 0. 0. 0.
 0. 0. 0. 0.
 0. 0. 0. 0.
 0. 0. 0. 0.
 0. 0. 0. 0.
 0. 0. 0. 0.
 0. 0. 0. 0.
 0. 0. 0. 0.
 0. 0. 0. 0.
   </PP_BETA.8>
   <PP_BETA.9
       type="real"
       size="1680"
       columns="4"
       index="9"
       angular_momentum="2"
       cutoff_radius_index=" 176"
       cutoff_radius="    1.7500000000E+00" >
    1.4145600569E-08    4.5207929491E-05    3.6002554698E-04    1.2059130468E-03
    2.8282172475E-03    5.4485752261E-03    9.2578600291E-03    1.4409832176E-02
    2.1015646523E-02    2.9139346875E-02    3.8794460830E-02    4.9941785099E-02
    6.2488427365E-02    7.6288145102E-02    9.1142995100E-02    1.0680628036E-01
    1.2298675384E-01    1.3935401200E-01    1.5554498561E-01    1.7117141119E-01
    1.8582814459E-01    1.9910215868E-01    2.1058205045E-01    2.1986786924E-01
    2.2658106795E-01    2.3037437267E-01    2.3094136370E-01    2.2802556258E-01
    2.2142882491E-01    2.1101884861E-01    1.9673561994E-01    1.7859663676E-01
    1.5670076864E-01    1.3123063619E-01    1.0245341839E-01    7.0720023983E-02
    3.6462593315E-02    1.9032731148E-04   -3.7516327803E-02   -7.6013080080E-02
   -1.1460068459E-01   -1.5253520819E-01   -1.8903951692E-01   -2.2331581014E-01
   -2.5455900250E-01   -2.8197073391E-01   -3.0477377138E-01   -3.2222655347E-01
   -3.3363761962E-01   -3.3837966232E-01   -3.3590294080E-01   -3.2574779971E-01
   -3.0755604640E-01   -2.8108095450E-01   -2.4619568047E-01   -2.0289990265E-01
   -1.5132451897E-01   -9.1734269836E-02   -2.4528185553E-02    4.9762206726E-02
    1.3047694425E-01    2.1683394734E-01    3.0793754558E-01    4.0278912274E-01
    5.0029975321E-01    5.9930466639E-01    6.9857934046E-01    7.9685699536E-01
    8.9284722621E-01    9.8525549386E-01    1.0728031689E+00    1.1542478104E+00
    1.2284033491E+00    1.2941598431E+00    1.3505024698E+00    1.3965294287E+00
    1.4314684405E+00    1.4546915425E+00    1.4657279085E+00    1.4642744433E+00
    1.4502039398E+00    1.4235706185E+00    1.3846129133E+00    1.3337534069E+00
    1.2715958678E+00    1.1989193854E+00    1.1166696478E+00    1.0259474558E+00
    9.2799461054E-01    8.2417736137E-01    7.1596763853E-01    6.0492233913E-01
    4.9266096754E-01    3.8084196405E-01    2.7113808121E-01    1.6521118788E-01
    6.4686895404E-02   -2.8870591384E-02   -1.1398299407E-01   -1.8928145223E-01
   -2.5352859913E-01   -3.0563885209E-01   -3.4469657261E-01   -3.6997178186E-01
   -3.8093315289E-01   -3.7725804218E-01   -3.5883936806E-01   -3.2578919296E-01
   -2.7843891772E-01   -2.1733605064E-01   -1.4323756854E-01   -5.7099942664E-02
    3.9934043164E-02    1.4655150157E-01    2.6128844666E-01    3.8255131646E-01
    5.0864069100E-01    6.3777684595E-01    7.6812674871E-01    8.9783207757E-01
    1.0250378240E+00    1.1479210259E+00    1.2647191723E+00    1.3737578244E+00
    1.4734770031E+00    1.5624559144E+00    1.6394356021E+00    1.7033391532E+00
    1.7532891131E+00    1.7886218144E+00    1.8088983672E+00    1.8139121115E+00
    1.8036923907E+00    1.7785045569E+00    1.7388461849E+00    1.6854395270E+00
    1.6192203036E+00    1.5413229812E+00    1.4530627470E+00    1.3559144427E+00
    1.2514887662E+00    1.1415060986E+00    1.0277683469E+00    9.1212922867E-01
    7.9646344468E-01    6.8263528021E-01    5.7246689851E-01    4.6771410085E-01
    3.7005965031E-01    2.8111633552E-01    2.0233141416E-01    1.3499241125E-01
    8.0218111357E-02    3.8954566313E-02    1.1832999490E-02   -1.7319646009E-04
   -4.6105996822E-04    1.0638929474E-04   -1.6320527993E-05    7.1455134955E-07
    0.0000000000E+00    0.0000000000E+00    0.0000000000E+00    0.0000000000E+00
    0.0000000000E+00    0.0000000000E+00    0.0000000000E+00    0.0000000000E+00
    0.0000000000E+00    0.0000000000E+00    0.0000000000E+00    0.0000000000E+00
    0.0000000000E+00    0.0000000000E+00    0.0000000000E+00    0.0000000000E+00
 0. 0. 0. 0.
 0. 0. 0. 0.
 0. 0. 0. 0.
 0. 0. 0. 0.
 0. 0. 0. 0.
 0. 0. 0. 0.
 0. 0. 0. 0.
 0. 0. 0. 0.
 0. 0. 0. 0.
 0. 0. 0. 0.
 0. 0. 0. 0.
 0. 0. 0. 0.
 0. 0. 0. 0.
 0. 0. 0. 0.
 0. 0. 0. 0.
 0. 0. 0. 0.
 0. 0. 0. 0.
 0. 0. 0. 0.
 0. 0. 0. 0.
 0. 0. 0. 0.
 0. 0. 0. 0.
 0. 0. 0. 0.
 0. 0. 0. 0.
 0. 0. 0. 0.
 0. 0. 0. 0.
 0. 0. 0. 0.
 0. 0. 0. 0.
 0. 0. 0. 0.
 0. 0. 0. 0.
 0. 0. 0. 0.
 0. 0. 0. 0.
 0. 0. 0. 0.
 0. 0. 0. 0.
 0. 0. 0. 0.
 0. 0. 0. 0.
 0. 0. 0. 0.
 0. 0. 0. 0.
 0. 0. 0. 0.
 0. 0. 0. 0.
 0. 0. 0. 0.
 0. 0. 0. 0.
 0. 0. 0. 0.
 0. 0. 0. 0.
 0. 0. 0. 0.
 0. 0. 0. 0.
 0. 0. 0. 0.
 0. 0. 0. 0.
 0. 0. 0. 0.
 0. 0. 0. 0.
 0. 0. 0. 0.
 0. 0. 0. 0.
 0. 0. 0. 0.
 0. 0. 0. 0.
 0. 0. 0. 0.
 0. 0. 0. 0.
 0. 0. 0. 0.
 0. 0. 0. 0.
 0. 0. 0. 0.
 0. 0. 0. 0.
 0. 0. 0. 0.
 0. 0. 0. 0.
 0. 0. 0. 0.
 0. 0. 0. 0.
 0. 0. 0. 0.
 0. 0. 0. 0.
 0. 0. 0. 0.
 0. 0. 0. 0.
 0. 0. 0. 0.
 0. 0. 0. 0.
 0. 0. 0. 0.
 0. 0. 0. 0.
 0. 0. 0. 0.
 0. 0. 0. 0.
 0. 0. 0. 0.
 0. 0. 0. 0.
 0. 0. 0. 0.
 0. 0. 0. 0.
 0. 0. 0. 0.
 0. 0. 0. 0.
 0. 0. 0. 0.
 0. 0. 0. 0.
 0. 0. 0. 0.
 0. 0. 0. 0.
 0. 0. 0. 0.
 0. 0. 0. 0.
 0. 0. 0. 0.
 0. 0. 0. 0.
 0. 0. 0. 0.
 0. 0. 0. 0.
 0. 0. 0. 0.
 0. 0. 0. 0.
 0. 0. 0. 0.
 0. 0. 0. 0.
 0. 0. 0. 0.
 0. 0. 0. 0.
 0. 0. 0. 0.
 0. 0. 0. 0.
 0. 0. 0. 0.
 0. 0. 0. 0.
 0. 0. 0. 0.
 0. 0. 0. 0.
 0. 0. 0. 0.
 0. 0. 0. 0.
 0. 0. 0. 0.
 0. 0. 0. 0.
 0. 0. 0. 0.
 0. 0. 0. 0.
 0. 0. 0. 0.
 0. 0. 0. 0.
 0. 0. 0. 0.
 0. 0. 0. 0.
 0. 0. 0. 0.
 0. 0. 0. 0.
 0. 0. 0. 0.
 0. 0. 0. 0.
 0. 0. 0. 0.
 0. 0. 0. 0.
 0. 0. 0. 0.
 0. 0. 0. 0.
 0. 0. 0. 0.
 0. 0. 0. 0.
 0. 0. 0. 0.
 0. 0. 0. 0.
 0. 0. 0. 0.
 0. 0. 0. 0.
 0. 0. 0. 0.
 0. 0. 0. 0.
 0. 0. 0. 0.
 0. 0. 0. 0.
 0. 0. 0. 0.
 0. 0. 0. 0.
 0. 0. 0. 0.
 0. 0. 0. 0.
 0. 0. 0. 0.
 0. 0. 0. 0.
 0. 0. 0. 0.
 0. 0. 0. 0.
 0. 0. 0. 0.
 0. 0. 0. 0.
 0. 0. 0. 0.
 0. 0. 0. 0.
 0. 0. 0. 0.
 0. 0. 0. 0.
 0. 0. 0. 0.
 0. 0. 0. 0.
 0. 0. 0. 0.
 0. 0. 0. 0.
 0. 0. 0. 0.
 0. 0. 0. 0.
 0. 0. 0. 0.
 0. 0. 0. 0.
 0. 0. 0. 0.
 0. 0. 0. 0.
 0. 0. 0. 0.
 0. 0. 0. 0.
 0. 0. 0. 0.
 0. 0. 0. 0.
 0. 0. 0. 0.
 0. 0. 0. 0.
 0. 0. 0. 0.
 0. 0. 0. 0.
 0. 0. 0. 0.
 0. 0. 0. 0.
 0. 0. 0. 0.
 0. 0. 0. 0.
 0. 0. 0. 0.
 0. 0. 0. 0.
 0. 0. 0. 0.
 0. 0. 0. 0.
 0. 0. 0. 0.
 0. 0. 0. 0.
 0. 0. 0. 0.
 0. 0. 0. 0.
 0. 0. 0. 0.
 0. 0. 0. 0.
 0. 0. 0. 0.
 0. 0. 0. 0.
 0. 0. 0. 0.
 0. 0. 0. 0.
 0. 0. 0. 0.
 0. 0. 0. 0.
 0. 0. 0. 0.
 0. 0. 0. 0.
 0. 0. 0. 0.
 0. 0. 0. 0.
 0. 0. 0. 0.
 0. 0. 0. 0.
 0. 0. 0. 0.
 0. 0. 0. 0.
 0. 0. 0. 0.
 0. 0. 0. 0.
 0. 0. 0. 0.
 0. 0. 0. 0.
 0. 0. 0. 0.
 0. 0. 0. 0.
 0. 0. 0. 0.
 0. 0. 0. 0.
 0. 0. 0. 0.
 0. 0. 0. 0.
 0. 0. 0. 0.
 0. 0. 0. 0.
 0. 0. 0. 0.
 0. 0. 0. 0.
 0. 0. 0. 0.
 0. 0. 0. 0.
 0. 0. 0. 0.
 0. 0. 0. 0.
 0. 0. 0. 0.
 0. 0. 0. 0.
 0. 0. 0. 0.
 0. 0. 0. 0.
 0. 0. 0. 0.
 0. 0. 0. 0.
 0. 0. 0. 0.
 0. 0. 0. 0.
 0. 0. 0. 0.
 0. 0. 0. 0.
 0. 0. 0. 0.
 0. 0. 0. 0.
 0. 0. 0. 0.
 0. 0. 0. 0.
 0. 0. 0. 0.
 0. 0. 0. 0.
 0. 0. 0. 0.
 0. 0. 0. 0.
 0. 0. 0. 0.
 0. 0. 0. 0.
 0. 0. 0. 0.
 0. 0. 0. 0.
 0. 0. 0. 0.
 0. 0. 0. 0.
 0. 0. 0. 0.
 0. 0. 0. 0.
 0. 0. 0. 0.
 0. 0. 0. 0.
 0. 0. 0. 0.
 0. 0. 0. 0.
 0. 0. 0. 0.
 0. 0. 0. 0.
 0. 0. 0. 0.
 0. 0. 0. 0.
 0. 0. 0. 0.
 0. 0. 0. 0.
 0. 0. 0. 0.
 0. 0. 0. 0.
 0. 0. 0. 0.
 0. 0. 0. 0.
 0. 0. 0. 0.
 0. 0. 0. 0.
 0. 0. 0. 0.
 0. 0. 0. 0.
 0. 0. 0. 0.
 0. 0. 0. 0.
 0. 0. 0. 0.
 0. 0. 0. 0.
 0. 0. 0. 0.
 0. 0. 0. 0.
 0. 0. 0. 0.
 0. 0. 0. 0.
 0. 0. 0. 0.
 0. 0. 0. 0.
 0. 0. 0. 0.
 0. 0. 0. 0.
 0. 0. 0. 0.
 0. 0. 0. 0.
 0. 0. 0. 0.
 0. 0. 0. 0.
 0. 0. 0. 0.
 0. 0. 0. 0.
 0. 0. 0. 0.
 0. 0. 0. 0.
 0. 0. 0. 0.
 0. 0. 0. 0.
 0. 0. 0. 0.
 0. 0. 0. 0.
 0. 0. 0. 0.
 0. 0. 0. 0.
 0. 0. 0. 0.
 0. 0. 0. 0.
 0. 0. 0. 0.
 0. 0. 0. 0.
 0. 0. 0. 0.
 0. 0. 0. 0.
 0. 0. 0. 0.
 0. 0. 0. 0.
 0. 0. 0. 0.
 0. 0. 0. 0.
 0. 0. 0. 0.
 0. 0. 0. 0.
 0. 0. 0. 0.
 0. 0. 0. 0.
 0. 0. 0. 0.
 0. 0. 0. 0.
 0. 0. 0. 0.
 0. 0. 0. 0.
 0. 0. 0. 0.
 0. 0. 0. 0.
 0. 0. 0. 0.
 0. 0. 0. 0.
 0. 0. 0. 0.
 0. 0. 0. 0.
 0. 0. 0. 0.
 0. 0. 0. 0.
 0. 0. 0. 0.
 0. 0. 0. 0.
 0. 0. 0. 0.
 0. 0. 0. 0.
 0. 0. 0. 0.
 0. 0. 0. 0.
 0. 0. 0. 0.
 0. 0. 0. 0.
 0. 0. 0. 0.
 0. 0. 0. 0.
 0. 0. 0. 0.
 0. 0. 0. 0.
 0. 0. 0. 0.
 0. 0. 0. 0.
 0. 0. 0. 0.
 0. 0. 0. 0.
 0. 0. 0. 0.
 0. 0. 0. 0.
 0. 0. 0. 0.
 0. 0. 0. 0.
 0. 0. 0. 0.
 0. 0. 0. 0.
 0. 0. 0. 0.
 0. 0. 0. 0.
 0. 0. 0. 0.
 0. 0. 0. 0.
 0. 0. 0. 0.
 0. 0. 0. 0.
 0. 0. 0. 0.
 0. 0. 0. 0.
 0. 0. 0. 0.
 0. 0. 0. 0.
 0. 0. 0. 0.
 0. 0. 0. 0.
 0. 0. 0. 0.
 0. 0. 0. 0.
 0. 0. 0. 0.
 0. 0. 0. 0.
 0. 0. 0. 0.
 0. 0. 0. 0.
 0. 0. 0. 0.
 0. 0. 0. 0.
 0. 0. 0. 0.
 0. 0. 0. 0.
 0. 0. 0. 0.
 0. 0. 0. 0.
 0. 0. 0. 0.
 0. 0. 0. 0.
 0. 0. 0. 0.
 0. 0. 0. 0.
 0. 0. 0. 0.
 0. 0. 0. 0.
 0. 0. 0. 0.
 0. 0. 0. 0.
 0. 0. 0. 0.
 0. 0. 0. 0.
 0. 0. 0. 0.
 0. 0. 0. 0.
 0. 0. 0. 0.
 0. 0. 0. 0.
 0. 0. 0. 0.
 0. 0. 0. 0.
 0. 0. 0. 0.
 0. 0. 0. 0.
 0. 0. 0. 0.
 0. 0. 0. 0.
 0. 0. 0. 0.
 0. 0. 0. 0.
 0. 0. 0. 0.
 0. 0. 0. 0.
 0. 0. 0. 0.
 0. 0. 0. 0.
 0. 0. 0. 0.
   </PP_BETA.9>
   <PP_BETA.10
       type="real"
       size="1680"
       columns="4"
       index="10"
       angular_momentum="2"
       cutoff_radius_index=" 176"
       cutoff_radius="    1.7500000000E+00" >
    1.4603855514E-08    4.8977568709E-05    3.9009519914E-04    1.3069077251E-03
    3.0659924536E-03    5.9089388969E-03    1.0044902059E-02    1.5643889603E-02
    2.2830938615E-02    3.1681319962E-02    4.2216887653E-02    5.4403667677E-02
    6.8150755786E-02    8.3310567202E-02    9.9680453664E-02    1.1700567518E-01
    1.3498368582E-01    1.5326966526E-01    1.7148320157E-01    1.8921600556E-01
    2.0604051460E-01    2.2151922298E-01    2.3521455918E-01    2.4669911564E-01
    2.5556602650E-01    2.6143928199E-01    2.6398376521E-01    2.6291479841E-01
    2.5800699148E-01    2.4910219445E-01    2.3611636951E-01    2.1904521475E-01
    1.9796839278E-01    1.7305224070E-01    1.4455086441E-01    1.1280554888E-01
    7.8242446492E-02    4.1368537187E-02    2.7658865512E-03   -3.6915739420E-02
   -7.6967812250E-02   -1.1663340991E-01   -1.5511886578E-01   -1.9160651955E-01
   -2.2526836758E-01   -2.5528038896E-01   -2.8083730623E-01   -3.0116752573E-01
   -3.1554799388E-01   -3.2331870053E-01   -3.2389656106E-01   -3.1678841320E-01
   -3.0160287486E-01   -2.7806082298E-01   -2.4600427262E-01   -2.0540345859E-01
   -1.5636194885E-01   -9.9119649683E-02   -3.4053596016E-02    3.8323543372E-02
    1.1736727812E-01    2.0230741901E-01    2.9225646424E-01    3.8622016235E-01
    4.8311012588E-01    5.8175833201E-01    6.8093331113E-01    7.7935779119E-01
    8.7572753633E-01    9.6873109315E-01    1.0570701364E+00    1.1394800902E+00
    1.2147506895E+00    1.2817461421E+00    1.3394245494E+00    1.3868562544E+00
    1.4232407914E+00    1.4479221347E+00    1.4604019640E+00    1.4603506903E+00
    1.4476160236E+00    1.4222288961E+00    1.3844065962E+00    1.3345530158E+00
    1.2732559532E+00    1.2012814671E+00    1.1195653225E+00    1.0292016185E+00
    9.3142873648E-01    8.2761279123E-01    7.1922881392E-01    6.0783993352E-01
    4.9507486195E-01    3.8260401922E-01    2.7211466186E-01    1.6528539944E-01
    6.3760498797E-02   -3.0875615642E-02   -1.1712325474E-01   -1.9359134514E-01
   -2.5901990276E-01   -3.1230072323E-01   -3.5249593724E-01   -3.7885410976E-01
   -3.9082359801E-01   -3.8806292459E-01   -3.7044796776E-01   -3.3807582054E-01
   -2.9126522263E-01   -2.3055352394E-01   -1.5669019406E-01   -7.0626948531E-02
    2.6495382146E-02    1.3336306039E-01    2.4850849476E-01    3.7033185848E-01
    4.9712494939E-01    6.2709692816E-01    7.5840153810E-01    8.8916538262E-01
    1.0175168158E+00    1.1416149879E+00    1.2596785818E+00    1.3700137766E+00
    1.4710409868E+00    1.5613199360E+00    1.6395726554E+00    1.7047040199E+00
    1.7558194789E+00    1.7922396760E+00    1.8135117028E+00    1.8194167845E+00
    1.8099742485E+00    1.7854416900E+00    1.7463113033E+00    1.6933024146E+00
    1.6273503083E+00    1.5495914998E+00    1.4613456656E+00    1.3640944947E+00
    1.2594577739E+00    1.1491670668E+00    1.0350373831E+00    9.1893726740E-01
    8.0275776019E-01    6.8838077342E-01    5.7764715473E-01    4.7233176920E-01
    3.7413459859E-01    2.8468029089E-01    2.0543110580E-01    1.3768829361E-01
    8.2581425767E-02    4.1068296117E-02    1.3733721033E-02    1.8535307993E-03
   -1.0007927162E-05    1.5584317744E-05   -7.1704857008E-07   -4.4453030846E-07
    0.0000000000E+00    0.0000000000E+00    0.0000000000E+00    0.0000000000E+00
    0.0000000000E+00    0.0000000000E+00    0.0000000000E+00    0.0000000000E+00
    0.0000000000E+00    0.0000000000E+00    0.0000000000E+00    0.0000000000E+00
    0.0000000000E+00    0.0000000000E+00    0.0000000000E+00    0.0000000000E+00
 0. 0. 0. 0.
 0. 0. 0. 0.
 0. 0. 0. 0.
 0. 0. 0. 0.
 0. 0. 0. 0.
 0. 0. 0. 0.
 0. 0. 0. 0.
 0. 0. 0. 0.
 0. 0. 0. 0.
 0. 0. 0. 0.
 0. 0. 0. 0.
 0. 0. 0. 0.
 0. 0. 0. 0.
 0. 0. 0. 0.
 0. 0. 0. 0.
 0. 0. 0. 0.
 0. 0. 0. 0.
 0. 0. 0. 0.
 0. 0. 0. 0.
 0. 0. 0. 0.
 0. 0. 0. 0.
 0. 0. 0. 0.
 0. 0. 0. 0.
 0. 0. 0. 0.
 0. 0. 0. 0.
 0. 0. 0. 0.
 0. 0. 0. 0.
 0. 0. 0. 0.
 0. 0. 0. 0.
 0. 0. 0. 0.
 0. 0. 0. 0.
 0. 0. 0. 0.
 0. 0. 0. 0.
 0. 0. 0. 0.
 0. 0. 0. 0.
 0. 0. 0. 0.
 0. 0. 0. 0.
 0. 0. 0. 0.
 0. 0. 0. 0.
 0. 0. 0. 0.
 0. 0. 0. 0.
 0. 0. 0. 0.
 0. 0. 0. 0.
 0. 0. 0. 0.
 0. 0. 0. 0.
 0. 0. 0. 0.
 0. 0. 0. 0.
 0. 0. 0. 0.
 0. 0. 0. 0.
 0. 0. 0. 0.
 0. 0. 0. 0.
 0. 0. 0. 0.
 0. 0. 0. 0.
 0. 0. 0. 0.
 0. 0. 0. 0.
 0. 0. 0. 0.
 0. 0. 0. 0.
 0. 0. 0. 0.
 0. 0. 0. 0.
 0. 0. 0. 0.
 0. 0. 0. 0.
 0. 0. 0. 0.
 0. 0. 0. 0.
 0. 0. 0. 0.
 0. 0. 0. 0.
 0. 0. 0. 0.
 0. 0. 0. 0.
 0. 0. 0. 0.
 0. 0. 0. 0.
 0. 0. 0. 0.
 0. 0. 0. 0.
 0. 0. 0. 0.
 0. 0. 0. 0.
 0. 0. 0. 0.
 0. 0. 0. 0.
 0. 0. 0. 0.
 0. 0. 0. 0.
 0. 0. 0. 0.
 0. 0. 0. 0.
 0. 0. 0. 0.
 0. 0. 0. 0.
 0. 0. 0. 0.
 0. 0. 0. 0.
 0. 0. 0. 0.
 0. 0. 0. 0.
 0. 0. 0. 0.
 0. 0. 0. 0.
 0. 0. 0. 0.
 0. 0. 0. 0.
 0. 0. 0. 0.
 0. 0. 0. 0.
 0. 0. 0. 0.
 0. 0. 0. 0.
 0. 0. 0. 0.
 0. 0. 0. 0.
 0. 0. 0. 0.
 0. 0. 0. 0.
 0. 0. 0. 0.
 0. 0. 0. 0.
 0. 0. 0. 0.
 0. 0. 0. 0.
 0. 0. 0. 0.
 0. 0. 0. 0.
 0. 0. 0. 0.
 0. 0. 0. 0.
 0. 0. 0. 0.
 0. 0. 0. 0.
 0. 0. 0. 0.
 0. 0. 0. 0.
 0. 0. 0. 0.
 0. 0. 0. 0.
 0. 0. 0. 0.
 0. 0. 0. 0.
 0. 0. 0. 0.
 0. 0. 0. 0.
 0. 0. 0. 0.
 0. 0. 0. 0.
 0. 0. 0. 0.
 0. 0. 0. 0.
 0. 0. 0. 0.
 0. 0. 0. 0.
 0. 0. 0. 0.
 0. 0. 0. 0.
 0. 0. 0. 0.
 0. 0. 0. 0.
 0. 0. 0. 0.
 0. 0. 0. 0.
 0. 0. 0. 0.
 0. 0. 0. 0.
 0. 0. 0. 0.
 0. 0. 0. 0.
 0. 0. 0. 0.
 0. 0. 0. 0.
 0. 0. 0. 0.
 0. 0. 0. 0.
 0. 0. 0. 0.
 0. 0. 0. 0.
 0. 0. 0. 0.
 0. 0. 0. 0.
 0. 0. 0. 0.
 0. 0. 0. 0.
 0. 0. 0. 0.
 0. 0. 0. 0.
 0. 0. 0. 0.
 0. 0. 0. 0.
 0. 0. 0. 0.
 0. 0. 0. 0.
 0. 0. 0. 0.
 0. 0. 0. 0.
 0. 0. 0. 0.
 0. 0. 0. 0.
 0. 0. 0. 0.
 0. 0. 0. 0.
 0. 0. 0. 0.
 0. 0. 0. 0.
 0. 0. 0. 0.
 0. 0. 0. 0.
 0. 0. 0. 0.
 0. 0. 0. 0.
 0. 0. 0. 0.
 0. 0. 0. 0.
 0. 0. 0. 0.
 0. 0. 0. 0.
 0. 0. 0. 0.
 0. 0. 0. 0.
 0. 0. 0. 0.
 0. 0. 0. 0.
 0. 0. 0. 0.
 0. 0. 0. 0.
 0. 0. 0. 0.
 0. 0. 0. 0.
 0. 0. 0. 0.
 0. 0. 0. 0.
 0. 0. 0. 0.
 0. 0. 0. 0.
 0. 0. 0. 0.
 0. 0. 0. 0.
 0. 0. 0. 0.
 0. 0. 0. 0.
 0. 0. 0. 0.
 0. 0. 0. 0.
 0. 0. 0. 0.
 0. 0. 0. 0.
 0. 0. 0. 0.
 0. 0. 0. 0.
 0. 0. 0. 0.
 0. 0. 0. 0.
 0. 0. 0. 0.
 0. 0. 0. 0.
 0. 0. 0. 0.
 0. 0. 0. 0.
 0. 0. 0. 0.
 0. 0. 0. 0.
 0. 0. 0. 0.
 0. 0. 0. 0.
 0. 0. 0. 0.
 0. 0. 0. 0.
 0. 0. 0. 0.
 0. 0. 0. 0.
 0. 0. 0. 0.
 0. 0. 0. 0.
 0. 0. 0. 0.
 0. 0. 0. 0.
 0. 0. 0. 0.
 0. 0. 0. 0.
 0. 0. 0. 0.
 0. 0. 0. 0.
 0. 0. 0. 0.
 0. 0. 0. 0.
 0. 0. 0. 0.
 0. 0. 0. 0.
 0. 0. 0. 0.
 0. 0. 0. 0.
 0. 0. 0. 0.
 0. 0. 0. 0.
 0. 0. 0. 0.
 0. 0. 0. 0.
 0. 0. 0. 0.
 0. 0. 0. 0.
 0. 0. 0. 0.
 0. 0. 0. 0.
 0. 0. 0. 0.
 0. 0. 0. 0.
 0. 0. 0. 0.
 0. 0. 0. 0.
 0. 0. 0. 0.
 0. 0. 0. 0.
 0. 0. 0. 0.
 0. 0. 0. 0.
 0. 0. 0. 0.
 0. 0. 0. 0.
 0. 0. 0. 0.
 0. 0. 0. 0.
 0. 0. 0. 0.
 0. 0. 0. 0.
 0. 0. 0. 0.
 0. 0. 0. 0.
 0. 0. 0. 0.
 0. 0. 0. 0.
 0. 0. 0. 0.
 0. 0. 0. 0.
 0. 0. 0. 0.
 0. 0. 0. 0.
 0. 0. 0. 0.
 0. 0. 0. 0.
 0. 0. 0. 0.
 0. 0. 0. 0.
 0. 0. 0. 0.
 0. 0. 0. 0.
 0. 0. 0. 0.
 0. 0. 0. 0.
 0. 0. 0. 0.
 0. 0. 0. 0.
 0. 0. 0. 0.
 0. 0. 0. 0.
 0. 0. 0. 0.
 0. 0. 0. 0.
 0. 0. 0. 0.
 0. 0. 0. 0.
 0. 0. 0. 0.
 0. 0. 0. 0.
 0. 0. 0. 0.
 0. 0. 0. 0.
 0. 0. 0. 0.
 0. 0. 0. 0.
 0. 0. 0. 0.
 0. 0. 0. 0.
 0. 0. 0. 0.
 0. 0. 0. 0.
 0. 0. 0. 0.
 0. 0. 0. 0.
 0. 0. 0. 0.
 0. 0. 0. 0.
 0. 0. 0. 0.
 0. 0. 0. 0.
 0. 0. 0. 0.
 0. 0. 0. 0.
 0. 0. 0. 0.
 0. 0. 0. 0.
 0. 0. 0. 0.
 0. 0. 0. 0.
 0. 0. 0. 0.
 0. 0. 0. 0.
 0. 0. 0. 0.
 0. 0. 0. 0.
 0. 0. 0. 0.
 0. 0. 0. 0.
 0. 0. 0. 0.
 0. 0. 0. 0.
 0. 0. 0. 0.
 0. 0. 0. 0.
 0. 0. 0. 0.
 0. 0. 0. 0.
 0. 0. 0. 0.
 0. 0. 0. 0.
 0. 0. 0. 0.
 0. 0. 0. 0.
 0. 0. 0. 0.
 0. 0. 0. 0.
 0. 0. 0. 0.
 0. 0. 0. 0.
 0. 0. 0. 0.
 0. 0. 0. 0.
 0. 0. 0. 0.
 0. 0. 0. 0.
 0. 0. 0. 0.
 0. 0. 0. 0.
 0. 0. 0. 0.
 0. 0. 0. 0.
 0. 0. 0. 0.
 0. 0. 0. 0.
 0. 0. 0. 0.
 0. 0. 0. 0.
 0. 0. 0. 0.
 0. 0. 0. 0.
 0. 0. 0. 0.
 0. 0. 0. 0.
 0. 0. 0. 0.
 0. 0. 0. 0.
 0. 0. 0. 0.
 0. 0. 0. 0.
 0. 0. 0. 0.
 0. 0. 0. 0.
 0. 0. 0. 0.
 0. 0. 0. 0.
 0. 0. 0. 0.
 0. 0. 0. 0.
 0. 0. 0. 0.
 0. 0. 0. 0.
 0. 0. 0. 0.
 0. 0. 0. 0.
 0. 0. 0. 0.
 0. 0. 0. 0.
 0. 0. 0. 0.
 0. 0. 0. 0.
 0. 0. 0. 0.
 0. 0. 0. 0.
 0. 0. 0. 0.
 0. 0. 0. 0.
 0. 0. 0. 0.
 0. 0. 0. 0.
 0. 0. 0. 0.
 0. 0. 0. 0.
 0. 0. 0. 0.
 0. 0. 0. 0.
 0. 0. 0. 0.
 0. 0. 0. 0.
 0. 0. 0. 0.
 0. 0. 0. 0.
 0. 0. 0. 0.
 0. 0. 0. 0.
 0. 0. 0. 0.
 0. 0. 0. 0.
 0. 0. 0. 0.
 0. 0. 0. 0.
 0. 0. 0. 0.
 0. 0. 0. 0.
 0. 0. 0. 0.
 0. 0. 0. 0.
 0. 0. 0. 0.
 0. 0. 0. 0.
 0. 0. 0. 0.
 0. 0. 0. 0.
 0. 0. 0. 0.
 0. 0. 0. 0.
 0. 0. 0. 0.
 0. 0. 0. 0.
 0. 0. 0. 0.
 0. 0. 0. 0.
 0. 0. 0. 0.
 0. 0. 0. 0.
 0. 0. 0. 0.
 0. 0. 0. 0.
 0. 0. 0. 0.
 0. 0. 0. 0.
 0. 0. 0. 0.
   </PP_BETA.10>
   <PP_DIJ type="real"  size=" 100" columns="4">
    1.9836671437E+01    0.0000000000E+00    0.0000000000E+00    0.0000000000E+00
    0.0000000000E+00    0.0000000000E+00    0.0000000000E+00    0.0000000000E+00
    0.0000000000E+00    0.0000000000E+00    0.0000000000E+00    2.2285667499E+00
    0.0000000000E+00    0.0000000000E+00    0.0000000000E+00    0.0000000000E+00
    0.0000000000E+00    0.0000000000E+00    0.0000000000E+00    0.0000000000E+00
    0.0000000000E+00    0.0000000000E+00    9.4536616627E+00    0.0000000000E+00
    0.0000000000E+00    0.0000000000E+00    0.0000000000E+00    0.0000000000E+00
    0.0000000000E+00    0.0000000000E+00    0.0000000000E+00    0.0000000000E+00
    0.0000000000E+00    9.9557847883E+00    0.0000000000E+00    0.0000000000E+00
    0.0000000000E+00    0.0000000000E+00    0.0000000000E+00    0.0000000000E+00
    0.0000000000E+00    0.0000000000E+00    0.0000000000E+00    0.0000000000E+00
    1.4546498460E+00    0.0000000000E+00    0.0000000000E+00    0.0000000000E+00
    0.0000000000E+00    0.0000000000E+00    0.0000000000E+00    0.0000000000E+00
    0.0000000000E+00    0.0000000000E+00    0.0000000000E+00    1.5081492539E+00
    0.0000000000E+00    0.0000000000E+00    0.0000000000E+00    0.0000000000E+00
    0.0000000000E+00    0.0000000000E+00    0.0000000000E+00    0.0000000000E+00
    0.0000000000E+00    0.0000000000E+00    1.6071793475E+00    0.0000000000E+00
    0.0000000000E+00    0.0000000000E+00    0.0000000000E+00    0.0000000000E+00
    0.0000000000E+00    0.0000000000E+00    0.0000000000E+00    0.0000000000E+00
    0.0000000000E+00    1.7123633859E+00    0.0000000000E+00    0.0000000000E+00
    0.0000000000E+00    0.0000000000E+00    0.0000000000E+00    0.0000000000E+00
    0.0000000000E+00    0.0000000000E+00    0.0000000000E+00    0.0000000000E+00
    4.4817658434E-01    0.0000000000E+00    0.0000000000E+00    0.0000000000E+00
    0.0000000000E+00    0.0000000000E+00    0.0000000000E+00    0.0000000000E+00
    0.0000000000E+00    0.0000000000E+00    0.0000000000E+00    4.8284468304E-01
   </PP_DIJ>
 </PP_NONLOCAL>
 <PP_PSWFC>
   <PP_CHI.1
       type="real"
       size="1680"
       columns="4"
       index="1"
       occupation=" 2.000"
       pseudo_energy="   -0.4289849048E+01"
       label="4S"
       l="0" >
    1.4535594950E-12    5.6411643085E-03    1.1296850981E-02    1.6981538590E-02
    2.2709618249E-02    2.8495350206E-02    3.4352820800E-02    4.0295899936E-02
    4.6338199175E-02    5.2493030567E-02    5.8773366360E-02    6.5191799676E-02
    7.1760506285E-02    7.8491207579E-02    8.5395134858E-02    9.2482995016E-02
    9.9764937745E-02    1.0725052432E-01    1.1494869811E-01    1.2286775679E-01
    1.3101532646E-01    1.3939833768E-01    1.4802300346E-01    1.5689479927E-01
    1.6601844525E-01    1.7539789043E-01    1.8503629923E-01    1.9493604013E-01
    2.0509867665E-01    2.1552496046E-01    2.2621482693E-01    2.3716739283E-01
    2.4838095642E-01    2.5985299973E-01    2.7158019315E-01    2.8355840224E-01
    2.9578269678E-01    3.0824736195E-01    3.2094591170E-01    3.3387110415E-01
    3.4701495912E-01    3.6036877750E-01    3.7392316266E-01    3.8766804365E-01
    4.0159270010E-01    4.1568578896E-01    4.2993537264E-01    4.4432894885E-01
    4.5885348169E-01    4.7349543416E-01    4.8824080184E-01    5.0307514768E-01
    5.1798363778E-01    5.3295107809E-01    5.4796195186E-01    5.6300045775E-01
    5.7805054850E-01    5.9309597003E-01    6.0812030087E-01    6.2310699172E-01
    6.3803940521E-01    6.5290085548E-01    6.6767464774E-01    6.8234411749E-01
    6.9689266940E-01    7.1130381569E-01    7.2556121390E-01    7.3964870403E-01
    7.5355034478E-01    7.6725044904E-01    7.8073361820E-01    7.9398477560E-01
    8.0698919862E-01    8.1973254967E-01    8.3220090577E-01    8.4438078680E-01
    8.5625918224E-01    8.6782357645E-01    8.7906197233E-01    8.8996291340E-01
    9.0051550420E-01    9.1070942896E-01    9.2053496863E-01    9.2998301603E-01
    9.3904508936E-01    9.4771334378E-01    9.5598058135E-01    9.6384025902E-01
    9.7128649498E-01    9.7831407309E-01    9.8491844566E-01    9.9109573442E-01
    9.9684272981E-01    1.0021568886E+00    1.0070363297E+00    1.0114798288E+00
    1.0154868109E+00    1.0190573418E+00    1.0221921176E+00    1.0248924537E+00
    1.0271602716E+00    1.0289980846E+00    1.0304089830E+00    1.0313966170E+00
    1.0319651798E+00    1.0321193889E+00    1.0318644665E+00    1.0312061200E+00
    1.0301505201E+00    1.0287042801E+00    1.0268744334E+00    1.0246684109E+00
    1.0220940176E+00    1.0191594099E+00    1.0158730712E+00    1.0122437885E+00
    1.0082806283E+00    1.0039929126E+00    9.9939019474E-01    9.9448223598E-01
    9.8927898138E-01    9.8379053652E-01    9.7802714431E-01    9.7199916219E-01
    9.6571703966E-01    9.5919129642E-01    9.5243250083E-01    9.4545124908E-01
    9.3825814480E-01    9.3086377948E-01    9.2327871333E-01    9.1551345701E-01
    9.0757845394E-01    8.9948406344E-01    8.9124054455E-01    8.8285804062E-01
    8.7434656470E-01    8.6571598571E-01    8.5697601531E-01    8.4813619567E-01
    8.3920588792E-01    8.3019426139E-01    8.2111028366E-01    8.1196271126E-01
    8.0276008119E-01    7.9351070309E-01    7.8422265215E-01    7.7490376265E-01
    7.6556162218E-01    7.5620356648E-01    7.4683667485E-01    7.3746776619E-01
    7.2810339555E-01    7.1874985120E-01    7.0941315218E-01    7.0009904639E-01
    6.9081300900E-01    6.8156024134E-01    6.7234567016E-01    6.6317394727E-01
    6.5404944939E-01    6.4497627850E-01    6.3595826226E-01    6.2699895468E-01
    6.1810163684E-01    6.0926931817E-01    6.0050473830E-01    5.9181036881E-01
    5.8318841524E-01    5.7464081909E-01    5.6616926001E-01    5.5777517156E-01
    5.4945980226E-01    5.4122429611E-01    5.3306969218E-01    5.2499693043E-01
    5.1700685571E-01    5.0910022177E-01    5.0127769513E-01    4.9353985888E-01
    4.8588721622E-01    4.7832019410E-01    4.7083914650E-01    4.6344435783E-01
    4.5613604603E-01    4.4891436570E-01    4.4177941103E-01    4.3473121871E-01
    4.2776977067E-01    4.2089499676E-01    4.1410677734E-01    4.0740494577E-01
    4.0078929079E-01    3.9425955885E-01    3.8781545634E-01    3.8145665174E-01
    3.7518277766E-01    3.6899343288E-01    3.6288818421E-01    3.5686656838E-01
    3.5092809379E-01    3.4507224222E-01    3.3929847047E-01    3.3360621192E-01
    3.2799487807E-01    3.2246385995E-01    3.1701252958E-01    3.1164024122E-01
    3.0634633272E-01    3.0113012673E-01    2.9599093187E-01    2.9092804386E-01
    2.8594074661E-01    2.8102831326E-01    2.7619000715E-01    2.7142508276E-01
    2.6673278668E-01    2.6211235839E-01    2.5756303114E-01    2.5308403274E-01
    2.4867458628E-01    2.4433391088E-01    2.4006122238E-01    2.3585573396E-01
    2.3171665678E-01    2.2764320060E-01    2.2363457428E-01    2.1968998639E-01
    2.1580864567E-01    2.1198976153E-01    2.0823254449E-01    2.0453620665E-01
    2.0089996209E-01    1.9732302724E-01    1.9380462126E-01    1.9034396642E-01
    1.8694028836E-01    1.8359281650E-01    1.8030078422E-01    1.7706342922E-01
    1.7387999376E-01    1.7074972488E-01    1.6767187465E-01    1.6464570037E-01
    1.6167046477E-01    1.5874543621E-01    1.5586988886E-01    1.5304310282E-01
    1.5026436430E-01    1.4753296575E-01    1.4484820601E-01    1.4220939037E-01
    1.3961583074E-01    1.3706684570E-01    1.3456176062E-01    1.3209990771E-01
    1.2968062611E-01    1.2730326196E-01    1.2496716843E-01    1.2267170578E-01
    1.2041624143E-01    1.1820014993E-01    1.1602281304E-01    1.1388361976E-01
    1.1178196630E-01    1.0971725613E-01    1.0768889996E-01    1.0569631576E-01
    1.0373892876E-01    1.0181617142E-01    9.9927483430E-02    9.8072311709E-02
    9.6250110359E-02    9.4460340657E-02    9.2702471024E-02    9.0975976999E-02
    8.9280341199E-02    8.7615053292E-02    8.5979609953E-02    8.4373514822E-02
    8.2796278467E-02    8.1247418333E-02    7.9726458697E-02    7.8232930618E-02
    7.6766371886E-02    7.5326326969E-02    7.3912346959E-02    7.2523989515E-02
    7.1160818808E-02    6.9822405460E-02    6.8508326487E-02    6.7218165236E-02
    6.5951511327E-02    6.4707960585E-02    6.3487114983E-02    6.2288582575E-02
    6.1111977432E-02    5.9956919576E-02    5.8823034919E-02    5.7709955191E-02
    5.6617317879E-02    5.5544766158E-02    5.4491948825E-02    5.3458520233E-02
    5.2444140223E-02    5.1448474056E-02    5.0471192351E-02    4.9511971013E-02
    4.8570491166E-02    4.7646439093E-02    4.6739506160E-02    4.5849388756E-02
    4.4975788227E-02    4.4118410805E-02    4.3276967549E-02    4.2451174274E-02
    4.1640751490E-02    4.0845424335E-02    4.0064922511E-02    3.9298980223E-02
    3.8547336112E-02    3.7809733194E-02    3.7085918798E-02    3.6375644500E-02
    3.5678666068E-02    3.4994743398E-02    3.4323640450E-02    3.3665125194E-02
    3.3018969548E-02    3.2384949318E-02    3.1762844140E-02    3.1152437427E-02
    3.0553516305E-02    2.9965871561E-02    2.9389297584E-02    2.8823592315E-02
    2.8268557184E-02    2.7723997066E-02    2.7189720218E-02    2.6665538233E-02
    2.6151265982E-02    2.5646721569E-02    2.5151726273E-02    2.4666104505E-02
    2.4189683749E-02    2.3722294523E-02    2.3263770322E-02    2.2813947576E-02
    2.2372665598E-02    2.1939766540E-02    2.1515095347E-02    2.1098499712E-02
    2.0689830027E-02    2.0288939344E-02    1.9895683329E-02    1.9509920217E-02
    1.9131510775E-02    1.8760318252E-02    1.8396208346E-02    1.8039049159E-02
    1.7688711155E-02    1.7345067125E-02    1.7007992145E-02    1.6677363539E-02
    1.6353060840E-02    1.6034965752E-02    1.5722962117E-02    1.5416935874E-02
    1.5116775025E-02    1.4822369603E-02    1.4533611631E-02    1.4250395094E-02
    1.3972615901E-02    1.3700171857E-02    1.3432962624E-02    1.3170889694E-02
    1.2913856354E-02    1.2661767657E-02    1.2414530393E-02    1.2172053054E-02
    1.1934245807E-02    1.1701020468E-02    1.1472290467E-02    1.1247970824E-02
    1.1027978120E-02    1.0812230472E-02    1.0600647499E-02    1.0393150304E-02
    1.0189661444E-02    9.9901049028E-03    9.7944060689E-03    9.6024917088E-03
    9.4142899433E-03    9.2297302231E-03    9.0487433054E-03    8.8712612308E-03
    8.6972173000E-03    8.5265460518E-03    8.3591832407E-03    8.1950658153E-03
    8.0341318968E-03    7.8763207583E-03    7.7215728039E-03    7.5698295482E-03
    7.4210335969E-03    7.2751286265E-03    7.1320593656E-03    6.9917715755E-03
    6.8542120317E-03    6.7193285059E-03    6.5870697471E-03    6.4573854650E-03
    6.3302263116E-03    6.2055438650E-03    6.0832906116E-03    5.9634199306E-03
    5.8458860768E-03    5.7306441656E-03    5.6176501563E-03    5.5068608375E-03
    5.3982338117E-03    5.2917274803E-03    5.1873010289E-03    5.0849144134E-03
    4.9845283455E-03    4.8861042787E-03    4.7896043951E-03    4.6949915919E-03
    4.6022294678E-03    4.5112823109E-03    4.4221150852E-03    4.3346934186E-03
    4.2489835907E-03    4.1649525203E-03    4.0825677542E-03    4.0017974552E-03
    3.9226103906E-03    3.8449759215E-03    3.7688639914E-03    3.6942451153E-03
    3.6210903697E-03    3.5493713813E-03    3.4790603176E-03    3.4101298764E-03
    3.3425532760E-03    3.2763042456E-03    3.2113570155E-03    3.1476863083E-03
    3.0852673291E-03    3.0240757570E-03    2.9640877360E-03    2.9052798662E-03
    2.8476291956E-03    2.7911132115E-03    2.7357098322E-03    2.6813973991E-03
    2.6281546688E-03    2.5759608050E-03    2.5247953713E-03    2.4746383234E-03
    2.4254700018E-03    2.3772711245E-03    2.3300227800E-03    2.2837064204E-03
    2.2383038543E-03    2.1937972403E-03    2.1501690804E-03    2.1074022133E-03
    2.0654798084E-03    2.0243853591E-03    1.9841026771E-03    1.9446158864E-03
    1.9059094168E-03    1.8679679988E-03    1.8307766577E-03    1.7943207077E-03
    1.7585857469E-03    1.7235576516E-03    1.6892225711E-03    1.6555669226E-03
    1.6225773860E-03    1.5902408991E-03    1.5585446523E-03    1.5274760843E-03
    1.4970228770E-03    1.4671729510E-03    1.4379144612E-03    1.4092357921E-03
    1.3811255534E-03    1.3535725761E-03    1.3265659077E-03    1.3000948086E-03
    1.2741487478E-03    1.2487173988E-03    1.2237906358E-03    1.1993585300E-03
    1.1754113457E-03    1.1519395366E-03    1.1289337421E-03    1.1063847839E-03
    1.0842836624E-03    1.0626215534E-03    1.0413898046E-03    1.0205799323E-03
    1.0001836183E-03    9.8019270664E-04    9.6059920039E-04    9.4139525877E-04
    9.2257319403E-04    9.0412546855E-04    8.8604469193E-04    8.6832361819E-04
    8.5095514295E-04    8.3393230072E-04    8.1724826225E-04    8.0089633184E-04
    7.8486994482E-04    7.6916266501E-04    7.5376818222E-04    7.3868030985E-04
    7.2389298246E-04    7.0940025346E-04    6.9519629283E-04    6.8127538481E-04
    6.6763192573E-04    6.5426042185E-04    6.4115548719E-04    6.2831184147E-04
    6.1572430809E-04    6.0338781205E-04    5.9129737805E-04    5.7944812851E-04
    5.6783528171E-04    5.5645414989E-04    5.4530013747E-04    5.3436873922E-04
    5.2365553853E-04    5.1315620568E-04    5.0286649616E-04    4.9278224898E-04
    4.8289938510E-04    4.7321390579E-04    4.6372189107E-04    4.5441949822E-04
    4.4530296021E-04    4.3636858428E-04    4.2761275047E-04    4.1903191020E-04
    4.1062258487E-04    4.0238136452E-04    3.9430490646E-04    3.8638993399E-04
    3.7863323509E-04    3.7103166115E-04    3.6358212575E-04    3.5628160343E-04
    3.4912712851E-04    3.4211579392E-04    3.3524475003E-04    3.2851120358E-04
    3.2191241650E-04    3.1544570490E-04    3.0910843798E-04    3.0289803697E-04
    2.9681197415E-04    2.9084777182E-04    2.8500300133E-04    2.7927528213E-04
    2.7366228080E-04    2.6816171014E-04    2.6277132828E-04    2.5748893774E-04
    2.5231238463E-04    2.4723955772E-04    2.4226838766E-04    2.3739684613E-04
    2.3262294502E-04    2.2794473566E-04    2.2336030807E-04    2.1886779014E-04
    2.1446534692E-04    2.1015117988E-04    2.0592352621E-04    2.0178065810E-04
    1.9772088203E-04    1.9374253816E-04    1.8984399958E-04    1.8602367173E-04
    1.8227999173E-04    1.7861142778E-04    1.7501647850E-04    1.7149367238E-04
    1.6804156717E-04    1.6465874930E-04    1.6134383331E-04    1.5809546130E-04
    1.5491230240E-04    1.5179305223E-04    1.4873643234E-04    1.4574118976E-04
    1.4280609643E-04    1.3992994879E-04    1.3711156719E-04    1.3434979552E-04
    1.3164350068E-04    1.2899157215E-04    1.2639292151E-04    1.2384648208E-04
    1.2135120839E-04    1.1890607583E-04    1.1651008022E-04    1.1416223739E-04
    1.1186158281E-04    1.0960717116E-04    1.0739807600E-04    1.0523338935E-04
    1.0311222136E-04    1.0103369994E-04    9.8996970374E-05    9.7001195031E-05
    9.5045552987E-05    9.3129239709E-05    9.1251466724E-05    8.9411461305E-05
    8.7608466154E-05    8.5841739096E-05    8.4110552783E-05    8.2414194395E-05
    8.0751965353E-05    7.9123181034E-05    7.7527170499E-05    7.5963276215E-05
    7.4430853792E-05    7.2929271721E-05    7.1457911115E-05    7.0016165465E-05
    6.8603440385E-05    6.7219153377E-05    6.5862733594E-05    6.4533621603E-05
    6.3231269165E-05    6.1955139008E-05    6.0704704607E-05    5.9479449976E-05
    5.8278869451E-05    5.7102467491E-05    5.5949758471E-05    5.4820266487E-05
    5.3713525163E-05    5.2629077460E-05    5.1566475489E-05    5.0525280331E-05
    4.9505061855E-05    4.8505398547E-05    4.7525877334E-05    4.6566093417E-05
    4.5625650108E-05    4.4704158667E-05    4.3801238140E-05    4.2916515209E-05
    4.2049624038E-05    4.1200206121E-05    4.0367910139E-05    3.9552391814E-05
    3.8753313771E-05    3.7970345397E-05    3.7203162710E-05    3.6451448223E-05
    3.5714890814E-05    3.4993185604E-05    3.4286033826E-05    3.3593142707E-05
    3.2914225346E-05    3.2249000597E-05    3.1597192956E-05    3.0958532444E-05
    3.0332754504E-05    2.9719599882E-05    2.9118814530E-05    2.8530149500E-05
    2.7953360837E-05    2.7388209485E-05    2.6834461187E-05    2.6291886388E-05
    2.5760260141E-05    2.5239362019E-05    2.4728976016E-05    2.4228890468E-05
    2.3738897959E-05    2.3258795240E-05    2.2788383144E-05    2.2327466504E-05
    2.1875854074E-05    2.1433358450E-05    2.0999795993E-05    2.0574986752E-05
    2.0158754395E-05    1.9750926131E-05    1.9351332642E-05    1.8959808011E-05
    1.8576189658E-05    1.8200318270E-05    1.7832037737E-05    1.7471195084E-05
    1.7117640415E-05    1.6771226845E-05    1.6431810444E-05    1.6099250175E-05
    1.5773407836E-05    1.5454148007E-05    1.5141337987E-05    1.4834847748E-05
    1.4534549876E-05    1.4240319517E-05    1.3952034333E-05    1.3669574442E-05
    1.3392822379E-05    1.3121663038E-05    1.2855983630E-05    1.2595673636E-05
    1.2340624761E-05    1.2090730888E-05    1.1845888037E-05    1.1605994319E-05
    1.1370949897E-05    1.1140656942E-05    1.0915019597E-05    1.0693943930E-05
    1.0477337904E-05    1.0265111333E-05    1.0057175846E-05    9.8534448538E-06
    9.6538335078E-06    9.4582586695E-06    9.2666388740E-06    9.0788942971E-06
    8.8949467221E-06    8.7147195077E-06    8.5381375561E-06    8.3651272821E-06
    8.1956165828E-06    8.0295348076E-06    7.8668127294E-06    7.7073825156E-06
    7.5511777002E-06    7.3981331564E-06    7.2481850695E-06    7.1012709110E-06
    6.9573294121E-06    6.8163005388E-06    6.6781254670E-06    6.5427465579E-06
    6.4101073349E-06    6.2801524592E-06    6.1528277077E-06    6.0280799504E-06
    5.9058571281E-06    5.7861082314E-06    5.6687832790E-06    5.5538332975E-06
    5.4412103007E-06    5.3308672703E-06    5.2227581358E-06    5.1168377559E-06
    5.0130618996E-06    4.9113872278E-06    4.8117712757E-06    4.7141724349E-06
    4.6185499360E-06    4.5248638322E-06    4.4330749827E-06    4.3431450357E-06
    4.2550364137E-06    4.1687122969E-06    4.0841366086E-06    4.0012739998E-06
    3.9200898351E-06    3.8405501775E-06    3.7626217751E-06    3.6862720471E-06
    3.6114690701E-06    3.5381815649E-06    3.4663788838E-06    3.3960309974E-06
    3.3271084828E-06    3.2595825106E-06    3.1934248338E-06    3.1286077752E-06
    3.0651042166E-06    3.0028875874E-06    2.9419318531E-06    2.8822115052E-06
    2.8237015499E-06    2.7663774986E-06    2.7102153567E-06    2.6551916144E-06
    2.6012832366E-06    2.5484676535E-06    2.4967227512E-06    2.4460268622E-06
    2.3963587569E-06    2.3476976344E-06    2.3000231139E-06    2.2533152266E-06
    2.2075544068E-06    2.1627214843E-06    2.1187976761E-06    2.0757645787E-06
    2.0336041605E-06    1.9922987543E-06    1.9518310497E-06    1.9121840863E-06
    1.8733412465E-06    1.8352862483E-06    1.7980031389E-06    1.7614762879E-06
    1.7256903809E-06    1.6906304130E-06    1.6562816826E-06    1.6226297853E-06
    1.5896606078E-06    1.5573603222E-06    1.5257153803E-06    1.4947125076E-06
    1.4643386980E-06    1.4345812085E-06    1.4054275537E-06    1.3768655008E-06
    1.3488830642E-06    1.3214685007E-06    1.2946103046E-06    1.2682972031E-06
    1.2425181511E-06    1.2172623272E-06    1.1925191285E-06    1.1682781669E-06
    1.1445292643E-06    1.1212624486E-06    1.0984679493E-06    1.0761361937E-06
    1.0542578026E-06    1.0328235868E-06    1.0118245428E-06    9.9125184945E-07
    9.7109686400E-07    9.5135111863E-07    9.3200631688E-07    9.1305433019E-07
    8.9448719450E-07    8.7629710694E-07    8.5847642256E-07    8.4101765116E-07
    8.2391345415E-07    8.0715664151E-07    7.9074016873E-07    7.7465713393E-07
    7.5890077494E-07    7.4346446653E-07    7.2834171757E-07    7.1352616837E-07
    6.9901158800E-07    6.8479187170E-07    6.7086103835E-07    6.5721322793E-07
    6.4384269908E-07    6.3074382673E-07    6.1791109971E-07    6.0533911851E-07
    5.9302259294E-07    5.8095633999E-07    5.6913528161E-07    5.5755444263E-07
    5.4620894865E-07    5.3509402404E-07    5.2420498989E-07    5.1353726210E-07
    5.0308634942E-07    4.9284785163E-07    4.8281745764E-07    4.7299094373E-07
    4.6336417177E-07    4.5393308744E-07    4.4469371864E-07    4.3564217374E-07
    4.2677463997E-07    4.1808738185E-07    4.0957673959E-07    4.0123912759E-07
    3.9307103294E-07    3.8506901392E-07    3.7722969859E-07    3.6954978333E-07
    3.6202603153E-07    3.5465527217E-07    3.4743439855E-07    3.4036036693E-07
    3.3343019528E-07    3.2664096205E-07    3.1998980490E-07    3.1347391958E-07
    3.0709055867E-07    3.0083703047E-07    2.9471069786E-07    2.8870897720E-07
    2.8282933728E-07    2.7706929819E-07    2.7142643035E-07    2.6589835343E-07
    2.6048273539E-07    2.5517729151E-07    2.4997978340E-07    2.4488801810E-07
    2.3989984710E-07    2.3501316552E-07    2.3022591115E-07    2.2553606364E-07
    2.2094164363E-07    2.1644071192E-07    2.1203136864E-07    2.0771175251E-07
    2.0348003998E-07    1.9933444453E-07    1.9527321590E-07    1.9129463932E-07
    1.8739703486E-07    1.8357875665E-07    1.7983819225E-07    1.7617376194E-07
    1.7258391808E-07    1.6906714441E-07    1.6562195547E-07    1.6224689596E-07
    1.5894054013E-07    1.5570149115E-07    1.5252838056E-07    1.4941986770E-07
    1.4637463909E-07    1.4339140797E-07    1.4046891367E-07    1.3760592113E-07
    1.3480122037E-07    1.3205362598E-07    1.2936197662E-07    1.2672513454E-07
    1.2414198510E-07    1.2161143629E-07    1.1913241827E-07    1.1670388295E-07
    1.1432480351E-07    1.1199417400E-07    1.0971100890E-07    1.0747434271E-07
    1.0528322953E-07    1.0313674270E-07    1.0103397436E-07    9.8974035118E-08
    9.6956053633E-08    9.4979176276E-08    9.3042566756E-08    9.1145405782E-08
    8.9286890707E-08    8.7466235193E-08    8.5682668882E-08    8.3935437070E-08
    8.2223800384E-08    8.0547034487E-08    7.8904429759E-08    7.7295291001E-08
    7.5718937143E-08    7.4174700958E-08    7.2661928780E-08    7.1179980231E-08
    6.9728227952E-08    6.8306057334E-08    6.6912866260E-08    6.5548064854E-08
    6.4211075233E-08    6.2901331264E-08    6.1618278321E-08    6.0361373056E-08
    5.9130083166E-08    5.7923887171E-08    5.6742274194E-08    5.5584743751E-08
    5.4450805529E-08    5.3339979188E-08    5.2251794156E-08    5.1185789426E-08
    5.0141513372E-08    4.9118523551E-08    4.8116386519E-08    4.7134677646E-08
    4.6172980938E-08    4.5230888861E-08    4.4308002175E-08    4.3403929757E-08
    4.2518288442E-08    4.1650702857E-08    4.0800805267E-08    3.9968235414E-08
    3.9152640374E-08    3.8353674400E-08    3.7570998780E-08    3.6804281694E-08
    3.6053198070E-08    3.5317429452E-08    3.4596663863E-08    3.3890595675E-08
    3.3198925480E-08    3.2521359961E-08    3.1857611767E-08    3.1207399397E-08
    3.0570447080E-08    2.9946484656E-08    2.9335247463E-08    2.8736476225E-08
    2.8149916943E-08    2.7575320786E-08    2.7012443992E-08    2.6461047756E-08
    2.5920898138E-08    2.5391765956E-08    2.4873426695E-08    2.4365660408E-08
    2.3868251629E-08    2.3380989276E-08    2.2903666566E-08    2.2436080924E-08
    2.1978033900E-08    2.1529331082E-08    2.1089782019E-08    2.0659200138E-08
    2.0237402663E-08    1.9824210540E-08    1.9419448362E-08    1.9022944291E-08
    1.8634529991E-08    1.8254040552E-08    1.7881314424E-08    1.7516193346E-08
    1.7158522280E-08    1.6808149345E-08    1.6464925752E-08    1.6128705745E-08
    1.5799346537E-08    1.5476708246E-08    1.5160653841E-08    1.4851049082E-08
    1.4547762463E-08    1.4250665157E-08    1.3959630961E-08    1.3674536244E-08
    1.3395259891E-08    1.3121683257E-08    1.2853690112E-08    1.2591166594E-08
    1.2334001162E-08    1.2082084547E-08    1.1835309705E-08    1.1593571776E-08
    1.1356768032E-08    1.1124797841E-08    1.0897562622E-08    1.0674965802E-08
    1.0456912774E-08    1.0243310862E-08    1.0034069275E-08    9.8290990750E-09
    9.6283131351E-09    9.4316261047E-09    9.2389543721E-09    9.0502160298E-09
    8.8653308393E-09    8.6842201970E-09    8.5068071021E-09    8.3330161234E-09
    8.1627733669E-09    7.9960064446E-09    7.8326444439E-09    7.6726178978E-09
    7.5158587544E-09    7.3623003507E-09    7.2118773818E-09    7.0645258741E-09
    6.9201831580E-09    6.7787878415E-09    6.6402797837E-09    6.5046000707E-09
    6.3716909894E-09    6.2414960034E-09    6.1139597288E-09    5.9890279111E-09
    5.8666474014E-09    5.7467661347E-09    5.6293331082E-09    5.5142983590E-09
    5.4016129425E-09    5.2912289123E-09    5.1830992998E-09    5.0771780936E-09
    4.9734202213E-09    4.8717815297E-09    4.7722187658E-09    4.6746895587E-09
    4.5791524015E-09    4.4855666339E-09    4.3938924242E-09    4.3040907543E-09
    4.2161234015E-09    4.1299529225E-09    4.0455426377E-09    3.9628566156E-09
    3.8818596576E-09    3.8025172830E-09    3.7247957148E-09    3.6486618650E-09
    3.5740833203E-09    3.5010283287E-09    3.4294657858E-09    3.3593652215E-09
    3.2906967879E-09    3.2234312458E-09    3.1575399524E-09    3.0929948496E-09
    3.0297684512E-09    2.9678338321E-09    2.9071646160E-09    2.8477349657E-09
    2.7895195708E-09    2.7324936372E-09    2.6766328767E-09    2.6219134967E-09
    2.5683121901E-09    2.5158061250E-09    2.4643729363E-09    2.4139907147E-09
    2.3646379982E-09    2.3162937624E-09    2.2689374124E-09    2.2225487731E-09
    2.1771080813E-09    2.1325959776E-09    2.0889934972E-09    2.0462820626E-09
    2.0044434752E-09    1.9634599081E-09    1.9233138977E-09    1.8839883375E-09
    1.8454664699E-09    1.8077318794E-09    1.7707684855E-09    1.7345605359E-09
    1.6990925999E-09    1.6643495613E-09    1.6303166133E-09    1.5969792509E-09
    1.5643232653E-09    1.5323347376E-09    1.5010000333E-09    1.4703057959E-09
    1.4402389416E-09    1.4107866540E-09    1.3819363783E-09    1.3536758158E-09
    1.3259929192E-09    1.2988758867E-09    1.2723131580E-09    1.2462934081E-09
    1.2208055440E-09    1.1958386987E-09    1.1713822275E-09    1.1474257027E-09
    1.1239589095E-09    1.1009718419E-09    1.0784546978E-09    1.0563978758E-09
    1.0347919703E-09    1.0136277677E-09    9.9289624283E-10    9.7258855443E-10
    9.5269604201E-10    9.3321022172E-10    9.1412278326E-10    8.9542558598E-10
    8.7711065541E-10    8.5917017997E-10    8.4159650757E-10    8.2438214244E-10
    8.0751974172E-10    7.9100211279E-10    7.7482220987E-10    7.5897313105E-10
    7.4344811538E-10    7.2824054000E-10    7.1334391731E-10    6.9875189213E-10
    6.8445823925E-10    6.7045686062E-10    6.5674178270E-10    6.4330715396E-10
    6.3014724242E-10    6.1725643315E-10    6.0462922587E-10    5.9226023271E-10
    5.8014417598E-10    5.6827588569E-10    5.5665029751E-10    5.4526245052E-10
    5.3410748518E-10    5.2318064116E-10    5.1247725539E-10    5.0199276020E-10
    4.9172268117E-10    4.8166263527E-10    4.7180832904E-10    4.6215555672E-10
    4.5270019848E-10    4.4343821855E-10    4.3436566386E-10    4.2547866199E-10
    4.1677341965E-10    4.0824622105E-10    3.9989342633E-10    3.9171146998E-10
    3.8369685929E-10    3.7584617303E-10    3.6815605989E-10    3.6062323699E-10
    3.5324448853E-10    3.4601666445E-10    3.3893667902E-10    3.3200150956E-10
    3.2520819516E-10    3.1855383552E-10    3.1203558953E-10    3.0565067416E-10
    2.9939636325E-10    2.9326998634E-10    2.8726892756E-10    2.8139062439E-10
    2.7563256690E-10    2.6999229634E-10    2.6446740421E-10    2.5905553126E-10
    2.5375436642E-10    2.4856164590E-10    2.4347515209E-10    2.3849271279E-10
    2.3361220022E-10    2.2883153005E-10    2.2414866057E-10    2.1956159177E-10
    2.1506836454E-10    2.1066705982E-10    2.0635579770E-10    2.0213273684E-10
    1.9799607346E-10    1.9394404068E-10    1.8997490770E-10    1.8608697914E-10
    1.8227859423E-10    1.7854812615E-10    1.7489398138E-10    1.7131459897E-10
    1.6780844989E-10    1.6437403633E-10    1.6100989113E-10    1.5771457711E-10
    1.5448668647E-10    1.5132484014E-10    1.4822768735E-10    1.4519390490E-10
    1.4222219665E-10    1.3931129293E-10    1.3645995007E-10    1.3366694977E-10
    1.3093109868E-10    1.2825122782E-10    1.2562619215E-10    1.2305487005E-10
    1.2053616280E-10    1.1806899414E-10    1.1565230985E-10    1.1328507723E-10
    1.1096628467E-10    1.0869494133E-10    1.0647007657E-10    1.0429073964E-10
    1.0215599919E-10    1.0006494294E-10    9.8016677237E-11    9.6010326729E-11
    9.4045033916E-11    9.2119958906E-11    9.0234278950E-11    8.8387188123E-11
    8.6577896977E-11    8.4805632213E-11    8.3069636340E-11    8.1369167349E-11
    7.9703498406E-11    7.8071917576E-11    7.6473727462E-11    7.4908244930E-11
    7.3374800813E-11    7.1872739633E-11    7.0401419315E-11    6.8960210898E-11
    6.7548498306E-11    6.6165678074E-11    6.4811159068E-11    6.3484362242E-11
    6.2184720393E-11    6.0911677919E-11    5.9664690578E-11    5.8443225247E-11
    5.7246759731E-11    5.6074782518E-11    5.4926792550E-11    5.3802299017E-11
    5.2700821146E-11    5.1621887999E-11    5.0565038271E-11    4.9529820072E-11
    4.8515790791E-11    4.7522516861E-11    4.6549573580E-11    4.5596544932E-11
    4.4663023411E-11    4.3748609847E-11    4.2852913233E-11    4.1975550544E-11
    4.1116146625E-11    4.0274333983E-11    3.9449752638E-11    3.8642049977E-11
    3.7850880597E-11    3.7075906162E-11    3.6316795257E-11    3.5573223231E-11
    3.4844872104E-11    3.4131430393E-11    3.3432592983E-11    3.2748061000E-11
    3.2077541685E-11    3.1420748269E-11    3.0777399848E-11    3.0147221252E-11
    2.9529942967E-11    2.8925300983E-11    2.8333036692E-11    2.7752896772E-11
    2.7184633088E-11    2.6628002579E-11    2.6082767158E-11    2.5548693597E-11
    2.5025553460E-11    2.4513122982E-11    2.4011182970E-11    2.3519518718E-11
    2.3037919913E-11    2.2566180544E-11    2.2104098814E-11    2.1651477049E-11
    2.1208121630E-11    2.0773842903E-11    2.0348455089E-11    1.9931776210E-11
    1.9523628011E-11    1.9123835886E-11    1.8732228801E-11    1.8348639214E-11
    1.7972903020E-11    1.7604859477E-11    1.7244351127E-11    1.6891223732E-11
    1.6545326214E-11    1.6206510583E-11    1.5874631878E-11    1.5549548102E-11
    1.5231120161E-11    1.4919211823E-11    1.4613689632E-11    1.4314422866E-11
    1.4021283478E-11    1.3734146039E-11    1.3452887689E-11    1.3177388082E-11
    1.2907529324E-11    1.2643195954E-11    1.2384274864E-11    1.2130655262E-11
    1.1882228621E-11    1.1638888638E-11    1.1400531182E-11    1.1167054256E-11
    1.0938357944E-11    1.0714344383E-11    1.0494917712E-11    1.0279984031E-11
    1.0069451361E-11    9.8632296059E-12    9.6612305125E-12    9.4633676344E-12
    9.2695562923E-12    9.0797135393E-12    8.8937581342E-12    8.7116104936E-12
    8.5331926631E-12    8.3584282838E-12    8.1872425594E-12    8.0195622245E-12
    7.8553155132E-12    7.6944321235E-12    7.5368432019E-12    7.3824813008E-12
    7.2312803526E-12    7.0831756415E-12    6.9381037766E-12    6.7960026643E-12
    6.6568114820E-12    6.5204706499E-12    6.3869218089E-12    6.2561077988E-12
    6.1279726264E-12    6.0024614446E-12    5.8795205288E-12    5.7590972544E-12
    5.6411400734E-12    5.5255984935E-12    5.4124230516E-12    5.3015653049E-12
    5.1929777993E-12    5.0866140518E-12    4.9824285306E-12    4.8803766362E-12
    4.7804146817E-12    4.6824998746E-12    4.5865902973E-12    4.4926448898E-12
    4.4006234372E-12    4.3104865450E-12    4.2221956255E-12    4.1357128805E-12
    4.0510012857E-12    3.9680245748E-12    3.8867472236E-12    3.8071344331E-12
    3.7291521203E-12    3.6527668999E-12    3.5779460688E-12    3.5046575937E-12
    3.4328700969E-12    3.3625528430E-12    3.2936757258E-12    3.2262092556E-12
    3.1601245431E-12    3.0953932969E-12    3.0319878017E-12    2.9698809096E-12
    2.9090460287E-12    2.8494571112E-12    2.7910886427E-12    2.7339156311E-12
    2.6779135952E-12    2.6230585547E-12    2.5693270233E-12    2.5166959939E-12
    2.4651429303E-12    2.4146457576E-12    2.3651828530E-12    2.3167330362E-12
    2.2692755608E-12    2.2227901039E-12    2.1772567596E-12    2.1326560312E-12
    2.0889688199E-12    2.0461764179E-12    2.0042605005E-12    1.9632031180E-12
    1.9229866885E-12    1.8835939898E-12    1.8450081512E-12    1.8072126492E-12
    1.7701912989E-12    1.7339282462E-12    1.6984079614E-12    1.6636152329E-12
    1.6295351606E-12    1.5961531494E-12    1.5634549029E-12    1.5314264163E-12
    1.5000539738E-12    1.4693241400E-12    1.4392237542E-12    1.4097399251E-12
    1.3808600255E-12    1.3525716865E-12    1.3248627928E-12    1.2977214769E-12
    1.2711361132E-12    1.2450953162E-12    1.2195879333E-12    1.1946030396E-12
    1.1701299341E-12    1.1461581348E-12    1.1226773745E-12    1.0996775961E-12
    1.0771489484E-12    1.0550817811E-12    1.0334666431E-12    1.0122942765E-12
    9.9155561271E-13    9.7124176889E-13    9.5134404401E-13    9.3185391522E-13
    9.1276303422E-13    8.9406322363E-13    8.7574647268E-13    8.5780493617E-13
    8.4023092920E-13    8.2301692403E-13    8.0615554705E-13    7.8963957564E-13
    7.7346193510E-13    7.5761569558E-13    7.4209406913E-13    7.2689040620E-13
    7.1199819439E-13    6.9741105469E-13    6.8312273843E-13    6.6912712489E-13
    6.5541821868E-13    6.4199014722E-13    6.2883715814E-13    6.1595361691E-13
    6.0333400393E-13    5.9097291314E-13    5.7886504959E-13    5.6700522638E-13
    5.5538836282E-13    5.4400948227E-13    5.3286371002E-13    5.2194627117E-13
    5.1125248860E-13    5.0077778079E-13    4.9051765996E-13    4.8046773108E-13
    4.7062368861E-13    4.6098131522E-13    4.5153647994E-13    4.4228513639E-13
    4.3322332105E-13    4.2434715159E-13    4.1565282517E-13    4.0713661627E-13
    3.9879487686E-13    3.9062403307E-13    3.8262058421E-13    3.7478110129E-13
    3.6710222554E-13    3.5958066698E-13    3.5221320301E-13    3.4499667702E-13
    3.3792799669E-13    3.3100413364E-13    3.2422212148E-13    3.1757905440E-13
    3.1107208613E-13    3.0469842867E-13    2.9845535113E-13    2.9234017856E-13
    2.8635029077E-13    2.8048312110E-13    2.7473615548E-13    2.6910693179E-13
    2.6359303802E-13    2.5819211162E-13    2.5290183837E-13    2.4771995149E-13
    2.4264423060E-13    2.3767250080E-13    2.3280263175E-13    2.2803253638E-13
    2.2336017104E-13    2.1878353371E-13    2.1430066329E-13    2.0990963890E-13
    2.0560857895E-13    2.0139564044E-13    1.9726901807E-13    1.9322694355E-13
    1.8926768465E-13    1.8538954472E-13    1.8159086213E-13    1.7787000908E-13
    1.7422539113E-13    1.7065544649E-13    1.6715864535E-13    1.6373348925E-13
    1.6037851041E-13    1.5709227112E-13    1.5387336287E-13    1.5072040646E-13
    1.4763205079E-13    1.4460697240E-13    1.4164387494E-13    1.3874148859E-13
    1.3589856956E-13    1.3311389954E-13    1.3038628515E-13    1.2771455743E-13
    1.2509757127E-13    1.2253420535E-13    1.2002336114E-13    1.1756396262E-13
    1.1515495579E-13    1.1279530825E-13    1.1048400876E-13    1.0822006677E-13
    1.0600251203E-13    1.0383039405E-13    1.0170278196E-13    9.9618764027E-14
    9.7577447106E-14    9.5577956347E-14    9.3619434824E-14    9.1701043158E-14
    8.9821959169E-14    8.7981377513E-14    8.6178509347E-14    8.4412581835E-14
    8.2682838255E-14    8.0988537293E-14    7.9328952797E-14    7.7703373487E-14
    7.6111102654E-14    7.4551457862E-14    7.3023770652E-14    7.1527386258E-14
    7.0061663315E-14    6.8625973484E-14    6.7219701569E-14    6.5842244839E-14
    6.4493012914E-14    6.3171427506E-14    6.1876922174E-14    6.0608942078E-14
    5.9366943746E-14    5.8150394836E-14    5.6958773884E-14    5.5791570073E-14
    5.4648283218E-14    5.3528423287E-14    5.2431510288E-14    5.1357074060E-14
    5.0304654075E-14    4.9273799236E-14    4.8264067690E-14    4.7275026632E-14
    4.6306252087E-14    4.5357328769E-14    4.4427850017E-14    4.3517417428E-14
    4.2625640759E-14    4.1752137763E-14    4.0896534022E-14    4.0058462789E-14
    3.9237564828E-14    3.8433488264E-14    3.7650030830E-14    3.6889026456E-14
    3.6142669191E-14    3.5409838137E-14    3.4689532051E-14    3.3980913738E-14
    3.3283349468E-14    3.2596441904E-14    3.1920055007E-14    3.1254329404E-14
   </PP_CHI.1>
   <PP_CHI.2
       type="real"
       size="1680"
       columns="4"
       index="2"
       occupation=" 4.000"
       pseudo_energy="   -0.2487394122E+01"
       label="4P"
       l="1" >
   -3.5647318430E-12    1.6956418034E-04    6.7818154272E-04    1.5256263238E-03
    2.7115214988E-03    4.2353376605E-03    6.0963914630E-03    8.2938436432E-03
    1.0826696638E-02    1.3693791818E-02    1.6893806357E-02    2.0425249773E-02
    2.4286460161E-02    2.8475600156E-02    3.2990652652E-02    3.7829416336E-02
    4.2989501039E-02    4.8468322984E-02    5.4263099940E-02    6.0370846341E-02
    6.6788368415E-02    7.3512259344E-02    8.0538894531E-02    8.7864426986E-02
    9.5484782888E-02    1.0339565737E-01    1.1159251053E-01    1.2007056380E-01
    1.2882479653E-01    1.3784994310E-01    1.4714049023E-01    1.5669067493E-01
    1.6649448273E-01    1.7654564650E-01    1.8683764578E-01    1.9736370657E-01
    2.0811680174E-01    2.1908965200E-01    2.3027472743E-01    2.4166424967E-01
    2.5325019461E-01    2.6502429584E-01    2.7697804863E-01    2.8910271455E-01
    3.0138932678E-01    3.1382869598E-01    3.2641141686E-01    3.3912787534E-01
    3.5196825637E-01    3.6492255228E-01    3.7798057190E-01    3.9113195012E-01
    4.0436615816E-01    4.1767251432E-01    4.3104019539E-01    4.4445824855E-01
    4.5791560379E-01    4.7140108689E-01    4.8490343287E-01    4.9841129989E-01
    5.1191328364E-01    5.2539793210E-01    5.3885376073E-01    5.5226926803E-01
    5.6563295141E-01    5.7893332336E-01    5.9215892793E-01    6.0529835742E-01
    6.1834026920E-01    6.3127340282E-01    6.4408659710E-01    6.5676880738E-01
    6.6930912273E-01    6.8169678318E-01    6.9392119689E-01    7.0597195712E-01
    7.1783885911E-01    7.2951191674E-01    7.4098137884E-01    7.5223774521E-01
    7.6327178231E-01    7.7407453842E-01    7.8463735840E-01    7.9495189781E-01
    8.0501013657E-01    8.1480439184E-01    8.2432733031E-01    8.3357197968E-01
    8.4253173946E-01    8.5120039079E-01    8.5957210556E-01    8.6764145454E-01
    8.7540341458E-01    8.8285337492E-01    8.8998714243E-01    8.9680094593E-01
    9.0329143944E-01    9.0945570441E-01    9.1529125098E-01    9.2079601811E-01
    9.2596837275E-01    9.3080710798E-01    9.3531144014E-01    9.3948100495E-01
    9.4331585269E-01    9.4681644247E-01    9.4998363551E-01    9.5281868768E-01
    9.5532324107E-01    9.5749931486E-01    9.5934929547E-01    9.6087592591E-01
    9.6208229463E-01    9.6297182365E-01    9.6354825624E-01    9.6381564408E-01
    9.6377833406E-01    9.6344095458E-01    9.6280840170E-01    9.6188582493E-01
    9.6067861283E-01    9.5919237849E-01    9.5743294489E-01    9.5540633024E-01
    9.5311873327E-01    9.5057651860E-01    9.4778620219E-01    9.4475443686E-01
    9.4148799808E-01    9.3799376983E-01    9.3427873073E-01    9.3034994044E-01
    9.2621452626E-01    9.2187967009E-01    9.1735259562E-01    9.1264055590E-01
    9.0775082118E-01    9.0269066712E-01    8.9746736330E-01    8.9208816214E-01
    8.8656028805E-01    8.8089092704E-01    8.7508721657E-01    8.6915623580E-01
    8.6310499612E-01    8.5694043206E-01    8.5066939243E-01    8.4429863189E-01
    8.3783480270E-01    8.3128444686E-01    8.2465398851E-01    8.1794972661E-01
    8.1117782794E-01    8.0434432034E-01    7.9745508624E-01    7.9051585649E-01
    7.8353220445E-01    7.7650954031E-01    7.6945310575E-01    7.6236796884E-01
    7.5525901922E-01    7.4813096353E-01    7.4098832120E-01    7.3383542042E-01
    7.2667639451E-01    7.1951517845E-01    7.1235550567E-01    7.0520090497E-01
    6.9805469810E-01    6.9091999787E-01    6.8379970640E-01    6.7669651372E-01
    6.6961289659E-01    6.6255111761E-01    6.5551323429E-01    6.4850114397E-01
    6.4151665707E-01    6.3456149836E-01    6.2763730940E-01    6.2074565138E-01
    6.1388800759E-01    6.0706578594E-01    6.0028032137E-01    5.9353287826E-01
    5.8682465267E-01    5.8015677469E-01    5.7353031057E-01    5.6694626488E-01
    5.6040558262E-01    5.5390915123E-01    5.4745780256E-01    5.4105231483E-01
    5.3469341450E-01    5.2838177805E-01    5.2211803382E-01    5.1590276366E-01
    5.0973650469E-01    5.0361975085E-01    4.9755295454E-01    4.9153652812E-01
    4.8557084543E-01    4.7965624322E-01    4.7379302255E-01    4.6798145020E-01
    4.6222175994E-01    4.5651415382E-01    4.5085880347E-01    4.4525585124E-01
    4.3970541140E-01    4.3420757128E-01    4.2876239237E-01    4.2336991135E-01
    4.1803014118E-01    4.1274307204E-01    4.0750867234E-01    4.0232688962E-01
    3.9719765149E-01    3.9212086648E-01    3.8709642490E-01    3.8212419966E-01
    3.7720404705E-01    3.7233580753E-01    3.6751930646E-01    3.6275435479E-01
    3.5804074981E-01    3.5337827576E-01    3.4876670452E-01    3.4420579621E-01
    3.3969529979E-01    3.3523495367E-01    3.3082448624E-01    3.2646361643E-01
    3.2215205424E-01    3.1788950122E-01    3.1367565099E-01    3.0951018967E-01
    3.0539279638E-01    3.0132314364E-01    2.9730089782E-01    2.9332571951E-01
    2.8939726395E-01    2.8551518138E-01    2.8167911743E-01    2.7788871343E-01
    2.7414360679E-01    2.7044343130E-01    2.6678781743E-01    2.6317639267E-01
    2.5960878179E-01    2.5608460712E-01    2.5260348881E-01    2.4916504511E-01
    2.4576889260E-01    2.4241464644E-01    2.3910192056E-01    2.3583032792E-01
    2.3259948070E-01    2.2940899053E-01    2.2625846861E-01    2.2314752597E-01
    2.2007577361E-01    2.1704282268E-01    2.1404828463E-01    2.1109177137E-01
    2.0817289544E-01    2.0529127009E-01    2.0244650950E-01    1.9963822882E-01
    1.9686604437E-01    1.9412957371E-01    1.9142843574E-01    1.8876225087E-01
    1.8613064105E-01    1.8353322990E-01    1.8096964279E-01    1.7843950695E-01
    1.7594245151E-01    1.7347810760E-01    1.7104610843E-01    1.6864608934E-01
    1.6627768789E-01    1.6394054387E-01    1.6163429943E-01    1.5935859907E-01
    1.5711308973E-01    1.5489742079E-01    1.5271124418E-01    1.5055421437E-01
    1.4842598843E-01    1.4632622604E-01    1.4425458955E-01    1.4221074400E-01
    1.4019435715E-01    1.3820509950E-01    1.3624264429E-01    1.3430666757E-01
    1.3239684818E-01    1.3051286777E-01    1.2865441082E-01    1.2682116467E-01
    1.2501281950E-01    1.2322906833E-01    1.2146960709E-01    1.1973413453E-01
    1.1802235233E-01    1.1633396500E-01    1.1466867997E-01    1.1302620752E-01
    1.1140626081E-01    1.0980855589E-01    1.0823281166E-01    1.0667874990E-01
    1.0514609525E-01    1.0363457518E-01    1.0214392002E-01    1.0067386294E-01
    9.9224139911E-02    9.7794489745E-02    9.6384654038E-02    9.4994377181E-02
    9.3623406345E-02    9.2271491460E-02    9.0938385209E-02    8.9623843009E-02
    8.8327622998E-02    8.7049486015E-02    8.5789195592E-02    8.4546517928E-02
    8.3321221877E-02    8.2113078933E-02    8.0921863204E-02    7.9747351404E-02
    7.8589322824E-02    7.7447559324E-02    7.6321845304E-02    7.5211967691E-02
    7.4117715919E-02    7.3038881905E-02    7.1975260033E-02    7.0926647134E-02
    6.9892842463E-02    6.8873647679E-02    6.7868866828E-02    6.6878306319E-02
    6.5901774901E-02    6.4939083648E-02    6.3990045934E-02    6.3054477413E-02
    6.2132195998E-02    6.1223021841E-02    6.0326777308E-02    5.9443286962E-02
    5.8572377540E-02    5.7713877934E-02    5.6867619166E-02    5.6033434369E-02
    5.5211158766E-02    5.4400629651E-02    5.3601686361E-02    5.2814170265E-02
    5.2037924735E-02    5.1272795128E-02    5.0518628766E-02    4.9775274916E-02
    4.9042584764E-02    4.8320411402E-02    4.7608609804E-02    4.6907036802E-02
    4.6215551075E-02    4.5534013118E-02    4.4862285231E-02    4.4200231493E-02
    4.3547717746E-02    4.2904611574E-02    4.2270782282E-02    4.1646100878E-02
    4.1030440057E-02    4.0423674173E-02    3.9825679230E-02    3.9236332856E-02
    3.8655514288E-02    3.8083104351E-02    3.7518985443E-02    3.6963041511E-02
    3.6415158039E-02    3.5875222025E-02    3.5343121966E-02    3.4818747841E-02
    3.4301991089E-02    3.3792744597E-02    3.3290902677E-02    3.2796361056E-02
    3.2309016851E-02    3.1828768559E-02    3.1355516035E-02    3.0889160480E-02
    3.0429604420E-02    2.9976751695E-02    2.9530507438E-02    2.9090778063E-02
    2.8657471245E-02    2.8230495909E-02    2.7809762211E-02    2.7395181526E-02
    2.6986666428E-02    2.6584130680E-02    2.6187489217E-02    2.5796658130E-02
    2.5411554653E-02    2.5032097150E-02    2.4658205097E-02    2.4289799072E-02
    2.3926800737E-02    2.3569132829E-02    2.3216719141E-02    2.2869484512E-02
    2.2527354814E-02    2.2190256936E-02    2.1858118773E-02    2.1530869212E-02
    2.1208438122E-02    2.0890756336E-02    2.0577755645E-02    2.0269368779E-02
    1.9965529401E-02    1.9666172090E-02    1.9371232333E-02    1.9080646509E-02
    1.8794351881E-02    1.8512286583E-02    1.8234389610E-02    1.7960600802E-02
    1.7690860840E-02    1.7425111230E-02    1.7163294292E-02    1.6905353152E-02
    1.6651231731E-02    1.6400874732E-02    1.6154227632E-02    1.5911236671E-02
    1.5671848841E-02    1.5436011879E-02    1.5203674252E-02    1.4974785154E-02
    1.4749294488E-02    1.4527152866E-02    1.4308311590E-02    1.4092722652E-02
    1.3880338716E-02    1.3671113116E-02    1.3464999843E-02    1.3261953538E-02
    1.3061929482E-02    1.2864883589E-02    1.2670772395E-02    1.2479553052E-02
    1.2291183319E-02    1.2105621554E-02    1.1922826703E-02    1.1742758298E-02
    1.1565376443E-02    1.1390641810E-02    1.1218515630E-02    1.1048959684E-02
    1.0881936300E-02    1.0717408340E-02    1.0555339197E-02    1.0395692783E-02
    1.0238433530E-02    1.0083526373E-02    9.9309367499E-03    9.7806305938E-03
    9.6325743234E-03    9.4867348387E-03    9.3430795136E-03    9.2015761895E-03
    9.0621931689E-03    8.9248992090E-03    8.7896635155E-03    8.6564557364E-03
    8.5252459557E-03    8.3960046877E-03    8.2687028709E-03    8.1433118620E-03
    8.0198034305E-03    7.8981497525E-03    7.7783234053E-03    7.6602973619E-03
    7.5440449853E-03    7.4295400234E-03    7.3167566032E-03    7.2056692260E-03
    7.0962527617E-03    6.9884824442E-03    6.8823338657E-03    6.7777829723E-03
    6.6748060587E-03    6.5733797633E-03    6.4734810636E-03    6.3750872713E-03
    6.2781760278E-03    6.1827252992E-03    6.0887133721E-03    5.9961188491E-03
    5.9049206439E-03    5.8150979775E-03    5.7266303737E-03    5.6394976545E-03
    5.5536799363E-03    5.4691576257E-03    5.3859114152E-03    5.3039222791E-03
    5.2231714701E-03    5.1436405145E-03    5.0653112091E-03    4.9881656168E-03
    4.9121860632E-03    4.8373551327E-03    4.7636556649E-03    4.6910707508E-03
    4.6195837295E-03    4.5491781846E-03    4.4798379404E-03    4.4115470589E-03
    4.3442898363E-03    4.2780507994E-03    4.2128147026E-03    4.1485665246E-03
    4.0852914650E-03    4.0229749415E-03    3.9616025864E-03    3.9011602437E-03
    3.8416339662E-03    3.7830100122E-03    3.7252748428E-03    3.6684151188E-03
    3.6124176982E-03    3.5572696328E-03    3.5029581659E-03    3.4494707293E-03
    3.3967949407E-03    3.3449186008E-03    3.2938296912E-03    3.2435163709E-03
    3.1939669746E-03    3.1451700099E-03    3.0971141545E-03    3.0497882540E-03
    3.0031813195E-03    2.9572825251E-03    2.9120812056E-03    2.8675668542E-03
    2.8237291201E-03    2.7805578063E-03    2.7380428672E-03    2.6961744068E-03
    2.6549426763E-03    2.6143380716E-03    2.5743511320E-03    2.5349725373E-03
    2.4961931062E-03    2.4580037942E-03    2.4203956917E-03    2.3833600218E-03
    2.3468881384E-03    2.3109715245E-03    2.2756017902E-03    2.2407706707E-03
    2.2064700248E-03    2.1726918326E-03    2.1394281944E-03    2.1066713282E-03
    2.0744135685E-03    2.0426473644E-03    2.0113652780E-03    1.9805599825E-03
    1.9502242610E-03    1.9203510044E-03    1.8909332103E-03    1.8619639809E-03
    1.8334365219E-03    1.8053441410E-03    1.7776802459E-03    1.7504383433E-03
    1.7236120373E-03    1.6971950280E-03    1.6711811100E-03    1.6455641709E-03
    1.6203381903E-03    1.5954972381E-03    1.5710354732E-03    1.5469471425E-03
    1.5232265792E-03    1.4998682017E-03    1.4768665123E-03    1.4542160960E-03
    1.4319116194E-03    1.4099478291E-03    1.3883195510E-03    1.3670216888E-03
    1.3460492229E-03    1.3253972093E-03    1.3050607785E-03    1.2850351345E-03
    1.2653155533E-03    1.2458973823E-03    1.2267760390E-03    1.2079470101E-03
    1.1894058502E-03    1.1711481811E-03    1.1531696906E-03    1.1354661316E-03
    1.1180333212E-03    1.1008671393E-03    1.0839635286E-03    1.0673184926E-03
    1.0509280953E-03    1.0347884604E-03    1.0188957698E-03    1.0032462634E-03
    9.8783623792E-04    9.7266204593E-04    9.5772009528E-04    9.4300684811E-04
    9.2851882013E-04    9.1425257972E-04    9.0020474723E-04    8.8637199415E-04
    8.7275104239E-04    8.5933866346E-04    8.4613167778E-04    8.3312695394E-04
    8.2032140795E-04    8.0771200258E-04    7.9529574658E-04    7.8306969407E-04
    7.7103094382E-04    7.5917663859E-04    7.4750396445E-04    7.3601015016E-04
    7.2469246650E-04    7.1354822568E-04    7.0257478065E-04    6.9176952456E-04
    6.8112989012E-04    6.7065334898E-04    6.6033741121E-04    6.5017962465E-04
    6.4017757441E-04    6.3032888224E-04    6.2063120604E-04    6.1108223928E-04
    6.0167971047E-04    5.9242138263E-04    5.8330505278E-04    5.7432855143E-04
    5.6548974206E-04    5.5678652063E-04    5.4821681509E-04    5.3977858489E-04
    5.3146982053E-04    5.2328854306E-04    5.1523280363E-04    5.0730068305E-04
    4.9949029132E-04    4.9179976721E-04    4.8422727780E-04    4.7677101808E-04
    4.6942921050E-04    4.6220010458E-04    4.5508197649E-04    4.4807312865E-04
    4.4117188932E-04    4.3437661224E-04    4.2768567619E-04    4.2109748467E-04
    4.1461046551E-04    4.0822307046E-04    4.0193377489E-04    3.9574107740E-04
    3.8964349944E-04    3.8363958505E-04    3.7772790040E-04    3.7190703357E-04
    3.6617559414E-04    3.6053221289E-04    3.5497554148E-04    3.4950425214E-04
    3.4411703734E-04    3.3881260949E-04    3.3358970066E-04    3.2844706224E-04
    3.2338346468E-04    3.1839769719E-04    3.1348856745E-04    3.0865490133E-04
    3.0389554264E-04    2.9920935282E-04    2.9459521068E-04    2.9005201216E-04
    2.8557867005E-04    2.8117411375E-04    2.7683728898E-04    2.7256715758E-04
    2.6836269725E-04    2.6422290126E-04    2.6014677832E-04    2.5613335222E-04
    2.5218166170E-04    2.4829076017E-04    2.4445971550E-04    2.4068760982E-04
    2.3697353926E-04    2.3331661377E-04    2.2971595691E-04    2.2617070563E-04
    2.2268001007E-04    2.1924303335E-04    2.1585895140E-04    2.1252695273E-04
    2.0924623828E-04    2.0601602118E-04    2.0283552660E-04    1.9970399158E-04
    1.9662066479E-04    1.9358480642E-04    1.9059568795E-04    1.8765259203E-04
    1.8475481225E-04    1.8190165304E-04    1.7909242946E-04    1.7632646702E-04
    1.7360310159E-04    1.7092167918E-04    1.6828155580E-04    1.6568209735E-04
    1.6312267938E-04    1.6060268705E-04    1.5812151490E-04    1.5567856674E-04
    1.5327325551E-04    1.5090500313E-04    1.4857324039E-04    1.4627740677E-04
    1.4401695035E-04    1.4179132764E-04    1.3960000349E-04    1.3744245095E-04
    1.3531815111E-04    1.3322659304E-04    1.3116727362E-04    1.2913969743E-04
    1.2714337665E-04    1.2517783093E-04    1.2324258728E-04    1.2133717994E-04
    1.1946115031E-04    1.1761404680E-04    1.1579542475E-04    1.1400484631E-04
    1.1224188033E-04    1.1050610227E-04    1.0879709412E-04    1.0711444425E-04
    1.0545774734E-04    1.0382660429E-04    1.0222062213E-04    1.0063941389E-04
    9.9082598559E-05    9.7549800940E-05    9.6040651606E-05    9.4554786789E-05
    9.3091848301E-05    9.1651483444E-05    9.0233344932E-05    8.8837090802E-05
    8.7462384338E-05    8.6108893987E-05    8.4776293281E-05    8.3464260762E-05
    8.2172479902E-05    8.0900639028E-05    7.9648431249E-05    7.8415554384E-05
    7.7201710887E-05    7.6006607777E-05    7.4829956570E-05    7.3671473208E-05
    7.2530877993E-05    7.1407895520E-05    7.0302254610E-05    6.9213688245E-05
    6.8141933509E-05    6.7086731518E-05    6.6047827366E-05    6.5024970056E-05
    6.4017912448E-05    6.3026411195E-05    6.2050226687E-05    6.1089122991E-05
    6.0142867800E-05    5.9211232372E-05    5.8293991480E-05    5.7390923354E-05
    5.6501809631E-05    5.5626435302E-05    5.4764588660E-05    5.3916061252E-05
    5.3080647824E-05    5.2258146278E-05    5.1448357620E-05    5.0651085913E-05
    4.9866138231E-05    4.9093324611E-05    4.8332458012E-05    4.7583354265E-05
    4.6845832032E-05    4.6119712761E-05    4.5404820647E-05    4.4700982583E-05
    4.4008028126E-05    4.3325789453E-05    4.2654101319E-05    4.1992801021E-05
    4.1341728356E-05    4.0700725586E-05    4.0069637396E-05    3.9448310861E-05
    3.8836595408E-05    3.8234342776E-05    3.7641406989E-05    3.7057644312E-05
    3.6482913223E-05    3.5917074376E-05    3.5359990568E-05    3.4811526707E-05
    3.4271549780E-05    3.3739928818E-05    3.3216534870E-05    3.2701240965E-05
    3.2193922091E-05    3.1694455154E-05    3.1202718958E-05    3.0718594170E-05
    3.0241963295E-05    2.9772710645E-05    2.9310722314E-05    2.8855886147E-05
    2.8408091717E-05    2.7967230298E-05    2.7533194834E-05    2.7105879921E-05
    2.6685181776E-05    2.6270998213E-05    2.5863228621E-05    2.5461773938E-05
    2.5066536626E-05    2.4677420651E-05    2.4294331457E-05    2.3917175945E-05
    2.3545862447E-05    2.3180300711E-05    2.2820401872E-05    2.2466078436E-05
    2.2117244257E-05    2.1773814513E-05    2.1435705692E-05    2.1102835568E-05
    2.0775123181E-05    2.0452488820E-05    2.0134854000E-05    1.9822141448E-05
    1.9514275080E-05    1.9211179986E-05    1.8912782410E-05    1.8619009732E-05
    1.8329790452E-05    1.8045054173E-05    1.7764731581E-05    1.7488754434E-05
    1.7217055539E-05    1.6949568741E-05    1.6686228903E-05    1.6426971894E-05
    1.6171734572E-05    1.5920454767E-05    1.5673071270E-05    1.5429523814E-05
    1.5189753063E-05    1.4953700596E-05    1.4721308892E-05    1.4492521319E-05
    1.4267282117E-05    1.4045536387E-05    1.3827230077E-05    1.3612309969E-05
    1.3400723666E-05    1.3192419579E-05    1.2987346916E-05    1.2785455669E-05
    1.2586696599E-05    1.2391021231E-05    1.2198381836E-05    1.2008731421E-05
    1.1822023719E-05    1.1638213178E-05    1.1457254949E-05    1.1279104875E-05
    1.1103719479E-05    1.0931055959E-05    1.0761072171E-05    1.0593726622E-05
    1.0428978461E-05    1.0266787466E-05    1.0107114039E-05    9.9499191901E-06
    9.7951645339E-06    9.6428122773E-06    9.4928252107E-06    9.3451666994E-06
    9.1998006747E-06    9.0566916250E-06    8.9158045875E-06    8.7771051393E-06
    8.6405593894E-06    8.5061339707E-06    8.3737960314E-06    8.2435132275E-06
    8.1152537147E-06    7.9889861411E-06    7.8646796389E-06    7.7423038178E-06
    7.6218287570E-06    7.5032249983E-06    7.3864635387E-06    7.2715158236E-06
    7.1583537400E-06    7.0469496094E-06    6.9372761812E-06    6.8293066261E-06
    6.7230145297E-06    6.6183738861E-06    6.5153590915E-06    6.4139449380E-06
    6.3141066075E-06    6.2158196659E-06    6.1190600569E-06    6.0238040963E-06
    5.9300284662E-06    5.8377102094E-06    5.7468267240E-06    5.6573557575E-06
    5.5692754017E-06    5.4825640877E-06    5.3972005798E-06    5.3131639712E-06
    5.2304336786E-06    5.1489894371E-06    5.0688112954E-06    4.9898796111E-06
    4.9121750455E-06    4.8356785596E-06    4.7603714087E-06    4.6862351386E-06
    4.6132515804E-06    4.5414028467E-06    4.4706713270E-06    4.4010396833E-06
    4.3324908460E-06    4.2650080100E-06    4.1985746302E-06    4.1331744178E-06
    4.0687913361E-06    4.0054095968E-06    3.9430136562E-06    3.8815882112E-06
    3.8211181957E-06    3.7615887770E-06    3.7029853522E-06    3.6452935443E-06
    3.5884991993E-06    3.5325883824E-06    3.4775473747E-06    3.4233626695E-06
    3.3700209699E-06    3.3175091846E-06    3.2658144253E-06    3.2149240034E-06
    3.1648254267E-06    3.1155063970E-06    3.0669548064E-06    3.0191587345E-06
    2.9721064461E-06    2.9257863874E-06    2.8801871839E-06    2.8352976375E-06
    2.7911067234E-06    2.7476035880E-06    2.7047775458E-06    2.6626180769E-06
    2.6211148245E-06    2.5802575925E-06    2.5400363428E-06    2.5004411930E-06
    2.4614624137E-06    2.4230904268E-06    2.3853158022E-06    2.3481292565E-06
    2.3115216501E-06    2.2754839849E-06    2.2400074028E-06    2.2050831828E-06
    2.1707027392E-06    2.1368576196E-06    2.1035395025E-06    2.0707401957E-06
    2.0384516340E-06    2.0066658772E-06    1.9753751085E-06    1.9445716323E-06
    1.9142478723E-06    1.8843963700E-06    1.8550097823E-06    1.8260808803E-06
    1.7976025471E-06    1.7695677765E-06    1.7419696707E-06    1.7148014392E-06
    1.6880563969E-06    1.6617279622E-06    1.6358096558E-06    1.6102950992E-06
    1.5851780126E-06    1.5604522137E-06    1.5361116164E-06    1.5121502290E-06
    1.4885621525E-06    1.4653415800E-06    1.4424827944E-06    1.4199801675E-06
    1.3978281585E-06    1.3760213126E-06    1.3545542597E-06    1.3334217130E-06
    1.3126184681E-06    1.2921394011E-06    1.2719794679E-06    1.2521337025E-06
    1.2325972163E-06    1.2133651964E-06    1.1944329049E-06    1.1757956773E-06
    1.1574489216E-06    1.1393881173E-06    1.1216088137E-06    1.1041066298E-06
    1.0868772523E-06    1.0699164349E-06    1.0532199975E-06    1.0367838248E-06
    1.0206038655E-06    1.0046761312E-06    9.8899669555E-07    9.7356169310E-07
    9.5836731857E-07    9.4340982580E-07    9.2868552684E-07    9.1419079103E-07
    8.9992204420E-07    8.8587576768E-07    8.7204849754E-07    8.5843682364E-07
    8.4503738890E-07    8.3184688839E-07    8.1886206856E-07    8.0607972647E-07
    7.9349670895E-07    7.8110991186E-07    7.6891627931E-07    7.5691280295E-07
    7.4509652117E-07    7.3346451844E-07    7.2201392456E-07    7.1074191395E-07
    6.9964570499E-07    6.8872255929E-07    6.7796978107E-07    6.6738471645E-07
    6.5696475286E-07    6.4670731834E-07    6.3660988093E-07    6.2666994807E-07
    6.1688506596E-07    6.0725281895E-07    5.9777082901E-07    5.8843675506E-07
    5.7924829247E-07    5.7020317245E-07    5.6129916150E-07    5.5253406088E-07
    5.4390570604E-07    5.3541196614E-07    5.2705074346E-07    5.1881997295E-07
    5.1071762168E-07    5.0274168833E-07    4.9489020276E-07    4.8716122547E-07
    4.7955284715E-07    4.7206318819E-07    4.6469039825E-07    4.5743265578E-07
    4.5028816756E-07    4.4325516832E-07    4.3633192023E-07    4.2951671253E-07
    4.2280786109E-07    4.1620370798E-07    4.0970262109E-07    4.0330299370E-07
    3.9700324413E-07    3.9080181530E-07    3.8469717439E-07    3.7868781243E-07
    3.7277224394E-07    3.6694900658E-07    3.6121666077E-07    3.5557378935E-07
    3.5001899722E-07    3.4455091101E-07    3.3916817873E-07    3.3386946945E-07
    3.2865347296E-07    3.2351889945E-07    3.1846447921E-07    3.1348896229E-07
    3.0859111821E-07    3.0376973567E-07    2.9902362221E-07    2.9435160395E-07
    2.8975252531E-07    2.8522524869E-07    2.8076865422E-07    2.7638163948E-07
    2.7206311921E-07    2.6781202505E-07    2.6362730531E-07    2.5950792466E-07
    2.5545286390E-07    2.5146111972E-07    2.4753170444E-07    2.4366364575E-07
    2.3985598652E-07    2.3610778451E-07    2.3241811215E-07    2.2878605636E-07
    2.2521071826E-07    2.2169121299E-07    2.1822666946E-07    2.1481623017E-07
    2.1145905097E-07    2.0815430089E-07    2.0490116189E-07    2.0169882868E-07
    1.9854650852E-07    1.9544342103E-07    1.9238879799E-07    1.8938188315E-07
    1.8642193206E-07    1.8350821186E-07    1.8064000111E-07    1.7781658963E-07
    1.7503727831E-07    1.7230137892E-07    1.6960821396E-07    1.6695711652E-07
    1.6434743006E-07    1.6177850828E-07    1.5924971496E-07    1.5676042380E-07
    1.5431001825E-07    1.5189789138E-07    1.4952344574E-07    1.4718609318E-07
    1.4488525472E-07    1.4262036040E-07    1.4039084917E-07    1.3819616871E-07
    1.3603577530E-07    1.3390913374E-07    1.3181571714E-07    1.2975500684E-07
    1.2772649226E-07    1.2572967080E-07    1.2376404768E-07    1.2182913584E-07
    1.1992445582E-07    1.1804953564E-07    1.1620391067E-07    1.1438712355E-07
    1.1259872402E-07    1.1083826887E-07    1.0910532180E-07    1.0739945329E-07
    1.0572024056E-07    1.0406726739E-07    1.0244012408E-07    1.0083840730E-07
    9.9261720009E-08    9.7709671384E-08    9.6181876678E-08    9.4677957156E-08
    9.3197539988E-08    9.1740258162E-08    9.0305750390E-08    8.8893661023E-08
    8.7503639958E-08    8.6135342555E-08    8.4788429553E-08    8.3462566986E-08
    8.2157426094E-08    8.0872683251E-08    7.9608019879E-08    7.8363122371E-08
    7.7137682012E-08    7.5931394906E-08    7.4743961901E-08    7.3575088512E-08
    7.2424484849E-08    7.1291865546E-08    7.0176949690E-08    6.9079460753E-08
    6.7999126520E-08    6.6935679029E-08    6.5888854498E-08    6.4858393261E-08
    6.3844039705E-08    6.2845542207E-08    6.1862653072E-08    6.0895128468E-08
    5.9942728373E-08    5.9005216510E-08    5.8082360290E-08    5.7173930754E-08
    5.6279702518E-08    5.5399453716E-08    5.4532965943E-08    5.3680024206E-08
    5.2840416869E-08    5.2013935599E-08    5.1200375313E-08    5.0399534134E-08
    4.9611213332E-08    4.8835217282E-08    4.8071353413E-08    4.7319432160E-08
    4.6579266920E-08    4.5850674000E-08    4.5133472577E-08    4.4427484652E-08
    4.3732535003E-08    4.3048451143E-08    4.2375063283E-08    4.1712204281E-08
    4.1059709607E-08    4.0417417300E-08    3.9785167927E-08    3.9162804545E-08
    3.8550172662E-08    3.7947120198E-08    3.7353497447E-08    3.6769157045E-08
    3.6193953925E-08    3.5627745288E-08    3.5070390563E-08    3.4521751376E-08
    3.3981691513E-08    3.3450076888E-08    3.2926775509E-08    3.2411657446E-08
    3.1904594797E-08    3.1405461660E-08    3.0914134096E-08    3.0430490106E-08
    2.9954409591E-08    2.9485774333E-08    2.9024467960E-08    2.8570375914E-08
    2.8123385430E-08    2.7683385504E-08    2.7250266865E-08    2.6823921948E-08
    2.6404244869E-08    2.5991131399E-08    2.5584478938E-08    2.5184186486E-08
    2.4790154624E-08    2.4402285482E-08    2.4020482724E-08    2.3644651514E-08
    2.3274698500E-08    2.2910531789E-08    2.2552060923E-08    2.2199196859E-08
    2.1851851941E-08    2.1509939886E-08    2.1173375758E-08    2.0842075948E-08
    2.0515958153E-08    2.0194941357E-08    1.9878945809E-08    1.9567893004E-08
    1.9261705665E-08    1.8960307721E-08    1.8663624290E-08    1.8371581659E-08
    1.8084107269E-08    1.7801129694E-08    1.7522578624E-08    1.7248384848E-08
    1.6978480235E-08    1.6712797721E-08    1.6451271288E-08    1.6193835950E-08
    1.5940427738E-08    1.5690983682E-08    1.5445441795E-08    1.5203741061E-08
    1.4965821414E-08    1.4731623731E-08    1.4501089810E-08    1.4274162358E-08
    1.4050784980E-08    1.3830902162E-08    1.3614459257E-08    1.3401402471E-08
    1.3191678852E-08    1.2985236276E-08    1.2782023433E-08    1.2581989814E-08
    1.2385085701E-08    1.2191262154E-08    1.2000470995E-08    1.1812664802E-08
    1.1627796891E-08    1.1445821312E-08    1.1266692830E-08    1.1090366917E-08
    1.0916799742E-08    1.0745948160E-08    1.0577769700E-08    1.0412222554E-08
    1.0249265568E-08    1.0088858232E-08    9.9309606679E-09    9.7755336215E-09
    9.6225384528E-09    9.4719371259E-09    9.3236921992E-09    9.1777668164E-09
    9.0341246973E-09    8.8927301292E-09    8.7535479574E-09    8.6165435766E-09
    8.4816829231E-09    8.3489324655E-09    8.2182591970E-09    8.0896306263E-09
    7.9630147703E-09    7.8383801461E-09    7.7156957627E-09    7.5949311137E-09
    7.4760561697E-09    7.3590413712E-09    7.2438576207E-09    7.1304762755E-09
    7.0188691408E-09    6.9090084628E-09    6.8008669214E-09    6.6944176237E-09
    6.5896340972E-09    6.4864902840E-09    6.3849605331E-09    6.2850195948E-09
    6.1866426142E-09    6.0898051250E-09    5.9944830434E-09    5.9006526624E-09
    5.8082906451E-09    5.7173740205E-09    5.6278801764E-09    5.5397868543E-09
    5.4530721435E-09    5.3677144762E-09    5.2836926217E-09    5.2009856815E-09
    5.1195730835E-09    5.0394345777E-09    4.9605502310E-09    4.8829004218E-09
    4.8064658352E-09    4.7312274585E-09    4.6571665765E-09    4.5842647664E-09
    4.5125038937E-09    4.4418661071E-09    4.3723338354E-09    4.3038897815E-09
    4.2365169191E-09    4.1701984882E-09    4.1049179907E-09    4.0406591868E-09
    3.9774060906E-09    3.9151429658E-09    3.8538543229E-09    3.7935249146E-09
    3.7341397318E-09    3.6756840003E-09    3.6181431770E-09    3.5615029462E-09
    3.5057492161E-09    3.4508681152E-09    3.3968459891E-09    3.3436693973E-09
    3.2913251092E-09    3.2398001012E-09    3.1890815535E-09    3.1391568467E-09
    3.0900135589E-09    3.0416394623E-09    2.9940225206E-09    2.9471508856E-09
    2.9010128949E-09    2.8555970680E-09    2.8108921044E-09    2.7668868800E-09
    2.7235704449E-09    2.6809320206E-09    2.6389609969E-09    2.5976469297E-09
    2.5569795386E-09    2.5169487037E-09    2.4775444636E-09    2.4387570126E-09
    2.4005766985E-09    2.3629940200E-09    2.3259996245E-09    2.2895843055E-09
    2.2537390008E-09    2.2184547901E-09    2.1837228924E-09    2.1495346642E-09
    2.1158815972E-09    2.0827553161E-09    2.0501475767E-09    2.0180502639E-09
    1.9864553892E-09    1.9553550896E-09    1.9247416248E-09    1.8946073758E-09
    1.8649448426E-09    1.8357466426E-09    1.8070055088E-09    1.7787142879E-09
    1.7508659382E-09    1.7234535285E-09    1.6964702361E-09    1.6699093449E-09
    1.6437642439E-09    1.6180284256E-09    1.5926954843E-09    1.5677591145E-09
    1.5432131092E-09    1.5190513589E-09    1.4952678492E-09    1.4718566603E-09
    1.4488119648E-09    1.4261280266E-09    1.4037991991E-09    1.3818199244E-09
    1.3601847312E-09    1.3388882341E-09    1.3179251317E-09    1.2972902058E-09
    1.2769783198E-09    1.2569844176E-09    1.2373035219E-09    1.2179307335E-09
    1.1988612298E-09    1.1800902638E-09    1.1616131626E-09    1.1434253264E-09
    1.1255222274E-09    1.1078994090E-09    1.0905524839E-09    1.0734771337E-09
    1.0566691075E-09    1.0401242210E-09    1.0238383551E-09    1.0078074556E-09
    9.9202753124E-10    9.7649465364E-10    9.6120495577E-10    9.4615463110E-10
    9.3133993267E-10    9.1675717216E-10    9.0240271897E-10    8.8827299930E-10
    8.7436449530E-10    8.6067374407E-10    8.4719733709E-10    8.3393191911E-10
    8.2087418738E-10    8.0802089084E-10    7.9536882932E-10    7.8291485271E-10
    7.7065586021E-10    7.5858879955E-10    7.4671066615E-10    7.3501850258E-10
    7.2350939769E-10    7.1218048585E-10    7.0102894628E-10    6.9005200236E-10
    6.7924692091E-10    6.6861101154E-10    6.5814162595E-10    6.4783615724E-10
    6.3769203940E-10    6.2770674659E-10    6.1787779247E-10    6.0820272962E-10
    5.9867914891E-10    5.8930467893E-10    5.8007698538E-10    5.7099377049E-10
    5.6205277242E-10    5.5325176477E-10    5.4458855605E-10    5.3606098899E-10
    5.2766694014E-10    5.1940431923E-10    5.1127106874E-10    5.0326516336E-10
    4.9538460945E-10    4.8762744457E-10    4.7999173699E-10    4.7247558531E-10
    4.6507711782E-10    4.5779449212E-10    4.5062589465E-10    4.4356954023E-10
    4.3662367162E-10    4.2978655910E-10    4.2305649999E-10    4.1643181825E-10
    4.0991086416E-10    4.0349201378E-10    3.9717366860E-10    3.9095425510E-10
    3.8483222443E-10    3.7880605196E-10    3.7287423692E-10    3.6703530203E-10
    3.6128779312E-10    3.5563027883E-10    3.5006135020E-10    3.4457962031E-10
    3.3918372396E-10    3.3387231731E-10    3.2864407755E-10    3.2349770259E-10
    3.1843191072E-10    3.1344544027E-10    3.0853704932E-10    3.0370551545E-10
    2.9894963534E-10    2.9426822451E-10    2.8966011702E-10    2.8512416518E-10
    2.8065923926E-10    2.7626422724E-10    2.7193803446E-10    2.6767958340E-10
    2.6348781348E-10    2.5936168066E-10    2.5530015728E-10    2.5130223175E-10
    2.4736690832E-10    2.4349320681E-10    2.3968016241E-10    2.3592682539E-10
    2.3223226089E-10    2.2859554868E-10    2.2501578299E-10    2.2149207218E-10
    2.1802353860E-10    2.1460931830E-10    2.1124856089E-10    2.0794042928E-10
    2.0468409947E-10    2.0147876038E-10    1.9832361360E-10    1.9521787324E-10
    1.9216076575E-10    1.8915152964E-10    1.8618941537E-10    1.8327368510E-10
    1.8040361259E-10    1.7757848293E-10    1.7479759241E-10    1.7206024833E-10
    1.6936576884E-10    1.6671348279E-10    1.6410272953E-10    1.6153285874E-10
    1.5900323027E-10    1.5651321403E-10    1.5406218976E-10    1.5164954692E-10
    1.4927468453E-10    1.4693701100E-10    1.4463594403E-10    1.4237091044E-10
    1.4014134602E-10    1.3794669537E-10    1.3578641183E-10    1.3365995725E-10
    1.3156680192E-10    1.2950642445E-10    1.2747831158E-10    1.2548195807E-10
    1.2351686665E-10    1.2158254780E-10    1.1967851967E-10    1.1780430797E-10
    1.1595944579E-10    1.1414347359E-10    1.1235593897E-10    1.1059639665E-10
    1.0886440830E-10    1.0715954245E-10    1.0548137441E-10    1.0382948613E-10
    1.0220346611E-10    1.0060290929E-10    9.9027416928E-11    9.7476596563E-11
    9.5950061854E-11    9.4447432516E-11    9.2968334211E-11    9.1512398458E-11
    9.0079262574E-11    8.8668569538E-11    8.7279967920E-11    8.5913111790E-11
    8.4567660636E-11    8.3243279278E-11    8.1939637781E-11    8.0656411378E-11
    7.9393280380E-11    7.8149930103E-11    7.6926050813E-11    7.5721337611E-11
    7.4535490373E-11    7.3368213672E-11    7.2219216709E-11    7.1088213236E-11
    6.9974921490E-11    6.8879064115E-11    6.7800368095E-11    6.6738564690E-11
    6.5693389383E-11    6.4664581791E-11    6.3651885605E-11    6.2655048530E-11
    6.1673822223E-11    6.0707962227E-11    5.9757227913E-11    5.8821382421E-11
   </PP_CHI.2>
   <PP_CHI.3
       type="real"
       size="1680"
       columns="4"
       index="3"
       occupation=" 2.000"
       pseudo_energy="   -0.2641452782E+01"
       label="4P"
       l="1" >
   -2.9191492973E-12    1.8742544012E-04    7.4958640505E-04    1.6861367039E-03
    2.9964989422E-03    4.6798639133E-03    6.7351897580E-03    9.1612009026E-03
    1.1956386790E-02    1.5119000419E-02    1.8647056715E-02    2.2538330753E-02
    2.6790355847E-02    3.1400421555E-02    3.6365571605E-02    4.1682601779E-02
    4.7348057798E-02    5.3358233220E-02    5.9709167397E-02    6.6396643529E-02
    7.3416186828E-02    8.0763062851E-02    8.8432276015E-02    9.6418568344E-02
    1.0471641846E-01    1.1332004087E-01    1.2222338556E-01    1.3142013796E-01
    1.4090371922E-01    1.5066728695E-01    1.6070373636E-01    1.7100570179E-01
    1.8156555880E-01    1.9237542660E-01    2.0342717115E-01    2.1471240858E-01
    2.2622250925E-01    2.3794860231E-01    2.4988158073E-01    2.6201210698E-01
    2.7433061911E-01    2.8682733748E-01    2.9949227197E-01    3.1231522978E-01
    3.2528582363E-01    3.3839348068E-01    3.5162745175E-01    3.6497682126E-01
    3.7843051745E-01    3.9197732329E-01    4.0560588768E-01    4.1930473725E-01
    4.3306228849E-01    4.4686686039E-01    4.6070668744E-01    4.7456993300E-01
    4.8844470311E-01    5.0231906058E-01    5.1618103944E-01    5.3001865968E-01
    5.4381994228E-01    5.5757292448E-01    5.7126567529E-01    5.8488631121E-01
    5.9842301210E-01    6.1186403716E-01    6.2519774114E-01    6.3841259044E-01
    6.5149717944E-01    6.6444024670E-01    6.7723069120E-01    6.8985758844E-01
    7.0231020653E-01    7.1457802205E-01    7.2665073570E-01    7.3851828779E-01
    7.5017087340E-01    7.6159895719E-01    7.7279328789E-01    7.8374491233E-01
    7.9444518904E-01    8.0488580128E-01    8.1505876962E-01    8.2495646381E-01
    8.3457161405E-01    8.4389732162E-01    8.5292706871E-01    8.6165472753E-01
    8.7007456860E-01    8.7818126825E-01    8.8596991517E-01    8.9343601616E-01
    9.0057550089E-01    9.0738472578E-01    9.1386047687E-01    9.1999997175E-01
    9.2580086054E-01    9.3126122582E-01    9.3637958163E-01    9.4115487148E-01
    9.4558646539E-01    9.4967415597E-01    9.5341815356E-01    9.5681908046E-01
    9.5987796430E-01    9.6259623046E-01    9.6497569379E-01    9.6701854945E-01
    9.6872736303E-01    9.7010505999E-01    9.7115491441E-01    9.7188053717E-01
    9.7228586358E-01    9.7237514044E-01    9.7215291273E-01    9.7162400992E-01
    9.7079353182E-01    9.6966683431E-01    9.6824951475E-01    9.6654739719E-01
    9.6456651755E-01    9.6231310870E-01    9.5979358544E-01    9.5701452963E-01
    9.5398267532E-01    9.5070489401E-01    9.4718818005E-01    9.4343963629E-01
    9.3946645986E-01    9.3527592826E-01    9.3087538576E-01    9.2627223001E-01
    9.2147389905E-01    9.1648785867E-01    9.1132159001E-01    9.0598257768E-01
    9.0047829812E-01    8.9481620841E-01    8.8900373544E-01    8.8304826541E-01
    8.7695713382E-01    8.7073761570E-01    8.6439691629E-01    8.5794216205E-01
    8.5138039206E-01    8.4471854968E-01    8.3796347464E-01    8.3112189539E-01
    8.2420042182E-01    8.1720553820E-01    8.1014359656E-01    8.0302081021E-01
    7.9584324763E-01    7.8861682664E-01    7.8134730883E-01    7.7404029419E-01
    7.6670121612E-01    7.5933533659E-01    7.5194774162E-01    7.4454333696E-01
    7.3712684410E-01    7.2970279641E-01    7.2227553568E-01    7.1484920876E-01
    7.0742776456E-01    7.0001495126E-01    6.9261431365E-01    6.8522919053E-01
    6.7786271286E-01    6.7051780230E-01    6.6319716983E-01    6.5590331481E-01
    6.4863852400E-01    6.4140487103E-01    6.3420422647E-01    6.2703830460E-01
    6.1990873196E-01    6.1281704926E-01    6.0576471541E-01    5.9875311054E-01
    5.9178353852E-01    5.8485722953E-01    5.7797534258E-01    5.7113896795E-01
    5.6434912954E-01    5.5760678716E-01    5.5091283884E-01    5.4426812294E-01
    5.3767342034E-01    5.3112945648E-01    5.2463690334E-01    5.1819638146E-01
    5.1180846178E-01    5.0547366751E-01    4.9919247590E-01    4.9296532003E-01
    4.8679259041E-01    4.8067463671E-01    4.7461176928E-01    4.6860426072E-01
    4.6265234737E-01    4.5675623076E-01    4.5091607898E-01    4.4513202812E-01
    4.3940418348E-01    4.3373262094E-01    4.2811738815E-01    4.2255850571E-01
    4.1705596838E-01    4.1160974616E-01    4.0621978536E-01    4.0088600971E-01
    3.9560832131E-01    3.9038660165E-01    3.8522071254E-01    3.8011049702E-01
    3.7505578028E-01    3.7005637047E-01    3.6511205954E-01    3.6022262407E-01
    3.5538782598E-01    3.5060741335E-01    3.4588112105E-01    3.4120867151E-01
    3.3658977534E-01    3.3202413200E-01    3.2751143041E-01    3.2305134954E-01
    3.1864355901E-01    3.1428771964E-01    3.0998348397E-01    3.0573049681E-01
    3.0152839569E-01    2.9737681140E-01    2.9327536839E-01    2.8922368527E-01
    2.8522137519E-01    2.8126804630E-01    2.7736330209E-01    2.7350674183E-01
    2.6969796090E-01    2.6593655113E-01    2.6222210118E-01    2.5855419685E-01
    2.5493242136E-01    2.5135635570E-01    2.4782557888E-01    2.4433966822E-01
    2.4089819963E-01    2.3750074782E-01    2.3414688660E-01    2.3083618907E-01
    2.2756822786E-01    2.2434257536E-01    2.2115880387E-01    2.1801648587E-01
    2.1491519416E-01    2.1185450202E-01    2.0883398346E-01    2.0585321330E-01
    2.0291176736E-01    2.0000922260E-01    1.9714515730E-01    1.9431915112E-01
    1.9153078530E-01    1.8877964273E-01    1.8606530810E-01    1.8338736798E-01
    1.8074541097E-01    1.7813902773E-01    1.7556781113E-01    1.7303135631E-01
    1.7052926078E-01    1.6806112449E-01    1.6562654988E-01    1.6322514200E-01
    1.6085650852E-01    1.5852025984E-01    1.5621600911E-01    1.5394337229E-01
    1.5170196821E-01    1.4949141862E-01    1.4731134821E-01    1.4516138467E-01
    1.4304115871E-01    1.4095030410E-01    1.3888845771E-01    1.3685525950E-01
    1.3485035262E-01    1.3287338333E-01    1.3092400109E-01    1.2900185859E-01
    1.2710661168E-01    1.2523791947E-01    1.2339544431E-01    1.2157885178E-01
    1.1978781070E-01    1.1802199318E-01    1.1628107456E-01    1.1456473345E-01
    1.1287265173E-01    1.1120451451E-01    1.0956001019E-01    1.0793883040E-01
    1.0634067001E-01    1.0476522714E-01    1.0321220314E-01    1.0168130256E-01
    1.0017223317E-01    9.8684705945E-02    9.7218435036E-02    9.5773137766E-02
    9.4348534614E-02    9.2944349202E-02    9.1560308278E-02    9.0196141697E-02
    8.8851582407E-02    8.7526366430E-02    8.6220232842E-02    8.4932923758E-02
    8.3664184306E-02    8.2413762612E-02    8.1181409777E-02    7.9966879858E-02
    7.8769929843E-02    7.7590319634E-02    7.6427812020E-02    7.5282172656E-02
    7.4153170045E-02    7.3040575506E-02    7.1944163158E-02    7.0863709895E-02
    6.9798995359E-02    6.8749801920E-02    6.7715914649E-02    6.6697121296E-02
    6.5693212266E-02    6.4703980592E-02    6.3729221910E-02    6.2768734441E-02
    6.1822318957E-02    6.0889778764E-02    5.9970919672E-02    5.9065549974E-02
    5.8173480419E-02    5.7294524188E-02    5.6428496869E-02    5.5575216432E-02
    5.4734503206E-02    5.3906179852E-02    5.3090071340E-02    5.2286004924E-02
    5.1493810117E-02    5.0713318670E-02    4.9944364541E-02    4.9186783878E-02
    4.8440414990E-02    4.7705098325E-02    4.6980676447E-02    4.6266994011E-02
    4.5563897739E-02    4.4871236397E-02    4.4188860774E-02    4.3516623653E-02
    4.2854379795E-02    4.2201985911E-02    4.1559300642E-02    4.0926184534E-02
    4.0302500019E-02    3.9688111389E-02    3.9082884776E-02    3.8486688131E-02
    3.7899391198E-02    3.7320865497E-02    3.6750984302E-02    3.6189622617E-02
    3.5636657156E-02    3.5091966325E-02    3.4555430196E-02    3.4026930492E-02
    3.3506350562E-02    3.2993575363E-02    3.2488491442E-02    3.1990986911E-02
    3.1500951432E-02    3.1018276196E-02    3.0542853903E-02    3.0074578744E-02
    2.9613346383E-02    2.9159053935E-02    2.8711599949E-02    2.8270884394E-02
    2.7836808633E-02    2.7409275412E-02    2.6988188836E-02    2.6573454359E-02
    2.6164978760E-02    2.5762670127E-02    2.5366437844E-02    2.4976192569E-02
    2.4591846221E-02    2.4213311961E-02    2.3840504177E-02    2.3473338470E-02
    2.3111731632E-02    2.2755601636E-02    2.2404867619E-02    2.2059449865E-02
    2.1719269790E-02    2.1384249930E-02    2.1054313922E-02    2.0729386492E-02
    2.0409393438E-02    2.0094261618E-02    1.9783918936E-02    1.9478294326E-02
    1.9177317738E-02    1.8880920128E-02    1.8589033438E-02    1.8301590590E-02
    1.8018525467E-02    1.7739772903E-02    1.7465268667E-02    1.7194949457E-02
    1.6928752877E-02    1.6666617436E-02    1.6408482525E-02    1.6154288414E-02
    1.5903976234E-02    1.5657487968E-02    1.5414766436E-02    1.5175755290E-02
    1.4940398994E-02    1.4708642821E-02    1.4480432837E-02    1.4255715889E-02
    1.4034439599E-02    1.3816552349E-02    1.3602003273E-02    1.3390742246E-02
    1.3182719872E-02    1.2977887474E-02    1.2776197090E-02    1.2577601452E-02
    1.2382053988E-02    1.2189508802E-02    1.1999920674E-02    1.1813245041E-02
    1.1629437997E-02    1.1448456276E-02    1.1270257249E-02    1.1094798911E-02
    1.0922039874E-02    1.0751939358E-02    1.0584457183E-02    1.0419553759E-02
    1.0257190079E-02    1.0097327711E-02    9.9399287892E-03    9.7849560050E-03
    9.6323726011E-03    9.4821423624E-03    9.3342296089E-03    9.1885991875E-03
    9.0452164650E-03    8.9040473206E-03    8.7650581386E-03    8.6282158010E-03
    8.4934876806E-03    8.3608416340E-03    8.2302459945E-03    8.1016695657E-03
    7.9750816142E-03    7.8504518633E-03    7.7277504865E-03    7.6069481011E-03
    7.4880157612E-03    7.3709249525E-03    7.2556475850E-03    7.1421559878E-03
    7.0304229024E-03    6.9204214770E-03    6.8121252610E-03    6.7055081984E-03
    6.6005446229E-03    6.4972092519E-03    6.3954771809E-03    6.2953238782E-03
    6.1967251794E-03    6.0996572820E-03    6.0040967405E-03    5.9100204607E-03
    5.8174056951E-03    5.7262300374E-03    5.6364714180E-03    5.5481080989E-03
    5.4611186685E-03    5.3754820376E-03    5.2911774340E-03    5.2081843984E-03
    5.1264827795E-03    5.0460527294E-03    4.9668746997E-03    4.8889294366E-03
    4.8121979769E-03    4.7366616433E-03    4.6623020409E-03    4.5891010525E-03
    4.5170408347E-03    4.4461038140E-03    4.3762726826E-03    4.3075303947E-03
    4.2398601624E-03    4.1732454523E-03    4.1076699814E-03    4.0431177136E-03
    3.9795728557E-03    3.9170198545E-03    3.8554433926E-03    3.7948283853E-03
    3.7351599769E-03    3.6764235376E-03    3.6186046598E-03    3.5616891553E-03
    3.5056630514E-03    3.4505125884E-03    3.3962242159E-03    3.3427845899E-03
    3.2901805699E-03    3.2383992156E-03    3.1874277838E-03    3.1372537261E-03
    3.0878646854E-03    3.0392484933E-03    2.9913931670E-03    2.9442869071E-03
    2.8979180944E-03    2.8522752873E-03    2.8073472192E-03    2.7631227960E-03
    2.7195910931E-03    2.6767413534E-03    2.6345629845E-03    2.5930455564E-03
    2.5521787986E-03    2.5119525984E-03    2.4723569981E-03    2.4333821927E-03
    2.3950185277E-03    2.3572564967E-03    2.3200867396E-03    2.2835000398E-03
    2.2474873224E-03    2.2120396520E-03    2.1771482305E-03    2.1428043954E-03
    2.1089996172E-03    2.0757254978E-03    2.0429737683E-03    2.0107362872E-03
    1.9790050384E-03    1.9477721293E-03    1.9170297890E-03    1.8867703664E-03
    1.8569863284E-03    1.8276702580E-03    1.7988148529E-03    1.7704129231E-03
    1.7424573901E-03    1.7149412845E-03    1.6878577443E-03    1.6612000140E-03
    1.6349614423E-03    1.6091354806E-03    1.5837156819E-03    1.5586956985E-03
    1.5340692814E-03    1.5098302779E-03    1.4859726307E-03    1.4624903765E-03
    1.4393776439E-03    1.4166286530E-03    1.3942377130E-03    1.3721992216E-03
    1.3505076632E-03    1.3291576079E-03    1.3081437098E-03    1.2874607061E-03
    1.2671034157E-03    1.2470667377E-03    1.2273456506E-03    1.2079352108E-03
    1.1888305516E-03    1.1700268816E-03    1.1515194843E-03    1.1333037161E-03
    1.1153750057E-03    1.0977288531E-03    1.0803608280E-03    1.0632665692E-03
    1.0464417832E-03    1.0298822434E-03    1.0135837891E-03    9.9754232408E-04
    9.8175381621E-04    9.6621429599E-04    9.5091985579E-04    9.3586664885E-04
    9.2105088836E-04    9.0646884654E-04    8.9211685372E-04    8.7799129743E-04
    8.6408862156E-04    8.5040532544E-04    8.3693796302E-04    8.2368314203E-04
    8.1063752312E-04    7.9779781907E-04    7.8516079397E-04    7.7272326245E-04
    7.6048208886E-04    7.4843418654E-04    7.3657651705E-04    7.2490608940E-04
    7.1341995936E-04    7.0211522870E-04    6.9098904451E-04    6.8003859846E-04
    6.6926112614E-04    6.5865390637E-04    6.4821426054E-04    6.3793955193E-04
    6.2782718507E-04    6.1787460511E-04    6.0807929717E-04    5.9843878575E-04
    5.8895063410E-04    5.7961244361E-04    5.7042185322E-04    5.6137653887E-04
    5.5247421289E-04    5.4371262344E-04    5.3508955396E-04    5.2660282263E-04
    5.1825028181E-04    5.1002981753E-04    5.0193934894E-04    4.9397682784E-04
    4.8614023810E-04    4.7842759525E-04    4.7083694591E-04    4.6336636735E-04
    4.5601396699E-04    4.4877788195E-04    4.4165627858E-04    4.3464735199E-04
    4.2774932564E-04    4.2096045084E-04    4.1427900637E-04    4.0770329802E-04
    4.0123165820E-04    3.9486244548E-04    3.8859404421E-04    3.8242486413E-04
    3.7635333994E-04    3.7037793093E-04    3.6449712062E-04    3.5870941632E-04
    3.5301334881E-04    3.4740747198E-04    3.4189036240E-04    3.3646061905E-04
    3.3111686293E-04    3.2585773671E-04    3.2068190439E-04    3.1558805100E-04
    3.1057488224E-04    3.0564112414E-04    3.0078552281E-04    2.9600684404E-04
    2.9130387307E-04    2.8667541423E-04    2.8212029067E-04    2.7763734406E-04
    2.7322543428E-04    2.6888343917E-04    2.6461025422E-04    2.6040479232E-04
    2.5626598346E-04    2.5219277447E-04    2.4818412878E-04    2.4423902611E-04
    2.4035646229E-04    2.3653544891E-04    2.3277501317E-04    2.2907419757E-04
    2.2543205969E-04    2.2184767197E-04    2.1832012144E-04    2.1484850954E-04
    2.1143195184E-04    2.0806957787E-04    2.0476053086E-04    2.0150396754E-04
    1.9829905794E-04    1.9514498518E-04    1.9204094523E-04    1.8898614675E-04
    1.8597981088E-04    1.8302117102E-04    1.8010947267E-04    1.7724397323E-04
    1.7442394180E-04    1.7164865902E-04    1.6891741685E-04    1.6622951843E-04
    1.6358427790E-04    1.6098102022E-04    1.5841908097E-04    1.5589780624E-04
    1.5341655243E-04    1.5097468609E-04    1.4857158376E-04    1.4620663182E-04
    1.4387922635E-04    1.4158877295E-04    1.3933468657E-04    1.3711639146E-04
    1.3493332089E-04    1.3278491711E-04    1.3067063118E-04    1.2858992281E-04
    1.2654226025E-04    1.2452712013E-04    1.2254398737E-04    1.2059235499E-04
    1.1867172405E-04    1.1678160346E-04    1.1492150990E-04    1.1309096769E-04
    1.1128950866E-04    1.0951667201E-04    1.0777200425E-04    1.0605505904E-04
    1.0436539710E-04    1.0270258607E-04    1.0106620046E-04    9.9455821451E-05
    9.7871036884E-05    9.6311441094E-05    9.4776634832E-05    9.3266225155E-05
    9.1779825335E-05    9.0317054752E-05    8.8877538804E-05    8.7460908811E-05
    8.6066801921E-05    8.4694861017E-05    8.3344734628E-05    8.2016076840E-05
    8.0708547209E-05    7.9421810674E-05    7.8155537471E-05    7.6909403051E-05
    7.5683087999E-05    7.4476277949E-05    7.3288663509E-05    7.2119940180E-05
    7.0969808278E-05    6.9837972862E-05    6.8724143654E-05    6.7628034970E-05
    6.6549365644E-05    6.5487858960E-05    6.4443242580E-05    6.3415248473E-05
    6.2403612851E-05    6.1408076101E-05    6.0428382717E-05    5.9464281236E-05
    5.8515524177E-05    5.7581867973E-05    5.6663072915E-05    5.5758903086E-05
    5.4869126306E-05    5.3993514068E-05    5.3131841484E-05    5.2283887226E-05
    5.1449433469E-05    5.0628265839E-05    4.9820173355E-05    4.9024948377E-05
    4.8242386554E-05    4.7472286770E-05    4.6714451095E-05    4.5968684732E-05
    4.5234795972E-05    4.4512596141E-05    4.3801899554E-05    4.3102523466E-05
    4.2414288028E-05    4.1737016242E-05    4.1070533912E-05    4.0414669601E-05
    3.9769254592E-05    3.9134122837E-05    3.8509110922E-05    3.7894058023E-05
    3.7288805863E-05    3.6693198673E-05    3.6107083154E-05    3.5530308438E-05
    3.4962726045E-05    3.4404189852E-05    3.3854556049E-05    3.3313683109E-05
    3.2781431746E-05    3.2257664884E-05    3.1742247620E-05    3.1235047190E-05
    3.0735932934E-05    3.0244776266E-05    2.9761450637E-05    2.9285831505E-05
    2.8817796306E-05    2.8357224417E-05    2.7903997128E-05    2.7457997614E-05
    2.7019110902E-05    2.6587223843E-05    2.6162225082E-05    2.5744005032E-05
    2.5332455845E-05    2.4927471382E-05    2.4528947189E-05    2.4136780471E-05
    2.3750870062E-05    2.3371116402E-05    2.2997421512E-05    2.2629688968E-05
    2.2267823874E-05    2.1911732842E-05    2.1561323968E-05    2.1216506802E-05
    2.0877192336E-05    2.0543292969E-05    2.0214722496E-05    1.9891396076E-05
    1.9573230219E-05    1.9260142757E-05    1.8952052830E-05    1.8648880859E-05
    1.8350548533E-05    1.8056978779E-05    1.7768095753E-05    1.7483824812E-05
    1.7204092501E-05    1.6928826531E-05    1.6657955761E-05    1.6391410180E-05
    1.6129120890E-05    1.5871020086E-05    1.5617041042E-05    1.5367118091E-05
    1.5121186611E-05    1.4879183004E-05    1.4641044686E-05    1.4406710064E-05
    1.4176118527E-05    1.3949210425E-05    1.3725927058E-05    1.3506210656E-05
    1.3290004372E-05    1.3077252257E-05    1.2867899256E-05    1.2661891188E-05
    1.2459174731E-05    1.2259697413E-05    1.2063407596E-05    1.1870254464E-05
    1.1680188006E-05    1.1493159009E-05    1.1309119042E-05    1.1128020444E-05
    1.0949816312E-05    1.0774460488E-05    1.0601907550E-05    1.0432112797E-05
    1.0265032240E-05    1.0100622589E-05    9.9388412439E-06    9.7796462804E-06
    9.6229964426E-06    9.4688511307E-06    9.3171703909E-06    9.1679149051E-06
    9.0210459807E-06    8.8765255411E-06    8.7343161155E-06    8.5943808294E-06
    8.4566833953E-06    8.3211881032E-06    8.1878598115E-06    8.0566639380E-06
    7.9275664509E-06    7.8005338603E-06    7.6755332094E-06    7.5525320660E-06
    7.4314985144E-06    7.3124011470E-06    7.1952090563E-06    7.0798918269E-06
    6.9664195280E-06    6.8547627050E-06    6.7448923728E-06    6.6367800077E-06
    6.5303975403E-06    6.4257173485E-06    6.3227122500E-06    6.2213554954E-06
    6.1216207616E-06    6.0234821449E-06    5.9269141540E-06    5.8318917039E-06
    5.7383901094E-06    5.6463850784E-06    5.5558527060E-06    5.4667694682E-06
    5.3791122158E-06    5.2928581687E-06    5.2079849096E-06    5.1244703786E-06
    5.0422928676E-06    4.9614310141E-06    4.8818637964E-06    4.8035705279E-06
    4.7265308516E-06    4.6507247352E-06    4.5761324657E-06    4.5027346444E-06
    4.4305121818E-06    4.3594462929E-06    4.2895184922E-06    4.2207105890E-06
    4.1530046827E-06    4.0863831580E-06    4.0208286808E-06    3.9563241931E-06
    3.8928529094E-06    3.8303983116E-06    3.7689441453E-06    3.7084744151E-06
    3.6489733811E-06    3.5904255542E-06    3.5328156927E-06    3.4761287979E-06
    3.4203501103E-06    3.3654651061E-06    3.3114594931E-06    3.2583192074E-06
    3.2060304091E-06    3.1545794797E-06    3.1039530175E-06    3.0541378351E-06
    3.0051209554E-06    2.9568896084E-06    2.9094312279E-06    2.8627334486E-06
    2.8167841021E-06    2.7715712146E-06    2.7270830034E-06    2.6833078738E-06
    2.6402344163E-06    2.5978514035E-06    2.5561477874E-06    2.5151126963E-06
    2.4747354321E-06    2.4350054676E-06    2.3959124436E-06    2.3574461665E-06
    2.3195966054E-06    2.2823538896E-06    2.2457083060E-06    2.2096502969E-06
    2.1741704570E-06    2.1392595312E-06    2.1049084126E-06    2.0711081395E-06
    2.0378498933E-06    2.0051249966E-06    1.9729249103E-06    1.9412412321E-06
    1.9100656935E-06    1.8793901586E-06    1.8492066212E-06    1.8195072031E-06
    1.7902841520E-06    1.7615298397E-06    1.7332367595E-06    1.7053975250E-06
    1.6780048678E-06    1.6510516357E-06    1.6245307907E-06    1.5984354073E-06
    1.5727586709E-06    1.5474938757E-06    1.5226344231E-06    1.4981738201E-06
    1.4741056773E-06    1.4504237077E-06    1.4271217247E-06    1.4041936407E-06
    1.3816334653E-06    1.3594353040E-06    1.3375933565E-06    1.3161019154E-06
    1.2949553645E-06    1.2741481773E-06    1.2536749158E-06    1.2335302290E-06
    1.2137088515E-06    1.1942056021E-06    1.1750153823E-06    1.1561331756E-06
    1.1375540453E-06    1.1192731338E-06    1.1012856615E-06    1.0835869248E-06
    1.0661722958E-06    1.0490372203E-06    1.0321772171E-06    1.0155878769E-06
    9.9926486063E-07    9.8320389886E-07    9.6740079042E-07    9.5185140139E-07
    9.3655166400E-07    9.2149757559E-07    9.0668519757E-07    8.9211065438E-07
    8.7777013250E-07    8.6365987945E-07    8.4977620281E-07    8.3611546929E-07
    8.2267410374E-07    8.0944858827E-07    7.9643546129E-07    7.8363131663E-07
    7.7103280265E-07    7.5863662142E-07    7.4643952775E-07    7.3443832847E-07
    7.2262988150E-07    7.1101109510E-07    6.9957892702E-07    6.8833038375E-07
    6.7726251971E-07    6.6637243651E-07    6.5565728216E-07    6.4511425035E-07
    6.3474057974E-07    6.2453355319E-07    6.1449049710E-07    6.0460878071E-07
    5.9488581538E-07    5.8531905394E-07    5.7590599005E-07    5.6664415747E-07
    5.5753112954E-07    5.4856451843E-07    5.3974197460E-07    5.3106118612E-07
    5.2251987813E-07    5.1411581221E-07    5.0584678581E-07    4.9771063169E-07
    4.8970521731E-07    4.8182844434E-07    4.7407824805E-07    4.6645259681E-07
    4.5894949154E-07    4.5156696523E-07    4.4430308236E-07    4.3715593846E-07
    4.3012365957E-07    4.2320440178E-07    4.1639635073E-07    4.0969772114E-07
    4.0310675636E-07    3.9662172791E-07    3.9024093498E-07    3.8396270408E-07
    3.7778538851E-07    3.7170736798E-07    3.6572704819E-07    3.5984286041E-07
    3.5405326104E-07    3.4835673124E-07    3.4275177653E-07    3.3723692639E-07
    3.3181073388E-07    3.2647177528E-07    3.2121864967E-07    3.1604997864E-07
    3.1096440584E-07    3.0596059672E-07    3.0103723808E-07    2.9619303784E-07
    2.9142672461E-07    2.8673704741E-07    2.8212277530E-07    2.7758269712E-07
    2.7311562111E-07    2.6872037464E-07    2.6439580389E-07    2.6014077356E-07
    2.5595416656E-07    2.5183488370E-07    2.4778184345E-07    2.4379398163E-07
    2.3987025112E-07    2.3600962161E-07    2.3221107933E-07    2.2847362676E-07
    2.2479628240E-07    2.2117808050E-07    2.1761807079E-07    2.1411531828E-07
    2.1066890295E-07    2.0727791956E-07    2.0394147742E-07    2.0065870010E-07
    1.9742872524E-07    1.9425070435E-07    1.9112380254E-07    1.8804719831E-07
    1.8502008336E-07    1.8204166236E-07    1.7911115275E-07    1.7622778453E-07
    1.7339080005E-07    1.7059945385E-07    1.6785301241E-07    1.6515075399E-07
    1.6249196845E-07    1.5987595704E-07    1.5730203223E-07    1.5476951754E-07
    1.5227774732E-07    1.4982606666E-07    1.4741383110E-07    1.4504040659E-07
    1.4270516923E-07    1.4040750513E-07    1.3814681027E-07    1.3592249033E-07
    1.3373396055E-07    1.3158064552E-07    1.2946197911E-07    1.2737740427E-07
    1.2532637287E-07    1.2330834562E-07    1.2132279188E-07    1.1936918953E-07
    1.1744702483E-07    1.1555579229E-07    1.1369499456E-07    1.1186414226E-07
    1.1006275388E-07    1.0829035563E-07    1.0654648134E-07    1.0483067235E-07
    1.0314247733E-07    1.0148145222E-07    9.9847160097E-08    9.8239171046E-08
    9.6657062069E-08    9.5100416958E-08    9.3568826194E-08    9.2061886838E-08
    9.0579202422E-08    8.9120382849E-08    8.7685044292E-08    8.6272809092E-08
    8.4883305654E-08    8.3516168359E-08    8.2171037458E-08    8.0847558987E-08
    7.9545384665E-08    7.8264171814E-08    7.7003583258E-08    7.5763287243E-08
    7.4542957345E-08    7.3342272385E-08    7.2160916347E-08    7.0998578292E-08
    6.9854952280E-08    6.8729737289E-08    6.7622637134E-08    6.6533360390E-08
    6.5461620318E-08    6.4407134786E-08    6.3369626197E-08    6.2348821415E-08
    6.1344451698E-08    6.0356252622E-08    5.9383964013E-08    5.8427329881E-08
    5.7486098350E-08    5.6560021591E-08    5.5648855761E-08    5.4752360940E-08
    5.3870301061E-08    5.3002443854E-08    5.2148560783E-08    5.1308426986E-08
    5.0481821217E-08    4.9668525784E-08    4.8868326500E-08    4.8081012620E-08
    4.7306376787E-08    4.6544214978E-08    4.5794326450E-08    4.5056513691E-08
    4.4330582359E-08    4.3616341242E-08    4.2913602204E-08    4.2222180129E-08
    4.1541892883E-08    4.0872561259E-08    4.0214008929E-08    3.9566062405E-08
    3.8928550987E-08    3.8301306720E-08    3.7684164352E-08    3.7076961288E-08
    3.6479537547E-08    3.5891735721E-08    3.5313400935E-08    3.4744380802E-08
    3.4184525391E-08    3.3633687180E-08    3.3091721018E-08    3.2558484092E-08
    3.2033835884E-08    3.1517638138E-08    3.1009754818E-08    3.0510052081E-08
    3.0018398235E-08    2.9534663707E-08    2.9058721007E-08    2.8590444699E-08
    2.8129711361E-08    2.7676399558E-08    2.7230389810E-08    2.6791564557E-08
    2.6359808133E-08    2.5935006730E-08    2.5517048374E-08    2.5105822890E-08
    2.4701221876E-08    2.4303138674E-08    2.3911468344E-08    2.3526107632E-08
    2.3146954948E-08    2.2773910333E-08    2.2406875441E-08    2.2045753504E-08
    2.1690449314E-08    2.1340869192E-08    2.0996920970E-08    2.0658513961E-08
    2.0325558939E-08    1.9997968112E-08    1.9675655101E-08    1.9358534918E-08
    1.9046523942E-08    1.8739539896E-08    1.8437501832E-08    1.8140330100E-08
    1.7847946333E-08    1.7560273428E-08    1.7277235519E-08    1.6998757962E-08
    1.6724767316E-08    1.6455191319E-08    1.6189958877E-08    1.5929000036E-08
    1.5672245968E-08    1.5419628956E-08    1.5171082370E-08    1.4926540653E-08
    1.4685939303E-08    1.4449214858E-08    1.4216304877E-08    1.3987147921E-08
    1.3761683545E-08    1.3539852273E-08    1.3321595588E-08    1.3106855914E-08
    1.2895576604E-08    1.2687701920E-08    1.2483177023E-08    1.2281947958E-08
    1.2083961636E-08    1.1889165824E-08    1.1697509130E-08    1.1508940987E-08
    1.1323411647E-08    1.1140872157E-08    1.0961274358E-08    1.0784570863E-08
    1.0610715046E-08    1.0439661037E-08    1.0271363700E-08    1.0105778628E-08
    9.9428621270E-09    9.7825712089E-09    9.6248635765E-09    9.4696976137E-09
    9.3170323747E-09    9.1668275727E-09    9.0190435697E-09    8.8736413654E-09
    8.7305825885E-09    8.5898294852E-09    8.4513449095E-09    8.3150923137E-09
    8.1810357383E-09    8.0491398032E-09    7.9193696978E-09    7.7916911715E-09
    7.6660705263E-09    7.5424746067E-09    7.4208707908E-09    7.3012269820E-09
    7.1835116008E-09    7.0676935761E-09    6.9537423372E-09    6.8416278053E-09
    6.7313203869E-09    6.6227909646E-09    6.5160108901E-09    6.4109519765E-09
    6.3075864906E-09    6.2058871460E-09    6.1058270958E-09    6.0073799251E-09
    5.9105196450E-09    5.8152206852E-09    5.7214578869E-09    5.6292064967E-09
    5.5384421599E-09    5.4491409139E-09    5.3612791823E-09    5.2748337678E-09
    5.1897818476E-09    5.1061009662E-09    5.0237690299E-09    4.9427643008E-09
    4.8630653909E-09    4.7846512571E-09    4.7075011950E-09    4.6315948336E-09
    4.5569121302E-09    4.4834333654E-09    4.4111391368E-09    4.3400103550E-09
    4.2700282379E-09    4.2011743059E-09    4.1334303772E-09    4.0667785627E-09
    4.0012012615E-09    3.9366811568E-09    3.8732012103E-09    3.8107446583E-09
    3.7492950070E-09    3.6888360285E-09    3.6293517563E-09    3.5708264810E-09
    3.5132447463E-09    3.4565913451E-09    3.4008513153E-09    3.3460099357E-09
    3.2920527225E-09    3.2389654249E-09    3.1867340221E-09    3.1353447187E-09
    3.0847839418E-09    3.0350383374E-09    2.9860947665E-09    2.9379403019E-09
    2.8905622246E-09    2.8439480203E-09    2.7980853768E-09    2.7529621799E-09
    2.7085665105E-09    2.6648866419E-09    2.6219110363E-09    2.5796283419E-09
    2.5380273894E-09    2.4970971899E-09    2.4568269313E-09    2.4172059759E-09
    2.3782238571E-09    2.3398702772E-09    2.3021351046E-09    2.2650083707E-09
    2.2284802677E-09    2.1925411458E-09    2.1571815105E-09    2.1223920206E-09
    2.0881634852E-09    2.0544868615E-09    2.0213532526E-09    1.9887539049E-09
    1.9566802060E-09    1.9251236821E-09    1.8940759959E-09    1.8635289448E-09
    1.8334744579E-09    1.8039045947E-09    1.7748115425E-09    1.7461876148E-09
    1.7180252486E-09    1.6903170032E-09    1.6630555574E-09    1.6362337083E-09
    1.6098443689E-09    1.5838805664E-09    1.5583354403E-09    1.5332022411E-09
    1.5084743277E-09    1.4841451662E-09    1.4602083279E-09    1.4366574877E-09
    1.4134864227E-09    1.3906890098E-09    1.3682592251E-09    1.3461911414E-09
    1.3244789272E-09    1.3031168452E-09    1.2820992503E-09    1.2614205884E-09
    1.2410753951E-09    1.2210582938E-09    1.2013639948E-09    1.1819872935E-09
    1.1629230693E-09    1.1441662841E-09    1.1257119810E-09    1.1075552832E-09
    1.0896913921E-09    1.0721155867E-09    1.0548232222E-09    1.0378097284E-09
    1.0210706088E-09    1.0046014397E-09    9.8839786833E-10    9.7245561237E-10
    9.5677045838E-10    9.4133826087E-10    9.2615494115E-10    9.1121648630E-10
    8.9651894804E-10    8.8205844173E-10    8.6783114549E-10    8.5383329896E-10
    8.4006120241E-10    8.2651121574E-10    8.1317975752E-10    8.0006330407E-10
    7.8715838850E-10    7.7446159976E-10    7.6196958185E-10    7.4967903292E-10
    7.3758670430E-10    7.2568939969E-10    7.1398397433E-10    7.0246733413E-10
    6.9113643490E-10    6.7998828152E-10    6.6901992709E-10    6.5822847230E-10
    6.4761106462E-10    6.3716489746E-10    6.2688720946E-10    6.1677528381E-10
    6.0682644748E-10    5.9703807052E-10    5.8740756540E-10    5.7793238623E-10
    5.6861002829E-10    5.5943802722E-10    5.5041395835E-10    5.4153543612E-10
    5.3280011344E-10    5.2420568103E-10    5.1574986686E-10    5.0743043553E-10
    4.9924518761E-10    4.9119195926E-10    4.8326862148E-10    4.7547307959E-10
    4.6780327269E-10    4.6025717308E-10    4.5283278579E-10    4.4552814798E-10
    4.3834132848E-10    4.3127042719E-10    4.2431357475E-10    4.1746893191E-10
    4.1073468908E-10    4.0410906582E-10    3.9759031043E-10    3.9117669941E-10
    3.8486653709E-10    3.7865815511E-10    3.7254991198E-10    3.6654019277E-10
    3.6062740854E-10    3.5480999598E-10    3.4908641700E-10    3.4345515828E-10
    3.3791473091E-10    3.3246367000E-10    3.2710053427E-10    3.2182390563E-10
    3.1663238894E-10    3.1152461156E-10    3.0649922293E-10    3.0155489430E-10
    2.9669031833E-10    2.9190420877E-10    2.8719530010E-10    2.8256234722E-10
    2.7800412506E-10    2.7351942836E-10    2.6910707130E-10    2.6476588716E-10
    2.6049472805E-10    2.5629246457E-10    2.5215798554E-10    2.4809019771E-10
    2.4408802542E-10    2.4015041040E-10    2.3627631138E-10    2.3246470398E-10
    2.2871458030E-10    2.2502494867E-10    2.2139483343E-10    2.1782327465E-10
    2.1430932788E-10    2.1085206391E-10    2.0745056848E-10    2.0410394207E-10
    2.0081129973E-10    1.9757177076E-10    1.9438449848E-10    1.9124864003E-10
    1.8816336615E-10    1.8512786095E-10    1.8214132169E-10    1.7920295858E-10
    1.7631199455E-10    1.7346766509E-10    1.7066921802E-10    1.6791591328E-10
    1.6520702276E-10    1.6254183006E-10    1.5991963037E-10    1.5733973021E-10
    1.5480144732E-10    1.5230411039E-10    1.4984705898E-10    1.4742964330E-10
    1.4505122404E-10    1.4271117221E-10    1.4040886892E-10    1.3814370531E-10
    1.3591508230E-10    1.3372241051E-10    1.3156511002E-10    1.2944261028E-10
    1.2735434997E-10    1.2529977680E-10    1.2327834740E-10    1.2128952715E-10
    1.1933279005E-10    1.1740761860E-10    1.1551350363E-10    1.1364994420E-10
    1.1181644740E-10    1.1001252832E-10    1.0823770988E-10    1.0649152265E-10
    1.0477350482E-10    1.0308320199E-10    1.0142016710E-10    9.9783960309E-11
    9.8174148855E-11    9.6590306964E-11    9.5032015708E-11    9.3498862953E-11
    9.1990443202E-11    9.0506357490E-11    8.9046213292E-11    8.7609624409E-11
    8.6196210873E-11    8.4805598845E-11    8.3437420515E-11    8.2091313997E-11
    8.0766923241E-11    7.9463897965E-11    7.8181893522E-11    7.6920570824E-11
    7.5679596252E-11    7.4458641566E-11    7.3257383823E-11    7.2075505286E-11
    7.0912693345E-11    6.9768640418E-11    6.8643043902E-11    6.7535606079E-11
    6.6446034027E-11    6.5374039545E-11    6.4319339084E-11    6.3281653666E-11
    6.2260708813E-11    6.1256234476E-11    6.0267964959E-11    5.9295638838E-11
    5.8338998935E-11    5.7397792208E-11    5.6471769696E-11    5.5560686454E-11
    5.4664301486E-11    5.3782377684E-11    5.2914681765E-11    5.2060984209E-11
    5.1221059194E-11    5.0394684532E-11    4.9581641647E-11    4.8781715471E-11
    4.7994694410E-11    4.7220370279E-11    4.6458538253E-11    4.5708996811E-11
    4.4971547681E-11    4.4245995789E-11    4.3532149207E-11    4.2829819095E-11
    4.2138819681E-11    4.1458968179E-11    4.0790084748E-11    4.0131992451E-11
    3.9484517205E-11    3.8847487733E-11    3.8220735522E-11    3.7604094778E-11
    3.6997402374E-11    3.6400497819E-11    3.5813223220E-11    3.5235423225E-11
    3.4666944986E-11    3.4107638123E-11    3.3557354680E-11    3.3015949088E-11
    3.2483278125E-11    3.1959200881E-11    3.1443578714E-11    3.0936275220E-11
    3.0437156206E-11    2.9946089635E-11    2.9462945603E-11    2.8987596298E-11
    2.8519915972E-11    2.8059780906E-11    2.7607069374E-11    2.7161661615E-11
   </PP_CHI.3>
   <PP_CHI.4
       type="real"
       size="1680"
       columns="4"
       index="4"
       occupation=" 2.400"
       pseudo_energy="   -0.2190295119E+00"
       label="4D"
       l="2" >
    2.0121407795E-12    1.6369317196E-06    1.3090587672E-05    4.4153379793E-05
    1.0456918101E-04    2.0400926951E-04    3.5204852822E-04    5.5814198205E-04
    8.3160175362E-04    1.1815745157E-03    1.6170195152E-03    2.1466872416E-03
    2.7790988062E-03    3.5225260985E-03    4.3849727771E-03    5.3741561516E-03
    6.4974900051E-03    7.7620684019E-03    9.1746505203E-03    1.0741646545E-02
    1.2469104647E-02    1.4362699077E-02    1.6427719383E-02    1.8669060780E-02
    2.1091215659E-02    2.3698266254E-02    2.6493878457E-02    2.9481296780E-02
    3.2663340440E-02    3.6042400565E-02    3.9620438500E-02    4.3398985181E-02
    4.7379141559E-02    5.1561580048E-02    5.5946546954E-02    6.0533865873E-02
    6.5322941994E-02    7.0312767307E-02    7.5501926645E-02    8.0888604549E-02
    8.6470592904E-02    9.2245299310E-02    9.8209756162E-02    1.0436063038E-01
    1.1069423379E-01    1.1720653405E-01    1.2389316622E-01    1.3074944474E-01
    1.3777037601E-01    1.4495067137E-01    1.5228476055E-01    1.5976680546E-01
    1.6739071445E-01    1.7515015684E-01    1.8303857783E-01    1.9104921367E-01
    1.9917510713E-01    2.0740912323E-01    2.1574396517E-01    2.2417219047E-01
    2.3268622734E-01    2.4127839111E-01    2.4994090087E-01    2.5866589623E-01
    2.6744545401E-01    2.7627160520E-01    2.8513635172E-01    2.9403168331E-01
    3.0294959432E-01    3.1188210039E-01    3.2082125506E-01    3.2975916617E-01
    3.3868801208E-01    3.4760005767E-01    3.5648766998E-01    3.6534333359E-01
    3.7415966558E-01    3.8292943003E-01    3.9164555212E-01    4.0030113165E-01
    4.0888945595E-01    4.1740401226E-01    4.2583849933E-01    4.3418683840E-01
    4.4244318331E-01    4.5060192992E-01    4.5865772455E-01    4.6660547168E-01
    4.7444034057E-01    4.8215777107E-01    4.8975347839E-01    4.9722345685E-01
    5.0456398267E-01    5.1177161570E-01    5.1884320015E-01    5.2577586423E-01
    5.3256701889E-01    5.3921435540E-01    5.4571584205E-01    5.5206971988E-01
    5.5827449742E-01    5.6432894459E-01    5.7023208575E-01    5.7598319195E-01
    5.8158177240E-01    5.8702756536E-01    5.9232052827E-01    5.9746082751E-01
    6.0244882755E-01    6.0728507976E-01    6.1197031092E-01    6.1650541149E-01
    6.2089142371E-01    6.2512952963E-01    6.2922103921E-01    6.3316737842E-01
    6.3697007760E-01    6.4063076003E-01    6.4415113081E-01    6.4753296618E-01
    6.5077810322E-01    6.5388843014E-01    6.5686587710E-01    6.5971240764E-01
    6.6243001078E-01    6.6502069379E-01    6.6748647568E-01    6.6982938144E-01
    6.7205143694E-01    6.7415466467E-01    6.7614108012E-01    6.7801268894E-01
    6.7977148473E-01    6.8141944756E-01    6.8295854303E-01    6.8439072199E-01
    6.8571792072E-01    6.8694206161E-01    6.8806505426E-01    6.8908879689E-01
    6.9001517804E-01    6.9084607845E-01    6.9158337310E-01    6.9222893329E-01
    6.9278462863E-01    6.9325232902E-01    6.9363390640E-01    6.9393123626E-01
    6.9414619883E-01    6.9428068014E-01    6.9433657280E-01    6.9431577589E-01
    6.9422019375E-01    6.9405173454E-01    6.9381230814E-01    6.9350382369E-01
    6.9312818529E-01    6.9268727809E-01    6.9218295208E-01    6.9161702194E-01
    6.9099126292E-01    6.9030741243E-01    6.8956717029E-01    6.8877219926E-01
    6.8792412551E-01    6.8702453918E-01    6.8607499489E-01    6.8507701232E-01
    6.8403207673E-01    6.8294163952E-01    6.8180711877E-01    6.8062989982E-01
    6.7941133579E-01    6.7815274819E-01    6.7685542742E-01    6.7552063337E-01
    6.7414959596E-01    6.7274351567E-01    6.7130356413E-01    6.6983088463E-01
    6.6832659268E-01    6.6679177657E-01    6.6522749783E-01    6.6363479187E-01
    6.6201466841E-01    6.6036811203E-01    6.5869608270E-01    6.5699951629E-01
    6.5527932503E-01    6.5353639805E-01    6.5177160184E-01    6.4998578076E-01
    6.4817975750E-01    6.4635433353E-01    6.4451028961E-01    6.4264838620E-01
    6.4076936392E-01    6.3887394402E-01    6.3696282877E-01    6.3503670191E-01
    6.3309622907E-01    6.3114205817E-01    6.2917481985E-01    6.2719512783E-01
    6.2520357933E-01    6.2320075542E-01    6.2118722145E-01    6.1916352735E-01
    6.1713020804E-01    6.1508778378E-01    6.1303676048E-01    6.1097763008E-01
    6.0891087085E-01    6.0683694775E-01    6.0475631270E-01    6.0266940496E-01
    6.0057665136E-01    5.9847846665E-01    5.9637525377E-01    5.9426740415E-01
    5.9215529797E-01    5.9003930445E-01    5.8791978210E-01    5.8579707901E-01
    5.8367153307E-01    5.8154347224E-01    5.7941321479E-01    5.7728106954E-01
    5.7514733610E-01    5.7301230507E-01    5.7087625830E-01    5.6873946908E-01
    5.6660220236E-01    5.6446471497E-01    5.6232725580E-01    5.6019006604E-01
    5.5805337931E-01    5.5591742192E-01    5.5378241301E-01    5.5164856473E-01
    5.4951608247E-01    5.4738516495E-01    5.4525600448E-01    5.4312878705E-01
    5.4100369256E-01    5.3888089491E-01    5.3676056221E-01    5.3464285690E-01
    5.3252793595E-01    5.3041595091E-01    5.2830704815E-01    5.2620136896E-01
    5.2409904968E-01    5.2200022182E-01    5.1990501224E-01    5.1781354325E-01
    5.1572593271E-01    5.1364229419E-01    5.1156273709E-01    5.0948736672E-01
    5.0741628445E-01    5.0534958781E-01    5.0328737060E-01    5.0122972300E-01
    4.9917673166E-01    4.9712847981E-01    4.9508504739E-01    4.9304651109E-01
    4.9101294449E-01    4.8898441814E-01    4.8696099965E-01    4.8494275377E-01
    4.8292974249E-01    4.8092202513E-01    4.7891965839E-01    4.7692269646E-01
    4.7493119111E-01    4.7294519171E-01    4.7096474537E-01    4.6898989697E-01
    4.6702068925E-01    4.6505716287E-01    4.6309935647E-01    4.6114730675E-01
    4.5920104853E-01    4.5726061482E-01    4.5532603684E-01    4.5339734413E-01
    4.5147456457E-01    4.4955772447E-01    4.4764684856E-01    4.4574196013E-01
    4.4384308100E-01    4.4195023162E-01    4.4006343108E-01    4.3818269722E-01
    4.3630804657E-01    4.3443949449E-01    4.3257705518E-01    4.3072074169E-01
    4.2887056600E-01    4.2702653906E-01    4.2518867077E-01    4.2335697009E-01
    4.2153144503E-01    4.1971210269E-01    4.1789894931E-01    4.1609199026E-01
    4.1429123013E-01    4.1249667272E-01    4.1070832106E-01    4.0892617746E-01
    4.0715024356E-01    4.0538052027E-01    4.0361700791E-01    4.0185970614E-01
    4.0010861402E-01    3.9836373004E-01    3.9662505213E-01    3.9489257769E-01
    3.9316630359E-01    3.9144622622E-01    3.8973234148E-01    3.8802464480E-01
    3.8632313121E-01    3.8462779526E-01    3.8293863114E-01    3.8125563261E-01
    3.7957879309E-01    3.7790810560E-01    3.7624356284E-01    3.7458515716E-01
    3.7293288060E-01    3.7128672489E-01    3.6964668145E-01    3.6801274144E-01
    3.6638489573E-01    3.6476313494E-01    3.6314744943E-01    3.6153782932E-01
    3.5993426450E-01    3.5833674466E-01    3.5674525926E-01    3.5515979755E-01
    3.5358034861E-01    3.5200690131E-01    3.5043944436E-01    3.4887796630E-01
    3.4732245549E-01    3.4577290016E-01    3.4422928837E-01    3.4269160805E-01
    3.4115984700E-01    3.3963399287E-01    3.3811403321E-01    3.3659995544E-01
    3.3509174687E-01    3.3358939470E-01    3.3209288604E-01    3.3060220789E-01
    3.2911734716E-01    3.2763829067E-01    3.2616502517E-01    3.2469753731E-01
    3.2323581369E-01    3.2177984081E-01    3.2032960512E-01    3.1888509300E-01
    3.1744629077E-01    3.1601318468E-01    3.1458576095E-01    3.1316400572E-01
    3.1174790510E-01    3.1033744514E-01    3.0893261186E-01    3.0753339122E-01
    3.0613976915E-01    3.0475173155E-01    3.0336926426E-01    3.0199235312E-01
    3.0062098391E-01    2.9925514240E-01    2.9789481430E-01    2.9653998534E-01
    2.9519064120E-01    2.9384676752E-01    2.9250834994E-01    2.9117537408E-01
    2.8984782552E-01    2.8852568985E-01    2.8720895262E-01    2.8589759938E-01
    2.8459161563E-01    2.8329098690E-01    2.8199569867E-01    2.8070573644E-01
    2.7942108566E-01    2.7814173180E-01    2.7686766030E-01    2.7559885660E-01
    2.7433530611E-01    2.7307699425E-01    2.7182390644E-01    2.7057602805E-01
    2.6933334448E-01    2.6809584111E-01    2.6686350330E-01    2.6563631642E-01
    2.6441426582E-01    2.6319733685E-01    2.6198551485E-01    2.6077878514E-01
    2.5957713306E-01    2.5838054391E-01    2.5718900302E-01    2.5600249568E-01
    2.5482100719E-01    2.5364452285E-01    2.5247302792E-01    2.5130650769E-01
    2.5014494744E-01    2.4898833241E-01    2.4783664787E-01    2.4668987906E-01
    2.4554801123E-01    2.4441102961E-01    2.4327891943E-01    2.4215166591E-01
    2.4102925426E-01    2.3991166968E-01    2.3879889738E-01    2.3769092255E-01
    2.3658773036E-01    2.3548930601E-01    2.3439563464E-01    2.3330670144E-01
    2.3222249154E-01    2.3114299010E-01    2.3006818225E-01    2.2899805312E-01
    2.2793258784E-01    2.2687177152E-01    2.2581558927E-01    2.2476402618E-01
    2.2371706735E-01    2.2267469787E-01    2.2163690280E-01    2.2060366722E-01
    2.1957497619E-01    2.1855081475E-01    2.1753116797E-01    2.1651602087E-01
    2.1550535848E-01    2.1449916584E-01    2.1349742796E-01    2.1250012984E-01
    2.1150725650E-01    2.1051879292E-01    2.0953472411E-01    2.0855503504E-01
    2.0757971070E-01    2.0660873604E-01    2.0564209606E-01    2.0467977569E-01
    2.0372175991E-01    2.0276803366E-01    2.0181858189E-01    2.0087338954E-01
    1.9993244156E-01    1.9899572287E-01    1.9806321842E-01    1.9713491312E-01
    1.9621079190E-01    1.9529083969E-01    1.9437504142E-01    1.9346338199E-01
    1.9255584634E-01    1.9165241937E-01    1.9075308601E-01    1.8985783117E-01
    1.8896663977E-01    1.8807949674E-01    1.8719638699E-01    1.8631729544E-01
    1.8544220702E-01    1.8457110666E-01    1.8370397929E-01    1.8284080984E-01
    1.8198158324E-01    1.8112628445E-01    1.8027489841E-01    1.7942741007E-01
    1.7858380440E-01    1.7774406635E-01    1.7690818091E-01    1.7607613305E-01
    1.7524790777E-01    1.7442349006E-01    1.7360286494E-01    1.7278601741E-01
    1.7197293251E-01    1.7116359528E-01    1.7035799076E-01    1.6955610403E-01
    1.6875792015E-01    1.6796342422E-01    1.6717260134E-01    1.6638543662E-01
    1.6560191521E-01    1.6482202223E-01    1.6404574287E-01    1.6327306230E-01
    1.6250396572E-01    1.6173843834E-01    1.6097646540E-01    1.6021803216E-01
    1.5946312387E-01    1.5871172585E-01    1.5796382339E-01    1.5721940184E-01
    1.5647844654E-01    1.5574094289E-01    1.5500687628E-01    1.5427623213E-01
    1.5354899589E-01    1.5282515305E-01    1.5210468909E-01    1.5138758954E-01
    1.5067383995E-01    1.4996342589E-01    1.4925633298E-01    1.4855254684E-01
    1.4785205313E-01    1.4715483755E-01    1.4646088580E-01    1.4577018364E-01
    1.4508271684E-01    1.4439847122E-01    1.4371743261E-01    1.4303958689E-01
    1.4236491995E-01    1.4169341774E-01    1.4102506622E-01    1.4035985140E-01
    1.3969775931E-01    1.3903877603E-01    1.3838288766E-01    1.3773008035E-01
    1.3708034027E-01    1.3643365363E-01    1.3579000669E-01    1.3514938573E-01
    1.3451177707E-01    1.3387716709E-01    1.3324554218E-01    1.3261688878E-01
    1.3199119336E-01    1.3136844245E-01    1.3074862261E-01    1.3013172042E-01
    1.2951772253E-01    1.2890661561E-01    1.2829838639E-01    1.2769302162E-01
    1.2709050811E-01    1.2649083271E-01    1.2589398228E-01    1.2529994378E-01
    1.2470870416E-01    1.2412025044E-01    1.2353456969E-01    1.2295164899E-01
    1.2237147551E-01    1.2179403642E-01    1.2121931897E-01    1.2064731043E-01
    1.2007799813E-01    1.1951136943E-01    1.1894741174E-01    1.1838611254E-01
    1.1782745933E-01    1.1727143964E-01    1.1671804110E-01    1.1616725133E-01
    1.1561905803E-01    1.1507344893E-01    1.1453041182E-01    1.1398993454E-01
    1.1345200495E-01    1.1291661098E-01    1.1238374061E-01    1.1185338185E-01
    1.1132552278E-01    1.1080015151E-01    1.1027725620E-01    1.0975682506E-01
    1.0923884635E-01    1.0872330838E-01    1.0821019951E-01    1.0769950814E-01
    1.0719122271E-01    1.0668533174E-01    1.0618182377E-01    1.0568068740E-01
    1.0518191128E-01    1.0468548409E-01    1.0419139459E-01    1.0369963157E-01
    1.0321018386E-01    1.0272304036E-01    1.0223819001E-01    1.0175562179E-01
    1.0127532475E-01    1.0079728795E-01    1.0032150055E-01    9.9847951722E-02
    9.9376630695E-02    9.8907526753E-02    9.8440629224E-02    9.7975927486E-02
    9.7513410965E-02    9.7053069136E-02    9.6594891523E-02    9.6138867699E-02
    9.5684987283E-02    9.5233239945E-02    9.4783615403E-02    9.4336103422E-02
    9.3890693816E-02    9.3447376448E-02    9.3006141228E-02    9.2566978115E-02
    9.2129877114E-02    9.1694828280E-02    9.1261821715E-02    9.0830847569E-02
    9.0401896039E-02    8.9974957370E-02    8.9550021853E-02    8.9127079829E-02
    8.8706121683E-02    8.8287137850E-02    8.7870118809E-02    8.7455055088E-02
    8.7041937262E-02    8.6630755950E-02    8.6221501820E-02    8.5814165585E-02
    8.5408738004E-02    8.5005209883E-02    8.4603572074E-02    8.4203815474E-02
    8.3805931025E-02    8.3409909715E-02    8.3015742579E-02    8.2623420695E-02
    8.2232935187E-02    8.1844277222E-02    8.1457438016E-02    8.1072408825E-02
    8.0689180952E-02    8.0307745743E-02    7.9928094590E-02    7.9550218925E-02
    7.9174110228E-02    7.8799760020E-02    7.8427159866E-02    7.8056301374E-02
    7.7687176197E-02    7.7319776028E-02    7.6954092603E-02    7.6590117703E-02
    7.6227843149E-02    7.5867260805E-02    7.5508362577E-02    7.5151140413E-02
    7.4795586301E-02    7.4441692272E-02    7.4089450398E-02    7.3738852793E-02
    7.3389891609E-02    7.3042559041E-02    7.2696847325E-02    7.2352748735E-02
    7.2010255586E-02    7.1669360234E-02    7.1330055074E-02    7.0992332539E-02
    7.0656185105E-02    7.0321605282E-02    6.9988585624E-02    6.9657118721E-02
    6.9327197202E-02    6.8998813733E-02    6.8671961022E-02    6.8346631811E-02
    6.8022818881E-02    6.7700515052E-02    6.7379713179E-02    6.7060406156E-02
    6.6742586914E-02    6.6426248418E-02    6.6111383674E-02    6.5797985721E-02
    6.5486047636E-02    6.5175562530E-02    6.4866523552E-02    6.4558923885E-02
    6.4252756749E-02    6.3948015397E-02    6.3644693119E-02    6.3342783239E-02
    6.3042279115E-02    6.2743174141E-02    6.2445461744E-02    6.2149135385E-02
    6.1854188560E-02    6.1560614797E-02    6.1268407659E-02    6.0977560740E-02
    6.0688067670E-02    6.0399922111E-02    6.0113117756E-02    5.9827648331E-02
    5.9543507597E-02    5.9260689343E-02    5.8979187393E-02    5.8698995601E-02
    5.8420107854E-02    5.8142518070E-02    5.7866220197E-02    5.7591208214E-02
    5.7317476133E-02    5.7045017994E-02    5.6773827869E-02    5.6503899860E-02
    5.6235228099E-02    5.5967806748E-02    5.5701629997E-02    5.5436692069E-02
    5.5172987213E-02    5.4910509709E-02    5.4649253865E-02    5.4389214019E-02
    5.4130384537E-02    5.3872759813E-02    5.3616334269E-02    5.3361102357E-02
    5.3107058555E-02    5.2854197370E-02    5.2602513335E-02    5.2352001014E-02
    5.2102654993E-02    5.1854469889E-02    5.1607440345E-02    5.1361561031E-02
    5.1116826642E-02    5.0873231902E-02    5.0630771558E-02    5.0389440386E-02
    5.0149233188E-02    4.9910144789E-02    4.9672170041E-02    4.9435303824E-02
    4.9199541039E-02    4.8964876616E-02    4.8731305506E-02    4.8498822689E-02
    4.8267423167E-02    4.8037101968E-02    4.7807854143E-02    4.7579674768E-02
    4.7352558943E-02    4.7126501792E-02    4.6901498463E-02    4.6677544127E-02
    4.6454633979E-02    4.6232763238E-02    4.6011927145E-02    4.5792120964E-02
    4.5573339984E-02    4.5355579514E-02    4.5138834886E-02    4.4923101458E-02
    4.4708374606E-02    4.4494649730E-02    4.4281922253E-02    4.4070187619E-02
    4.3859441294E-02    4.3649678766E-02    4.3440895543E-02    4.3233087156E-02
    4.3026249158E-02    4.2820377121E-02    4.2615466641E-02    4.2411513331E-02
    4.2208512829E-02    4.2006460790E-02    4.1805352893E-02    4.1605184834E-02
    4.1405952332E-02    4.1207651124E-02    4.1010276970E-02    4.0813825648E-02
    4.0618292954E-02    4.0423674708E-02    4.0229966747E-02    4.0037164927E-02
    3.9845265125E-02    3.9654263236E-02    3.9464155175E-02    3.9274936876E-02
    3.9086604292E-02    3.8899153393E-02    3.8712580170E-02    3.8526880632E-02
    3.8342050806E-02    3.8158086737E-02    3.7974984491E-02    3.7792740148E-02
    3.7611349809E-02    3.7430809593E-02    3.7251115635E-02    3.7072264089E-02
    3.6894251127E-02    3.6717072937E-02    3.6540725727E-02    3.6365205720E-02
    3.6190509157E-02    3.6016632297E-02    3.5843571416E-02    3.5671322805E-02
    3.5499882774E-02    3.5329247650E-02    3.5159413775E-02    3.4990377508E-02
    3.4822135227E-02    3.4654683322E-02    3.4488018204E-02    3.4322136296E-02
    3.4157034041E-02    3.3992707896E-02    3.3829154334E-02    3.3666369844E-02
    3.3504350931E-02    3.3343094117E-02    3.3182595938E-02    3.3022852945E-02
    3.2863861707E-02    3.2705618807E-02    3.2548120842E-02    3.2391364427E-02
    3.2235346189E-02    3.2080062774E-02    3.1925510840E-02    3.1771687060E-02
    3.1618588123E-02    3.1466210733E-02    3.1314551608E-02    3.1163607481E-02
    3.1013375098E-02    3.0863851223E-02    3.0715032630E-02    3.0566916111E-02
    3.0419498471E-02    3.0272776528E-02    3.0126747116E-02    2.9981407082E-02
    2.9836753286E-02    2.9692782605E-02    2.9549491927E-02    2.9406878155E-02
    2.9264938205E-02    2.9123669007E-02    2.8983067505E-02    2.8843130656E-02
    2.8703855430E-02    2.8565238812E-02    2.8427277799E-02    2.8289969401E-02
    2.8153310642E-02    2.8017298558E-02    2.7881930200E-02    2.7747202630E-02
    2.7613112924E-02    2.7479658171E-02    2.7346835471E-02    2.7214641940E-02
    2.7083074704E-02    2.6952130903E-02    2.6821807687E-02    2.6692102223E-02
    2.6563011687E-02    2.6434533268E-02    2.6306664169E-02    2.6179401602E-02
    2.6052742794E-02    2.5926684984E-02    2.5801225422E-02    2.5676361371E-02
    2.5552090104E-02    2.5428408908E-02    2.5305315083E-02    2.5182805936E-02
    2.5060878792E-02    2.4939530983E-02    2.4818759854E-02    2.4698562762E-02
    2.4578937077E-02    2.4459880177E-02    2.4341389455E-02    2.4223462312E-02
    2.4106096164E-02    2.3989288435E-02    2.3873036563E-02    2.3757337996E-02
    2.3642190191E-02    2.3527590621E-02    2.3413536765E-02    2.3300026116E-02
    2.3187056178E-02    2.3074624464E-02    2.2962728500E-02    2.2851365821E-02
    2.2740533974E-02    2.2630230516E-02    2.2520453015E-02    2.2411199050E-02
    2.2302466209E-02    2.2194252093E-02    2.2086554312E-02    2.1979370486E-02
    2.1872698246E-02    2.1766535234E-02    2.1660879101E-02    2.1555727510E-02
    2.1451078132E-02    2.1346928650E-02    2.1243276756E-02    2.1140120153E-02
    2.1037456553E-02    2.0935283680E-02    2.0833599265E-02    2.0732401051E-02
    2.0631686790E-02    2.0531454246E-02    2.0431701189E-02    2.0332425401E-02
    2.0233624674E-02    2.0135296809E-02    2.0037439616E-02    1.9940050917E-02
    1.9843128541E-02    1.9746670326E-02    1.9650674123E-02    1.9555137790E-02
    1.9460059193E-02    1.9365436210E-02    1.9271266728E-02    1.9177548642E-02
    1.9084279857E-02    1.8991458286E-02    1.8899081853E-02    1.8807148491E-02
    1.8715656140E-02    1.8624602752E-02    1.8533986285E-02    1.8443804707E-02
    1.8354055997E-02    1.8264738140E-02    1.8175849132E-02    1.8087386976E-02
    1.7999349684E-02    1.7911735280E-02    1.7824541791E-02    1.7737767258E-02
    1.7651409727E-02    1.7565467255E-02    1.7479937907E-02    1.7394819754E-02
    1.7310110880E-02    1.7225809374E-02    1.7141913334E-02    1.7058420867E-02
    1.6975330090E-02    1.6892639125E-02    1.6810346103E-02    1.6728449166E-02
    1.6646946462E-02    1.6565836147E-02    1.6485116386E-02    1.6404785351E-02
    1.6324841224E-02    1.6245282193E-02    1.6166106455E-02    1.6087312216E-02
    1.6008897688E-02    1.5930861093E-02    1.5853200658E-02    1.5775914620E-02
    1.5699001224E-02    1.5622458722E-02    1.5546285375E-02    1.5470479448E-02
    1.5395039219E-02    1.5319962970E-02    1.5245248991E-02    1.5170895581E-02
    1.5096901047E-02    1.5023263700E-02    1.4949981863E-02    1.4877053863E-02
    1.4804478037E-02    1.4732252728E-02    1.4660376285E-02    1.4588847069E-02
    1.4517663442E-02    1.4446823780E-02    1.4376326460E-02    1.4306169871E-02
    1.4236352407E-02    1.4166872469E-02    1.4097728465E-02    1.4028918813E-02
    1.3960441934E-02    1.3892296259E-02    1.3824480225E-02    1.3756992275E-02
    1.3689830861E-02    1.3622994441E-02    1.3556481479E-02    1.3490290447E-02
    1.3424419824E-02    1.3358868094E-02    1.3293633752E-02    1.3228715294E-02
    1.3164111228E-02    1.3099820066E-02    1.3035840326E-02    1.2972170536E-02
    1.2908809226E-02    1.2845754937E-02    1.2783006213E-02    1.2720561608E-02
    1.2658419680E-02    1.2596578994E-02    1.2535038122E-02    1.2473795643E-02
    1.2412850141E-02    1.2352200206E-02    1.2291844437E-02    1.2231781437E-02
    1.2172009816E-02    1.2112528191E-02    1.2053335183E-02    1.1994429423E-02
    1.1935809545E-02    1.1877474191E-02    1.1819422007E-02    1.1761651647E-02
    1.1704161772E-02    1.1646951047E-02    1.1590018143E-02    1.1533361739E-02
    1.1476980518E-02    1.1420873171E-02    1.1365038392E-02    1.1309474885E-02
    1.1254181356E-02    1.1199156519E-02    1.1144399094E-02    1.1089907806E-02
    1.1035681386E-02    1.0981718570E-02    1.0928018102E-02    1.0874578730E-02
    1.0821399207E-02    1.0768478295E-02    1.0715814757E-02    1.0663407365E-02
    1.0611254897E-02    1.0559356134E-02    1.0507709864E-02    1.0456314880E-02
    1.0405169982E-02    1.0354273975E-02    1.0303625667E-02    1.0253223874E-02
    1.0203067418E-02    1.0153155125E-02    1.0103485826E-02    1.0054058358E-02
    1.0004871563E-02    9.9559242902E-03    9.9072153915E-03    9.8587437252E-03
    9.8105081551E-03    9.7625075498E-03    9.7147407833E-03    9.6672067348E-03
    9.6199042885E-03    9.5728323340E-03    9.5259897658E-03    9.4793754836E-03
    9.4329883922E-03    9.3868274014E-03    9.3408914260E-03    9.2951793860E-03
    9.2496902061E-03    9.2044228163E-03    9.1593761513E-03    9.1145491508E-03
    9.0699407594E-03    9.0255499267E-03    8.9813756071E-03    8.9374167597E-03
    8.8936723486E-03    8.8501413427E-03    8.8068227156E-03    8.7637154457E-03
    8.7208185161E-03    8.6781309146E-03    8.6356516340E-03    8.5933796713E-03
    8.5513140285E-03    8.5094537122E-03    8.4677977335E-03    8.4263451082E-03
    8.3850948567E-03    8.3440460038E-03    8.3031975789E-03    8.2625486162E-03
    8.2220981541E-03    8.1818452354E-03    8.1417889077E-03    8.1019282228E-03
    8.0622622371E-03    8.0227900112E-03    7.9835106101E-03    7.9444231035E-03
    7.9055265650E-03    7.8668200728E-03    7.8283027093E-03    7.7899735614E-03
    7.7518317199E-03    7.7138762802E-03    7.6761063418E-03    7.6385210083E-03
    7.6011193878E-03    7.5639005922E-03    7.5268637380E-03    7.4900079454E-03
    7.4533323390E-03    7.4168360475E-03    7.3805182036E-03    7.3443779441E-03
    7.3084144098E-03    7.2726267456E-03    7.2370141006E-03    7.2015756275E-03
    7.1663104833E-03    7.1312178288E-03    7.0962968289E-03    7.0615466522E-03
    7.0269664716E-03    6.9925554635E-03    6.9583128083E-03    6.9242376903E-03
    6.8903292978E-03    6.8565868226E-03    6.8230094606E-03    6.7895964112E-03
    6.7563468780E-03    6.7232600679E-03    6.6903351919E-03    6.6575714644E-03
    6.6249681040E-03    6.5925243324E-03    6.5602393754E-03    6.5281124623E-03
    6.4961428261E-03    6.4643297034E-03    6.4326723344E-03    6.4011699629E-03
    6.3698218363E-03    6.3386272056E-03    6.3075853252E-03    6.2766954533E-03
    6.2459568513E-03    6.2153687844E-03    6.1849305211E-03    6.1546413333E-03
    6.1245004966E-03    6.0945072899E-03    6.0646609955E-03    6.0349608991E-03
    6.0054062898E-03    5.9759964603E-03    5.9467307063E-03    5.9176083271E-03
    5.8886286252E-03    5.8597909065E-03    5.8310944802E-03    5.8025386587E-03
    5.7741227577E-03    5.7458460963E-03    5.7177079967E-03    5.6897077843E-03
    5.6618447878E-03    5.6341183391E-03    5.6065277733E-03    5.5790724285E-03
    5.5517516462E-03    5.5245647709E-03    5.4975111503E-03    5.4705901351E-03
    5.4438010791E-03    5.4171433394E-03    5.3906162760E-03    5.3642192519E-03
    5.3379516332E-03    5.3118127892E-03    5.2858020920E-03    5.2599189167E-03
    5.2341626416E-03    5.2085326477E-03    5.1830283191E-03    5.1576490430E-03
    5.1323942092E-03    5.1072632107E-03    5.0822554433E-03    5.0573703057E-03
    5.0326071994E-03    5.0079655289E-03    4.9834447015E-03    4.9590441274E-03
    4.9347632195E-03    4.9106013936E-03    4.8865580683E-03    4.8626326649E-03
    4.8388246077E-03    4.8151333236E-03    4.7915582422E-03    4.7680987959E-03
    4.7447544199E-03    4.7215245520E-03    4.6984086328E-03    4.6754061055E-03
    4.6525164161E-03    4.6297390131E-03    4.6070733477E-03    4.5845188738E-03
    4.5620750480E-03    4.5397413293E-03    4.5175171794E-03    4.4954020627E-03
    4.4733954461E-03    4.4514967989E-03    4.4297055933E-03    4.4080213037E-03
    4.3864434073E-03    4.3649713836E-03    4.3436047148E-03    4.3223428855E-03
    4.3011853828E-03    4.2801316962E-03    4.2591813178E-03    4.2383337420E-03
    4.2175884658E-03    4.1969449885E-03    4.1764028119E-03    4.1559614402E-03
    4.1356203799E-03    4.1153791399E-03    4.0952372317E-03    4.0751941688E-03
    4.0552494673E-03    4.0354026456E-03    4.0156532243E-03    3.9960007265E-03
    3.9764446775E-03    3.9569846050E-03    3.9376200387E-03    3.9183505110E-03
    3.8991755561E-03    3.8800947109E-03    3.8611075142E-03    3.8422135073E-03
    3.8234122334E-03    3.8047032383E-03    3.7860860696E-03    3.7675602775E-03
    3.7491254140E-03    3.7307810335E-03    3.7125266925E-03    3.6943619497E-03
    3.6762863658E-03    3.6582995037E-03    3.6404009285E-03    3.6225902074E-03
    3.6048669095E-03    3.5872306063E-03    3.5696808711E-03    3.5522172794E-03
    3.5348394088E-03    3.5175468388E-03    3.5003391511E-03    3.4832159294E-03
    3.4661767594E-03    3.4492212287E-03    3.4323489271E-03    3.4155594462E-03
    3.3988523798E-03    3.3822273235E-03    3.3656838749E-03    3.3492216336E-03
    3.3328402011E-03    3.3165391809E-03    3.3003181784E-03    3.2841768009E-03
    3.2681146575E-03    3.2521313596E-03    3.2362265199E-03    3.2203997535E-03
    3.2046506771E-03    3.1889789093E-03    3.1733840707E-03    3.1578657836E-03
    3.1424236721E-03    3.1270573622E-03    3.1117664819E-03    3.0965506606E-03
    3.0814095300E-03    3.0663427231E-03    3.0513498752E-03    3.0364306228E-03
    3.0215846047E-03    3.0068114612E-03    2.9921108344E-03    2.9774823680E-03
    2.9629257078E-03    2.9484405009E-03    2.9340263964E-03    2.9196830451E-03
    2.9054100993E-03    2.8912072133E-03    2.8770740428E-03    2.8630102453E-03
    2.8490154801E-03    2.8350894079E-03    2.8212316913E-03    2.8074419943E-03
    2.7937199828E-03    2.7800653242E-03    2.7664776875E-03    2.7529567434E-03
    2.7395021641E-03    2.7261136234E-03    2.7127907970E-03    2.6995333617E-03
    2.6863409963E-03    2.6732133808E-03    2.6601501971E-03    2.6471511285E-03
    2.6342158597E-03    2.6213440773E-03    2.6085354692E-03    2.5957897248E-03
    2.5831065351E-03    2.5704855925E-03    2.5579265911E-03    2.5454292264E-03
    2.5329931953E-03    2.5206181963E-03    2.5083039293E-03    2.4960500958E-03
    2.4838563986E-03    2.4717225420E-03    2.4596482318E-03    2.4476331753E-03
    2.4356770809E-03    2.4237796589E-03    2.4119406207E-03    2.4001596792E-03
    2.3884365488E-03    2.3767709450E-03    2.3651625851E-03    2.3536111874E-03
    2.3421164720E-03    2.3306781599E-03    2.3192959739E-03    2.3079696379E-03
    2.2966988771E-03    2.2854834183E-03    2.2743229894E-03    2.2632173198E-03
    2.2521661402E-03    2.2411691825E-03    2.2302261800E-03    2.2193368673E-03
    2.2085009804E-03    2.1977182564E-03    2.1869884339E-03    2.1763112525E-03
    2.1656864534E-03    2.1551137788E-03    2.1445929724E-03    2.1341237790E-03
    2.1237059446E-03    2.1133392167E-03    2.1030233437E-03    2.0927580756E-03
    2.0825431633E-03    2.0723783591E-03    2.0622634166E-03    2.0521980903E-03
    2.0421821361E-03    2.0322153112E-03    2.0222973739E-03    2.0124280836E-03
    2.0026072010E-03    1.9928344878E-03    1.9831097072E-03    1.9734326232E-03
    1.9638030012E-03    1.9542206076E-03    1.9446852101E-03    1.9351965774E-03
    1.9257544795E-03    1.9163586873E-03    1.9070089730E-03    1.8977051099E-03
    1.8884468724E-03    1.8792340359E-03    1.8700663771E-03    1.8609436736E-03
    1.8518657043E-03    1.8428322490E-03    1.8338430887E-03    1.8248980054E-03
    1.8159967822E-03    1.8071392033E-03    1.7983250540E-03    1.7895541205E-03
    1.7808261901E-03    1.7721410513E-03    1.7634984935E-03    1.7548983072E-03
    1.7463402837E-03    1.7378242158E-03    1.7293498968E-03    1.7209171214E-03
    1.7125256851E-03    1.7041753845E-03    1.6958660172E-03    1.6875973817E-03
    1.6793692776E-03    1.6711815055E-03    1.6630338668E-03    1.6549261641E-03
    1.6468582009E-03    1.6388297815E-03    1.6308407115E-03    1.6228907971E-03
    1.6149798457E-03    1.6071076656E-03    1.5992740659E-03    1.5914788568E-03
    1.5837218494E-03    1.5760028557E-03    1.5683216887E-03    1.5606781621E-03
    1.5530720908E-03    1.5455032905E-03    1.5379715778E-03    1.5304767701E-03
    1.5230186858E-03    1.5155971443E-03    1.5082119657E-03    1.5008629712E-03
    1.4935499825E-03    1.4862728226E-03    1.4790313152E-03    1.4718252848E-03
    1.4646545569E-03    1.4575189577E-03    1.4504183144E-03    1.4433524550E-03
    1.4363212083E-03    1.4293244041E-03    1.4223618728E-03    1.4154334458E-03
    1.4085389553E-03    1.4016782344E-03    1.3948511168E-03    1.3880574372E-03
    1.3812970312E-03    1.3745697349E-03    1.3678753855E-03    1.3612138209E-03
    1.3545848798E-03    1.3479884016E-03    1.3414242266E-03    1.3348921960E-03
    1.3283921515E-03    1.3219239358E-03    1.3154873924E-03    1.3090823652E-03
    1.3027086995E-03    1.2963662407E-03    1.2900548354E-03    1.2837743309E-03
    1.2775245751E-03    1.2713054167E-03    1.2651167053E-03    1.2589582909E-03
    1.2528300247E-03    1.2467317583E-03    1.2406633440E-03    1.2346246351E-03
    1.2286154854E-03    1.2226357496E-03    1.2166852829E-03    1.2107639414E-03
    1.2048715817E-03    1.1990080614E-03    1.1931732385E-03    1.1873669720E-03
    1.1815891214E-03    1.1758395468E-03    1.1701181093E-03    1.1644246703E-03
    1.1587590923E-03    1.1531212382E-03    1.1475109716E-03    1.1419281569E-03
    1.1363726589E-03    1.1308443435E-03    1.1253430769E-03    1.1198687260E-03
    1.1144211585E-03    1.1090002428E-03    1.1036058476E-03    1.0982378426E-03
    1.0928960981E-03    1.0875804848E-03    1.0822908744E-03    1.0770271388E-03
    1.0717891509E-03    1.0665767841E-03    1.0613899124E-03    1.0562284104E-03
    1.0510921534E-03    1.0459810172E-03    1.0408948784E-03    1.0358336140E-03
    1.0307971018E-03    1.0257852200E-03    1.0207978475E-03    1.0158348638E-03
    1.0108961491E-03    1.0059815840E-03    1.0010910498E-03    9.9622442834E-04
    9.9138160209E-04    9.8656245405E-04    9.8176686783E-04    9.7699472761E-04
    9.7224591813E-04    9.6752032471E-04    9.6281783322E-04    9.5813833012E-04
    9.5348170240E-04    9.4884783763E-04    9.4423662392E-04    9.3964794995E-04
    9.3508170492E-04    9.3053777860E-04    9.2601606130E-04    9.2151644387E-04
    9.1703881770E-04    9.1258307470E-04    9.0814910735E-04    9.0373680861E-04
    8.9934607202E-04    8.9497679160E-04    8.9062886192E-04    8.8630217808E-04
    8.8199663566E-04    8.7771213078E-04    8.7344856007E-04    8.6920582068E-04
    8.6498381024E-04    8.6078242691E-04    8.5660156934E-04    8.5244113669E-04
    8.4830102861E-04    8.4418114524E-04    8.4008138722E-04    8.3600165569E-04
    8.3194185226E-04    8.2790187903E-04    8.2388163858E-04    8.1988103399E-04
    8.1589996880E-04    8.1193834703E-04    8.0799607317E-04    8.0407305218E-04
    8.0016918951E-04    7.9628439105E-04    7.9241856317E-04    7.8857161269E-04
    7.8474344690E-04    7.8093397355E-04    7.7714310082E-04    7.7337073739E-04
    7.6961679233E-04    7.6588117522E-04    7.6216379604E-04    7.5846456524E-04
    7.5478339370E-04    7.5112019274E-04    7.4747487412E-04    7.4384735004E-04
    7.4023753313E-04    7.3664533644E-04    7.3307067347E-04    7.2951345812E-04
    7.2597360475E-04    7.2245102811E-04    7.1894564339E-04    7.1545736618E-04
    7.1198611251E-04    7.0853179880E-04    7.0509434191E-04    7.0167365908E-04
    6.9826966798E-04    6.9488228668E-04    6.9151143365E-04    6.8815702777E-04
    6.8481898830E-04    6.8149723493E-04    6.7819168773E-04    6.7490226715E-04
    6.7162889406E-04    6.6837148970E-04    6.6512997570E-04    6.6190427409E-04
    6.5869430728E-04    6.5549999805E-04    6.5232126957E-04    6.4915804540E-04
    6.4601024945E-04    6.4287780603E-04    6.3976063981E-04    6.3665867584E-04
    6.3357183953E-04    6.3050005667E-04    6.2744325340E-04    6.2440135624E-04
    6.2137429207E-04    6.1836198812E-04    6.1536437199E-04    6.1238137163E-04
    6.0941291534E-04    6.0645893180E-04    6.0351935000E-04    6.0059409932E-04
    5.9768310946E-04    5.9478631049E-04    5.9190363280E-04    5.8903500714E-04
    5.8618036460E-04    5.8333963661E-04    5.8051275494E-04    5.7769965167E-04
    5.7490025926E-04    5.7211451046E-04    5.6934233839E-04    5.6658367647E-04
   </PP_CHI.4>
   <PP_CHI.5
       type="real"
       size="1680"
       columns="4"
       index="5"
       occupation=" 1.600"
       pseudo_energy="   -0.2304051332E+00"
       label="4D"
       l="2" >
    2.1356508142E-12    1.6874156092E-06    1.3494253423E-05    4.5514597476E-05
    1.0779194554E-04    2.1029414098E-04    3.6288857315E-04    5.7531773328E-04
    8.5717521065E-04    1.2178822113E-03    1.6666646785E-03    2.2125310898E-03
    2.8642510035E-03    3.6303344207E-03    4.5190120254E-03    5.5382163615E-03
    6.6955639970E-03    7.9983387247E-03    9.4534758387E-03    1.1067547524E-02
    1.2846749386E-02    1.4796888151E-02    1.6923370548E-02    1.9231193386E-02
    2.1724934844E-02    2.4408746962E-02    2.7286349334E-02    3.0361024006E-02
    3.3635611549E-02    3.7112508304E-02    4.0793664766E-02    4.4680585100E-02
    4.8774327744E-02    5.3075507073E-02    5.7584296105E-02    6.2300430189E-02
    6.7223211664E-02    7.2351515432E-02    7.7683795416E-02    8.3218091865E-02
    8.8952039453E-02    9.4882876155E-02    1.0100745284E-01    1.0732224353E-01
    1.1382335636E-01    1.2050654511E-01    1.2736722129E-01    1.3440046682E-01
    1.4160104719E-01    1.4896342507E-01    1.5648177443E-01    1.6414999500E-01
    1.7196172714E-01    1.7991036712E-01    1.8798908265E-01    1.9619082876E-01
    2.0450836398E-01    2.1293426670E-01    2.2146095185E-01    2.3008068776E-01
    2.3878561311E-01    2.4756775422E-01    2.5641904226E-01    2.6533133073E-01
    2.7429641292E-01    2.8330603940E-01    2.9235193564E-01    3.0142581943E-01
    3.1051941839E-01    3.1962448730E-01    3.2873282536E-01    3.3783629317E-01
    3.4692682963E-01    3.5599646844E-01    3.6503735440E-01    3.7404175930E-01
    3.8300209737E-01    3.9191094035E-01    4.0076103202E-01    4.0954530210E-01
    4.1825687971E-01    4.2688910594E-01    4.3543554594E-01    4.4389000006E-01
    4.5224651432E-01    4.6049938994E-01    4.6864319200E-01    4.7667275721E-01
    4.8458320064E-01    4.9236992153E-01    5.0002860797E-01    5.0755524065E-01
    5.1494609546E-01    5.2219774504E-01    5.2930705930E-01    5.3627120476E-01
    5.4308764290E-01    5.4975412747E-01    5.5626870069E-01    5.6262968848E-01
    5.6883569480E-01    5.7488559488E-01    5.8077852778E-01    5.8651388794E-01
    5.9209131611E-01    5.9751068945E-01    6.0277211109E-01    6.0787589909E-01
    6.1282257490E-01    6.1761285148E-01    6.2224762103E-01    6.2672794256E-01
    6.3105502924E-01    6.3523023576E-01    6.3925504565E-01    6.4313105880E-01
    6.4685997909E-01    6.5044360234E-01    6.5388380458E-01    6.5718253082E-01
    6.6034178422E-01    6.6336361586E-01    6.6625011511E-01    6.6900340068E-01
    6.7162561230E-01    6.7411890324E-01    6.7648543349E-01    6.7872736375E-01
    6.8084685024E-01    6.8284604020E-01    6.8472706830E-01    6.8649205367E-01
    6.8814309773E-01    6.8968228279E-01    6.9111167113E-01    6.9243330489E-01
    6.9364920637E-01    6.9476137894E-01    6.9577180825E-01    6.9668246397E-01
    6.9749530167E-01    6.9821226498E-01    6.9883528790E-01    6.9936629711E-01
    6.9980721428E-01    7.0015995829E-01    7.0042644723E-01    7.0060860016E-01
    7.0070833853E-01    7.0072758743E-01    7.0066827657E-01    7.0053234032E-01
    7.0032171663E-01    7.0003834567E-01    6.9968416788E-01    6.9926112137E-01
    6.9877113879E-01    6.9821614010E-01    6.9759801052E-01    6.9691858474E-01
    6.9617966128E-01    6.9538299924E-01    6.9453031907E-01    6.9362330327E-01
    6.9266359689E-01    6.9165280810E-01    6.9059250872E-01    6.8948423483E-01
    6.8832948734E-01    6.8712973251E-01    6.8588640261E-01    6.8460089643E-01
    6.8327457989E-01    6.8190878662E-01    6.8050481855E-01    6.7906394646E-01
    6.7758741055E-01    6.7607642106E-01    6.7453215878E-01    6.7295577568E-01
    6.7134839540E-01    6.6971111385E-01    6.6804499977E-01    6.6635109524E-01
    6.6463041624E-01    6.6288395319E-01    6.6111267150E-01    6.5931751201E-01
    6.5749939163E-01    6.5565920372E-01    6.5379781870E-01    6.5191608449E-01
    6.5001482700E-01    6.4809485063E-01    6.4615693875E-01    6.4420185412E-01
    6.4223033941E-01    6.4024311762E-01    6.3824089252E-01    6.3622434910E-01
    6.3419415400E-01    6.3215095591E-01    6.3009538602E-01    6.2802805838E-01
    6.2594957034E-01    6.2386050294E-01    6.2176142124E-01    6.1965287476E-01
    6.1753539781E-01    6.1540950987E-01    6.1327571593E-01    6.1113450684E-01
    6.0898635966E-01    6.0683173798E-01    6.0467109222E-01    6.0250486002E-01
    6.0033346647E-01    5.9815732445E-01    5.9597683495E-01    5.9379238732E-01
    5.9160435957E-01    5.8941311865E-01    5.8721902072E-01    5.8502241143E-01
    5.8282362614E-01    5.8062299023E-01    5.7842081928E-01    5.7621741939E-01
    5.7401308735E-01    5.7180811089E-01    5.6960276895E-01    5.6739733185E-01
    5.6519206152E-01    5.6298721168E-01    5.6078302812E-01    5.5857974885E-01
    5.5637760429E-01    5.5417681752E-01    5.5197760439E-01    5.4978017376E-01
    5.4758472766E-01    5.4539146149E-01    5.4320056414E-01    5.4101221821E-01
    5.3882660015E-01    5.3664388044E-01    5.3446422371E-01    5.3228778893E-01
    5.3011472957E-01    5.2794519368E-01    5.2577932413E-01    5.2361725867E-01
    5.2145913011E-01    5.1930506645E-01    5.1715519101E-01    5.1500962254E-01
    5.1286847538E-01    5.1073185956E-01    5.0859988091E-01    5.0647264124E-01
    5.0435023836E-01    5.0223276628E-01    5.0012031526E-01    4.9801297196E-01
    4.9591081952E-01    4.9381393767E-01    4.9172240282E-01    4.8963628820E-01
    4.8755566390E-01    4.8548059698E-01    4.8341115160E-01    4.8134738905E-01
    4.7928936789E-01    4.7723714399E-01    4.7519077065E-01    4.7315029866E-01
    4.7111577638E-01    4.6908724982E-01    4.6706476272E-01    4.6504835661E-01
    4.6303807088E-01    4.6103394288E-01    4.5903600795E-01    4.5704429949E-01
    4.5505884906E-01    4.5307968637E-01    4.5110683944E-01    4.4914033456E-01
    4.4718019639E-01    4.4522644805E-01    4.4327911110E-01    4.4133820564E-01
    4.3940375036E-01    4.3747576256E-01    4.3555425825E-01    4.3363925212E-01
    4.3173075765E-01    4.2982878713E-01    4.2793335169E-01    4.2604446137E-01
    4.2416212513E-01    4.2228635089E-01    4.2041714560E-01    4.1855451523E-01
    4.1669846485E-01    4.1484899861E-01    4.1300611984E-01    4.1116983102E-01
    4.0934013383E-01    4.0751702920E-01    4.0570051732E-01    4.0389059766E-01
    4.0208726902E-01    4.0029052953E-01    3.9850037669E-01    3.9671680739E-01
    3.9493981795E-01    3.9316940410E-01    3.9140556105E-01    3.8964828347E-01
    3.8789756555E-01    3.8615340099E-01    3.8441578301E-01    3.8268470442E-01
    3.8096015757E-01    3.7924213443E-01    3.7753062655E-01    3.7582562511E-01
    3.7412712094E-01    3.7243510451E-01    3.7074956597E-01    3.6907049512E-01
    3.6739788150E-01    3.6573171431E-01    3.6407198249E-01    3.6241867472E-01
    3.6077177940E-01    3.5913128470E-01    3.5749717854E-01    3.5586944863E-01
    3.5424808245E-01    3.5263306727E-01    3.5102439018E-01    3.4942203806E-01
    3.4782599762E-01    3.4623625541E-01    3.4465279780E-01    3.4307561099E-01
    3.4150468107E-01    3.3993999395E-01    3.3838153542E-01    3.3682929115E-01
    3.3528324667E-01    3.3374338740E-01    3.3220969865E-01    3.3068216563E-01
    3.2916077344E-01    3.2764550710E-01    3.2613635151E-01    3.2463329153E-01
    3.2313631190E-01    3.2164539729E-01    3.2016053233E-01    3.1868170154E-01
    3.1720888940E-01    3.1574208033E-01    3.1428125868E-01    3.1282640876E-01
    3.1137751482E-01    3.0993456108E-01    3.0849753168E-01    3.0706641076E-01
    3.0564118240E-01    3.0422183064E-01    3.0280833950E-01    3.0140069297E-01
    2.9999887499E-01    2.9860286950E-01    2.9721266040E-01    2.9582823156E-01
    2.9444956685E-01    2.9307665011E-01    2.9170946515E-01    2.9034799579E-01
    2.8899222581E-01    2.8764213900E-01    2.8629771912E-01    2.8495894993E-01
    2.8362581516E-01    2.8229829857E-01    2.8097638388E-01    2.7966005481E-01
    2.7834929508E-01    2.7704408841E-01    2.7574441851E-01    2.7445026907E-01
    2.7316162382E-01    2.7187846644E-01    2.7060078063E-01    2.6932855011E-01
    2.6806175856E-01    2.6680038968E-01    2.6554442718E-01    2.6429385475E-01
    2.6304865610E-01    2.6180881493E-01    2.6057431494E-01    2.5934513984E-01
    2.5812127334E-01    2.5690269915E-01    2.5568940097E-01    2.5448136253E-01
    2.5327856755E-01    2.5208099973E-01    2.5088864282E-01    2.4970148052E-01
    2.4851949658E-01    2.4734267472E-01    2.4617099867E-01    2.4500445218E-01
    2.4384301898E-01    2.4268668281E-01    2.4153542743E-01    2.4038923657E-01
    2.3924809398E-01    2.3811198343E-01    2.3698088866E-01    2.3585479342E-01
    2.3473368149E-01    2.3361753662E-01    2.3250634257E-01    2.3140008311E-01
    2.3029874200E-01    2.2920230302E-01    2.2811074993E-01    2.2702406652E-01
    2.2594223654E-01    2.2486524379E-01    2.2379307203E-01    2.2272570504E-01
    2.2166312661E-01    2.2060532051E-01    2.1955227054E-01    2.1850396047E-01
    2.1746037409E-01    2.1642149518E-01    2.1538730754E-01    2.1435779496E-01
    2.1333294123E-01    2.1231273014E-01    2.1129714548E-01    2.1028617106E-01
    2.0927979066E-01    2.0827798810E-01    2.0728074718E-01    2.0628805169E-01
    2.0529988544E-01    2.0431623224E-01    2.0333707591E-01    2.0236240026E-01
    2.0139218910E-01    2.0042642625E-01    1.9946509554E-01    1.9850818078E-01
    1.9755566582E-01    1.9660753449E-01    1.9566377061E-01    1.9472435804E-01
    1.9378928063E-01    1.9285852221E-01    1.9193206665E-01    1.9100989781E-01
    1.9009199956E-01    1.8917835578E-01    1.8826895034E-01    1.8736376713E-01
    1.8646279004E-01    1.8556600298E-01    1.8467338986E-01    1.8378493459E-01
    1.8290062111E-01    1.8202043334E-01    1.8114435524E-01    1.8027237076E-01
    1.7940446386E-01    1.7854061852E-01    1.7768081873E-01    1.7682504849E-01
    1.7597329181E-01    1.7512553271E-01    1.7428175523E-01    1.7344194342E-01
    1.7260608135E-01    1.7177415309E-01    1.7094614273E-01    1.7012203439E-01
    1.6930181220E-01    1.6848546028E-01    1.6767296281E-01    1.6686430396E-01
    1.6605946792E-01    1.6525843890E-01    1.6446120113E-01    1.6366773887E-01
    1.6287803639E-01    1.6209207798E-01    1.6130984794E-01    1.6053133062E-01
    1.5975651038E-01    1.5898537158E-01    1.5821789863E-01    1.5745407596E-01
    1.5669388801E-01    1.5593731927E-01    1.5518435423E-01    1.5443497741E-01
    1.5368917338E-01    1.5294692670E-01    1.5220822198E-01    1.5147304386E-01
    1.5074137700E-01    1.5001320609E-01    1.4928851586E-01    1.4856729104E-01
    1.4784951643E-01    1.4713517683E-01    1.4642425709E-01    1.4571674208E-01
    1.4501261671E-01    1.4431186592E-01    1.4361447469E-01    1.4292042801E-01
    1.4222971094E-01    1.4154230854E-01    1.4085820593E-01    1.4017738827E-01
    1.3949984072E-01    1.3882554851E-01    1.3815449689E-01    1.3748667117E-01
    1.3682205667E-01    1.3616063877E-01    1.3550240286E-01    1.3484733441E-01
    1.3419541889E-01    1.3354664184E-01    1.3290098881E-01    1.3225844543E-01
    1.3161899735E-01    1.3098263024E-01    1.3034932984E-01    1.2971908194E-01
    1.2909187234E-01    1.2846768690E-01    1.2784651154E-01    1.2722833219E-01
    1.2661313485E-01    1.2600090556E-01    1.2539163038E-01    1.2478529545E-01
    1.2418188694E-01    1.2358139105E-01    1.2298379406E-01    1.2238908226E-01
    1.2179724202E-01    1.2120825972E-01    1.2062212182E-01    1.2003881481E-01
    1.1945832522E-01    1.1888063965E-01    1.1830574473E-01    1.1773362715E-01
    1.1716427363E-01    1.1659767095E-01    1.1603380596E-01    1.1547266551E-01
    1.1491423654E-01    1.1435850602E-01    1.1380546098E-01    1.1325508850E-01
    1.1270737569E-01    1.1216230972E-01    1.1161987783E-01    1.1108006729E-01
    1.1054286542E-01    1.1000825959E-01    1.0947623723E-01    1.0894678582E-01
    1.0841989287E-01    1.0789554598E-01    1.0737373276E-01    1.0685444089E-01
    1.0633765811E-01    1.0582337219E-01    1.0531157097E-01    1.0480224234E-01
    1.0429537421E-01    1.0379095459E-01    1.0328897152E-01    1.0278941307E-01
    1.0229226739E-01    1.0179752268E-01    1.0130516718E-01    1.0081518918E-01
    1.0032757703E-01    9.9842319133E-02    9.9359403939E-02    9.8878819950E-02
    9.8400555720E-02    9.7924599855E-02    9.7450941014E-02    9.6979567905E-02
    9.6510469289E-02    9.6043633979E-02    9.5579050840E-02    9.5116708786E-02
    9.4656596785E-02    9.4198703855E-02    9.3743019066E-02    9.3289531540E-02
    9.2838230449E-02    9.2389105016E-02    9.1942144517E-02    9.1497338277E-02
    9.1054675673E-02    9.0614146133E-02    9.0175739136E-02    8.9739444210E-02
    8.9305250935E-02    8.8873148942E-02    8.8443127913E-02    8.8015177577E-02
    8.7589287716E-02    8.7165448162E-02    8.6743648797E-02    8.6323879551E-02
    8.5906130407E-02    8.5490391394E-02    8.5076652593E-02    8.4664904133E-02
    8.4255136194E-02    8.3847339004E-02    8.3441502840E-02    8.3037618027E-02
    8.2635674940E-02    8.2235664003E-02    8.1837575686E-02    8.1441400510E-02
    8.1047129042E-02    8.0654751899E-02    8.0264259743E-02    7.9875643286E-02
    7.9488893287E-02    7.9104000551E-02    7.8720955933E-02    7.8339750330E-02
    7.7960374692E-02    7.7582820010E-02    7.7207077326E-02    7.6833137724E-02
    7.6460992338E-02    7.6090632346E-02    7.5722048971E-02    7.5355233482E-02
    7.4990177196E-02    7.4626871471E-02    7.4265307713E-02    7.3905477371E-02
    7.3547371940E-02    7.3190982959E-02    7.2836302010E-02    7.2483320721E-02
    7.2132030763E-02    7.1782423850E-02    7.1434491741E-02    7.1088226236E-02
    7.0743619180E-02    7.0400662460E-02    7.0059348007E-02    6.9719667791E-02
    6.9381613829E-02    6.9045178176E-02    6.8710352931E-02    6.8377130235E-02
    6.8045502268E-02    6.7715461255E-02    6.7386999457E-02    6.7060109181E-02
    6.6734782772E-02    6.6411012615E-02    6.6088791137E-02    6.5768110803E-02
    6.5448964120E-02    6.5131343632E-02    6.4815241925E-02    6.4500651623E-02
    6.4187565388E-02    6.3875975923E-02    6.3565875967E-02    6.3257258300E-02
    6.2950115738E-02    6.2644441136E-02    6.2340227387E-02    6.2037467420E-02
    6.1736154204E-02    6.1436280743E-02    6.1137840078E-02    6.0840825287E-02
    6.0545229485E-02    6.0251045823E-02    5.9958267489E-02    5.9666887705E-02
    5.9376899729E-02    5.9088296857E-02    5.8801072417E-02    5.8515219773E-02
    5.8230732327E-02    5.7947603510E-02    5.7665826793E-02    5.7385395678E-02
    5.7106303701E-02    5.6828544434E-02    5.6552111481E-02    5.6276998480E-02
    5.6003199102E-02    5.5730707052E-02    5.5459516067E-02    5.5189619916E-02
    5.4921012403E-02    5.4653687361E-02    5.4387638658E-02    5.4122860193E-02
    5.3859345896E-02    5.3597089728E-02    5.3336085684E-02    5.3076327788E-02
    5.2817810095E-02    5.2560526692E-02    5.2304471695E-02    5.2049639253E-02
    5.1796023541E-02    5.1543618769E-02    5.1292419173E-02    5.1042419021E-02
    5.0793612609E-02    5.0545994263E-02    5.0299558338E-02    5.0054299219E-02
    4.9810211317E-02    4.9567289075E-02    4.9325526961E-02    4.9084919475E-02
    4.8845461143E-02    4.8607146517E-02    4.8369970182E-02    4.8133926744E-02
    4.7899010842E-02    4.7665217140E-02    4.7432540327E-02    4.7200975123E-02
    4.6970516272E-02    4.6741158545E-02    4.6512896740E-02    4.6285725681E-02
    4.6059640217E-02    4.5834635224E-02    4.5610705604E-02    4.5387846285E-02
    4.5166052218E-02    4.4945318381E-02    4.4725639778E-02    4.4507011437E-02
    4.4289428410E-02    4.4072885774E-02    4.3857378633E-02    4.3642902111E-02
    4.3429451360E-02    4.3217021555E-02    4.3005607892E-02    4.2795205596E-02
    4.2585809912E-02    4.2377416109E-02    4.2170019480E-02    4.1963615342E-02
    4.1758199032E-02    4.1553765912E-02    4.1350311369E-02    4.1147830808E-02
    4.0946319660E-02    4.0745773376E-02    4.0546187432E-02    4.0347557324E-02
    4.0149878569E-02    3.9953146709E-02    3.9757357306E-02    3.9562505942E-02
    3.9368588224E-02    3.9175599777E-02    3.8983536249E-02    3.8792393308E-02
    3.8602166644E-02    3.8412851968E-02    3.8224445009E-02    3.8036941520E-02
    3.7850337273E-02    3.7664628061E-02    3.7479809694E-02    3.7295878008E-02
    3.7112828852E-02    3.6930658102E-02    3.6749361647E-02    3.6568935401E-02
    3.6389375294E-02    3.6210677278E-02    3.6032837321E-02    3.5855851414E-02
    3.5679715565E-02    3.5504425800E-02    3.5329978165E-02    3.5156368726E-02
    3.4983593566E-02    3.4811648786E-02    3.4640530507E-02    3.4470234868E-02
    3.4300758025E-02    3.4132096153E-02    3.3964245445E-02    3.3797202111E-02
    3.3630962381E-02    3.3465522501E-02    3.3300878735E-02    3.3137027364E-02
    3.2973964686E-02    3.2811687019E-02    3.2650190695E-02    3.2489472065E-02
    3.2329527496E-02    3.2170353373E-02    3.2011946097E-02    3.1854302086E-02
    3.1697417775E-02    3.1541289615E-02    3.1385914074E-02    3.1231287635E-02
    3.1077406799E-02    3.0924268084E-02    3.0771868021E-02    3.0620203159E-02
    3.0469270064E-02    3.0319065315E-02    3.0169585509E-02    3.0020827259E-02
    2.9872787191E-02    2.9725461950E-02    2.9578848194E-02    2.9432942596E-02
    2.9287741847E-02    2.9143242651E-02    2.8999441727E-02    2.8856335811E-02
    2.8713921652E-02    2.8572196015E-02    2.8431155679E-02    2.8290797439E-02
    2.8151118103E-02    2.8012114495E-02    2.7873783453E-02    2.7736121829E-02
    2.7599126491E-02    2.7462794319E-02    2.7327122209E-02    2.7192107070E-02
    2.7057745827E-02    2.6924035416E-02    2.6790972789E-02    2.6658554912E-02
    2.6526778764E-02    2.6395641338E-02    2.6265139640E-02    2.6135270692E-02
    2.6006031527E-02    2.5877419192E-02    2.5749430748E-02    2.5622063268E-02
    2.5495313842E-02    2.5369179568E-02    2.5243657561E-02    2.5118744947E-02
    2.4994438866E-02    2.4870736472E-02    2.4747634929E-02    2.4625131416E-02
    2.4503223125E-02    2.4381907259E-02    2.4261181035E-02    2.4141041683E-02
    2.4021486443E-02    2.3902512571E-02    2.3784117332E-02    2.3666298007E-02
    2.3549051885E-02    2.3432376271E-02    2.3316268480E-02    2.3200725841E-02
    2.3085745692E-02    2.2971325387E-02    2.2857462288E-02    2.2744153772E-02
    2.2631397226E-02    2.2519190049E-02    2.2407529653E-02    2.2296413461E-02
    2.2185838906E-02    2.2075803435E-02    2.1966304506E-02    2.1857339587E-02
    2.1748906158E-02    2.1641001712E-02    2.1533623752E-02    2.1426769792E-02
    2.1320437357E-02    2.1214623984E-02    2.1109327222E-02    2.1004544628E-02
    2.0900273773E-02    2.0796512237E-02    2.0693257613E-02    2.0590507502E-02
    2.0488259519E-02    2.0386511287E-02    2.0285260442E-02    2.0184504629E-02
    2.0084241503E-02    1.9984468733E-02    1.9885183994E-02    1.9786384975E-02
    1.9688069375E-02    1.9590234901E-02    1.9492879272E-02    1.9396000218E-02
    1.9299595478E-02    1.9203662802E-02    1.9108199950E-02    1.9013204691E-02
    1.8918674805E-02    1.8824608083E-02    1.8731002324E-02    1.8637855339E-02
    1.8545164947E-02    1.8452928978E-02    1.8361145271E-02    1.8269811676E-02
    1.8178926052E-02    1.8088486267E-02    1.7998490199E-02    1.7908935737E-02
    1.7819820778E-02    1.7731143228E-02    1.7642901005E-02    1.7555092034E-02
    1.7467714250E-02    1.7380765598E-02    1.7294244032E-02    1.7208147515E-02
    1.7122474020E-02    1.7037221527E-02    1.6952388028E-02    1.6867971523E-02
    1.6783970021E-02    1.6700381538E-02    1.6617204104E-02    1.6534435752E-02
    1.6452074529E-02    1.6370118487E-02    1.6288565690E-02    1.6207414208E-02
    1.6126662123E-02    1.6046307521E-02    1.5966348502E-02    1.5886783172E-02
    1.5807609644E-02    1.5728826043E-02    1.5650430500E-02    1.5572421155E-02
    1.5494796158E-02    1.5417553667E-02    1.5340691845E-02    1.5264208869E-02
    1.5188102919E-02    1.5112372187E-02    1.5037014872E-02    1.4962029180E-02
    1.4887413328E-02    1.4813165538E-02    1.4739284042E-02    1.4665767081E-02
    1.4592612900E-02    1.4519819758E-02    1.4447385916E-02    1.4375309646E-02
    1.4303589229E-02    1.4232222952E-02    1.4161209110E-02    1.4090546005E-02
    1.4020231950E-02    1.3950265261E-02    1.3880644267E-02    1.3811367301E-02
    1.3742432703E-02    1.3673838825E-02    1.3605584022E-02    1.3537666659E-02
    1.3470085107E-02    1.3402837747E-02    1.3335922964E-02    1.3269339153E-02
    1.3203084717E-02    1.3137158063E-02    1.3071557608E-02    1.3006281775E-02
    1.2941328996E-02    1.2876697709E-02    1.2812386358E-02    1.2748393397E-02
    1.2684717285E-02    1.2621356488E-02    1.2558309481E-02    1.2495574743E-02
    1.2433150764E-02    1.2371036038E-02    1.2309229067E-02    1.2247728358E-02
    1.2186532429E-02    1.2125639802E-02    1.2065049005E-02    1.2004758575E-02
    1.1944767056E-02    1.1885072996E-02    1.1825674952E-02    1.1766571487E-02
    1.1707761170E-02    1.1649242580E-02    1.1591014297E-02    1.1533074912E-02
    1.1475423022E-02    1.1418057228E-02    1.1360976140E-02    1.1304178373E-02
    1.1247662550E-02    1.1191427300E-02    1.1135471256E-02    1.1079793060E-02
    1.1024391360E-02    1.0969264810E-02    1.0914412069E-02    1.0859831805E-02
    1.0805522690E-02    1.0751483402E-02    1.0697712626E-02    1.0644209055E-02
    1.0590971384E-02    1.0537998318E-02    1.0485288566E-02    1.0432840842E-02
    1.0380653870E-02    1.0328726375E-02    1.0277057092E-02    1.0225644759E-02
    1.0174488123E-02    1.0123585934E-02    1.0072936948E-02    1.0022539930E-02
    9.9723936474E-03    9.9224968746E-03    9.8728483918E-03    9.8234469849E-03
    9.7742914456E-03    9.7253805712E-03    9.6767131644E-03    9.6282880339E-03
    9.5801039939E-03    9.5321598641E-03    9.4844544698E-03    9.4369866419E-03
    9.3897552166E-03    9.3427590359E-03    9.2959969470E-03    9.2494678028E-03
    9.2031704612E-03    9.1571037859E-03    9.1112666458E-03    9.0656579152E-03
    9.0202764735E-03    8.9751212058E-03    8.9301910020E-03    8.8854847578E-03
    8.8410013735E-03    8.7967397552E-03    8.7526988137E-03    8.7088774653E-03
    8.6652746313E-03    8.6218892381E-03    8.5787202172E-03    8.5357665051E-03
    8.4930270436E-03    8.4505007792E-03    8.4081866637E-03    8.3660836536E-03
    8.3241907105E-03    8.2825068009E-03    8.2410308964E-03    8.1997619732E-03
    8.1586990125E-03    8.1178410004E-03    8.0771869277E-03    8.0367357902E-03
    7.9964865884E-03    7.9564383273E-03    7.9165900171E-03    7.8769406724E-03
    7.8374893126E-03    7.7982349618E-03    7.7591766487E-03    7.7203134067E-03
    7.6816442738E-03    7.6431682926E-03    7.6048845101E-03    7.5667919783E-03
    7.5288897532E-03    7.4911768957E-03    7.4536524710E-03    7.4163155489E-03
    7.3791652035E-03    7.3422005135E-03    7.3054205619E-03    7.2688244362E-03
    7.2324112281E-03    7.1961800338E-03    7.1601299538E-03    7.1242600929E-03
    7.0885695603E-03    7.0530574694E-03    7.0177229377E-03    6.9825650871E-03
    6.9475830438E-03    6.9127759382E-03    6.8781429045E-03    6.8436830816E-03
    6.8093956123E-03    6.7752796433E-03    6.7413343259E-03    6.7075588150E-03
    6.6739522699E-03    6.6405138537E-03    6.6072427339E-03    6.5741380817E-03
    6.5411990723E-03    6.5084248850E-03    6.4758147030E-03    6.4433677135E-03
    6.4110831076E-03    6.3789600803E-03    6.3469978304E-03    6.3151955607E-03
    6.2835524779E-03    6.2520677922E-03    6.2207407181E-03    6.1895704736E-03
    6.1585562804E-03    6.1276973643E-03    6.0969929546E-03    6.0664422843E-03
    6.0360445903E-03    6.0057991130E-03    5.9757050967E-03    5.9457617892E-03
    5.9159684420E-03    5.8863243102E-03    5.8568286525E-03    5.8274807313E-03
    5.7982798125E-03    5.7692251656E-03    5.7403160636E-03    5.7115517830E-03
    5.6829316039E-03    5.6544548099E-03    5.6261206881E-03    5.5979285289E-03
    5.5698776263E-03    5.5419672778E-03    5.5141967841E-03    5.4865654494E-03
    5.4590725815E-03    5.4317174912E-03    5.4044994929E-03    5.3774179043E-03
    5.3504720464E-03    5.3236612435E-03    5.2969848232E-03    5.2704421164E-03
    5.2440324573E-03    5.2177551831E-03    5.1916096347E-03    5.1655951557E-03
    5.1397110934E-03    5.1139567978E-03    5.0883316225E-03    5.0628349240E-03
    5.0374660620E-03    5.0122243994E-03    4.9871093021E-03    4.9621201392E-03
    4.9372562828E-03    4.9125171082E-03    4.8879019936E-03    4.8634103203E-03
    4.8390414728E-03    4.8147948383E-03    4.7906698073E-03    4.7666657730E-03
    4.7427821317E-03    4.7190182829E-03    4.6953736286E-03    4.6718475741E-03
    4.6484395274E-03    4.6251488994E-03    4.6019751041E-03    4.5789175582E-03
    4.5559756813E-03    4.5331488958E-03    4.5104366270E-03    4.4878383030E-03
    4.4653533547E-03    4.4429812159E-03    4.4207213231E-03    4.3985731154E-03
    4.3765360349E-03    4.3546095265E-03    4.3327930375E-03    4.3110860181E-03
    4.2894879214E-03    4.2679982029E-03    4.2466163208E-03    4.2253417362E-03
    4.2041739126E-03    4.1831123163E-03    4.1621564161E-03    4.1413056836E-03
    4.1205595928E-03    4.0999176205E-03    4.0793792458E-03    4.0589439506E-03
    4.0386112194E-03    4.0183805390E-03    3.9982513988E-03    3.9782232909E-03
    3.9582957098E-03    3.9384681524E-03    3.9187401182E-03    3.8991111091E-03
    3.8795806295E-03    3.8601481862E-03    3.8408132885E-03    3.8215754482E-03
    3.8024341793E-03    3.7833889983E-03    3.7644394241E-03    3.7455849780E-03
    3.7268251837E-03    3.7081595671E-03    3.6895876566E-03    3.6711089829E-03
    3.6527230789E-03    3.6344294800E-03    3.6162277238E-03    3.5981173502E-03
    3.5800979013E-03    3.5621689216E-03    3.5443299578E-03    3.5265805589E-03
    3.5089202759E-03    3.4913486623E-03    3.4738652738E-03    3.4564696680E-03
    3.4391614052E-03    3.4219400473E-03    3.4048051588E-03    3.3877563062E-03
    3.3707930582E-03    3.3539149855E-03    3.3371216612E-03    3.3204126602E-03
    3.3037875597E-03    3.2872459390E-03    3.2707873795E-03    3.2544114645E-03
    3.2381177795E-03    3.2219059122E-03    3.2057754521E-03    3.1897259908E-03
    3.1737571220E-03    3.1578684415E-03    3.1420595469E-03    3.1263300379E-03
    3.1106795161E-03    3.0951075854E-03    3.0796138512E-03    3.0641979212E-03
    3.0488594049E-03    3.0335979139E-03    3.0184130616E-03    3.0033044632E-03
    2.9882717361E-03    2.9733144994E-03    2.9584323742E-03    2.9436249835E-03
    2.9288919520E-03    2.9142329065E-03    2.8996474754E-03    2.8851352893E-03
    2.8706959802E-03    2.8563291824E-03    2.8420345318E-03    2.8278116659E-03
    2.8136602243E-03    2.7995798484E-03    2.7855701813E-03    2.7716308677E-03
    2.7577615544E-03    2.7439618898E-03    2.7302315241E-03    2.7165701090E-03
    2.7029772984E-03    2.6894527475E-03    2.6759961135E-03    2.6626070552E-03
    2.6492852330E-03    2.6360303091E-03    2.6228419475E-03    2.6097198137E-03
    2.5966635749E-03    2.5836729001E-03    2.5707474597E-03    2.5578869259E-03
    2.5450909727E-03    2.5323592754E-03    2.5196915111E-03    2.5070873585E-03
    2.4945464979E-03    2.4820686113E-03    2.4696533820E-03    2.4573004951E-03
    2.4450096374E-03    2.4327804969E-03    2.4206127635E-03    2.4085061285E-03
    2.3964602846E-03    2.3844749264E-03    2.3725497498E-03    2.3606844521E-03
    2.3488787324E-03    2.3371322910E-03    2.3254448300E-03    2.3138160529E-03
    2.3022456645E-03    2.2907333712E-03    2.2792788810E-03    2.2678819032E-03
    2.2565421485E-03    2.2452593293E-03    2.2340331592E-03    2.2228633533E-03
    2.2117496282E-03    2.2006917018E-03    2.1896892936E-03    2.1787421242E-03
    2.1678499160E-03    2.1570123924E-03    2.1462292784E-03    2.1355003004E-03
    2.1248251861E-03    2.1142036644E-03    2.1036354660E-03    2.0931203224E-03
    2.0826579670E-03    2.0722481340E-03    2.0618905594E-03    2.0515849802E-03
    2.0413311349E-03    2.0311287633E-03    2.0209776062E-03    2.0108774062E-03
    2.0008279069E-03    1.9908288532E-03    1.9808799913E-03    1.9709810686E-03
    1.9611318340E-03    1.9513320374E-03    1.9415814301E-03    1.9318797647E-03
    1.9222267948E-03    1.9126222754E-03    1.9030659628E-03    1.8935576144E-03
    1.8840969889E-03    1.8746838461E-03    1.8653179471E-03    1.8559990542E-03
    1.8467269309E-03    1.8375013418E-03    1.8283220527E-03    1.8191888307E-03
    1.8101014439E-03    1.8010596617E-03    1.7920632546E-03    1.7831119942E-03
    1.7742056534E-03    1.7653440061E-03    1.7565268274E-03    1.7477538935E-03
    1.7390249818E-03    1.7303398706E-03    1.7216983396E-03    1.7131001694E-03
    1.7045451418E-03    1.6960330397E-03    1.6875636471E-03    1.6791367490E-03
    1.6707521315E-03    1.6624095819E-03    1.6541088884E-03    1.6458498403E-03
    1.6376322281E-03    1.6294558432E-03    1.6213204782E-03    1.6132259265E-03
    1.6051719828E-03    1.5971584426E-03    1.5891851027E-03    1.5812517606E-03
    1.5733582152E-03    1.5655042659E-03    1.5576897137E-03    1.5499143601E-03
    1.5421780079E-03    1.5344804608E-03    1.5268215235E-03    1.5192010016E-03
    1.5116187018E-03    1.5040744317E-03    1.4965679999E-03    1.4890992159E-03
    1.4816678903E-03    1.4742738345E-03    1.4669168609E-03    1.4595967829E-03
    1.4523134148E-03    1.4450665718E-03    1.4378560700E-03    1.4306817266E-03
    1.4235433595E-03    1.4164407877E-03    1.4093738310E-03    1.4023423102E-03
    1.3953460468E-03    1.3883848635E-03    1.3814585836E-03    1.3745670315E-03
    1.3677100325E-03    1.3608874125E-03    1.3540989985E-03    1.3473446185E-03
    1.3406241010E-03    1.3339372757E-03    1.3272839729E-03    1.3206640240E-03
    1.3140772611E-03    1.3075235172E-03    1.3010026260E-03    1.2945144222E-03
    1.2880587413E-03    1.2816354197E-03    1.2752442944E-03    1.2688852034E-03
    1.2625579855E-03    1.2562624803E-03    1.2499985281E-03    1.2437659703E-03
    1.2375646487E-03    1.2313944061E-03    1.2252550862E-03    1.2191465334E-03
    1.2130685927E-03    1.2070211102E-03    1.2010039325E-03    1.1950169071E-03
    1.1890598824E-03    1.1831327072E-03    1.1772352315E-03    1.1713673057E-03
    1.1655287812E-03    1.1597195099E-03    1.1539393447E-03    1.1481881391E-03
    1.1424657474E-03    1.1367720245E-03    1.1311068263E-03    1.1254700091E-03
    1.1198614302E-03    1.1142809475E-03    1.1087284195E-03    1.1032037057E-03
    1.0977066661E-03    1.0922371614E-03    1.0867950530E-03    1.0813802032E-03
    1.0759924748E-03    1.0706317312E-03    1.0652978368E-03    1.0599906564E-03
    1.0547100557E-03    1.0494559009E-03    1.0442280589E-03    1.0390263974E-03
    1.0338507846E-03    1.0287010895E-03    1.0235771818E-03    1.0184789316E-03
    1.0134062098E-03    1.0083588881E-03    1.0033368387E-03    9.9833993446E-04
    9.9336804881E-04    9.8842105595E-04    9.8349883064E-04    9.7860124829E-04
    9.7372818494E-04    9.6887951724E-04    9.6405512249E-04    9.5925487859E-04
    9.5447866404E-04    9.4972635799E-04    9.4499784018E-04    9.4029299095E-04
    9.3561169125E-04    9.3095382264E-04    9.2631926726E-04    9.2170790786E-04
    9.1711962777E-04    9.1255431091E-04    9.0801184180E-04    9.0349210553E-04
    8.9899498776E-04    8.9452037475E-04    8.9006815332E-04    8.8563821085E-04
    8.8123043532E-04    8.7684471524E-04    8.7248093971E-04    8.6813899837E-04
    8.6381878143E-04    8.5952017964E-04    8.5524308432E-04    8.5098738732E-04
    8.4675298106E-04    8.4253975846E-04    8.3834761303E-04    8.3417643878E-04
    8.3002613027E-04    8.2589658260E-04    8.2178769138E-04    8.1769935276E-04
    8.1363146341E-04    8.0958392053E-04    8.0555662181E-04    8.0154946549E-04
    7.9756235032E-04    7.9359517553E-04    7.8964784089E-04    7.8572024666E-04
    7.8181229362E-04    7.7792388302E-04    7.7405491665E-04    7.7020529675E-04
    7.6637492609E-04    7.6256370791E-04    7.5877154595E-04    7.5499834442E-04
    7.5124400803E-04    7.4750844197E-04    7.4379155189E-04    7.4009324394E-04
    7.3641342472E-04    7.3275200132E-04    7.2910888130E-04    7.2548397266E-04
    7.2187718390E-04    7.1828842396E-04    7.1471760223E-04    7.1116462859E-04
    7.0762941335E-04    7.0411186727E-04    7.0061190157E-04    6.9712942792E-04
    6.9366435844E-04    6.9021660567E-04    6.8678608261E-04    6.8337270270E-04
    6.7997637981E-04    6.7659702825E-04    6.7323456276E-04    6.6988889850E-04
    6.6655995107E-04    6.6324763649E-04    6.5995187122E-04    6.5667257211E-04
    6.5340965647E-04    6.5016304198E-04    6.4693264677E-04    6.4371838938E-04
    6.4052018875E-04    6.3733796423E-04    6.3417163558E-04    6.3102112296E-04
    6.2788634695E-04    6.2476722850E-04    6.2166368900E-04    6.1857565019E-04
    6.1550303424E-04    6.1244576371E-04    6.0940376152E-04    6.0637695101E-04
    6.0336525590E-04    6.0036860028E-04    5.9738690865E-04    5.9442010587E-04
    5.9146811718E-04    5.8853086821E-04    5.8560828494E-04    5.8270029376E-04
    5.7980682140E-04    5.7692779497E-04    5.7406314195E-04    5.7121279019E-04
    5.6837666789E-04    5.6555470363E-04    5.6274682633E-04    5.5995296528E-04
    5.5717305013E-04    5.5440701088E-04    5.5165477788E-04    5.4891628184E-04
    5.4619145382E-04    5.4348022520E-04    5.4078252775E-04    5.3809829355E-04
    5.3542745504E-04    5.3276994499E-04    5.3012569652E-04    5.2749464308E-04
    5.2487671846E-04    5.2227185677E-04    5.1967999247E-04    5.1710106035E-04
    5.1453499552E-04    5.1198173341E-04    5.0944120980E-04    5.0691336076E-04
    5.0439812272E-04    5.0189543241E-04    4.9940522687E-04    4.9692744348E-04
    4.9446201992E-04    4.9200889418E-04    4.8956800459E-04    4.8713928975E-04
    4.8472268861E-04    4.8231814040E-04    4.7992558468E-04    4.7754496127E-04
   </PP_CHI.5>
   <PP_CHI.6
       type="real"
       size="1680"
       columns="4"
       index="6"
       occupation=" 1.000"
       pseudo_energy="   -0.2926663781E+00"
       label="5S"
       l="0" >
   -1.0897428793E-12   -1.5317866035E-03   -3.0689798241E-03   -4.6169664388E-03
   -6.1810936119E-03   -7.7666492573E-03   -9.3788426014E-03   -1.1022785014E-02
   -1.2703471169E-02   -1.4425760604E-02   -1.6194359731E-02   -1.8013804366E-02
   -1.9888442835E-02   -2.1822419708E-02   -2.3819660207E-02   -2.5883855361E-02
   -2.8018447926E-02   -3.0226619133E-02   -3.2511276302E-02   -3.4875041351E-02
   -3.7320240242E-02   -3.9848893386E-02   -4.2462707052E-02   -4.5163065769E-02
   -4.7951025775E-02   -5.0827309507E-02   -5.3792301146E-02   -5.6846043236E-02
   -5.9988234355E-02   -6.3218227876E-02   -6.6535031770E-02   -6.9937309484E-02
   -7.3423381852E-02   -7.6991230044E-02   -8.0638499528E-02   -8.4362505024E-02
   -8.8160236421E-02   -9.2028365651E-02   -9.5963254461E-02   -9.9960963071E-02
   -1.0401725968E-01   -1.0812763080E-01   -1.1228729230E-01   -1.1649120126E-01
   -1.2073406847E-01   -1.2501037159E-01   -1.2931436889E-01   -1.3364011356E-01
   -1.3798146852E-01   -1.4233212173E-01   -1.4668560185E-01   -1.5103529429E-01
   -1.5537445758E-01   -1.5969624002E-01   -1.6399369648E-01   -1.6825980548E-01
   -1.7248748624E-01   -1.7666961595E-01   -1.8079904694E-01   -1.8486862389E-01
   -1.8887120096E-01   -1.9279965877E-01   -1.9664692126E-01   -2.0040597229E-01
   -2.0406987205E-01   -2.0763177311E-01   -2.1108493621E-01   -2.1442274562E-01
   -2.1763872411E-01   -2.2072654749E-01   -2.2368005862E-01   -2.2649328100E-01
   -2.2916043168E-01   -2.3167593375E-01   -2.3403442805E-01   -2.3623078444E-01
   -2.3826011222E-01   -2.4011777006E-01   -2.4179937507E-01   -2.4330081126E-01
   -2.4461823717E-01   -2.4574809289E-01   -2.4668710614E-01   -2.4743229770E-01
   -2.4798098603E-01   -2.4833079105E-01   -2.4847963720E-01   -2.4842575565E-01
   -2.4816768571E-01   -2.4770427547E-01   -2.4703468166E-01   -2.4615836869E-01
   -2.4507510691E-01   -2.4378497018E-01   -2.4228833259E-01   -2.4058586453E-01
   -2.3867852798E-01   -2.3656757116E-01   -2.3425452249E-01   -2.3174118386E-01
   -2.2902962335E-01   -2.2612216733E-01   -2.2302139196E-01   -2.1973011422E-01
   -2.1625138244E-01   -2.1258846633E-01   -2.0874484660E-01   -2.0472420427E-01
   -2.0053040952E-01   -1.9616751035E-01   -1.9163972087E-01   -1.8695140952E-01
   -1.8210708695E-01   -1.7711139389E-01   -1.7196908889E-01   -1.6668503599E-01
   -1.6126419249E-01   -1.5571159659E-01   -1.5003235531E-01   -1.4423163237E-01
   -1.3831463634E-01   -1.3228660898E-01   -1.2615281375E-01   -1.1991852469E-01
   -1.1358901557E-01   -1.0716954938E-01   -1.0066536819E-01   -9.4081683435E-02
   -8.7423666620E-02   -8.0696440455E-02   -7.3905070479E-02   -6.7054557163E-02
   -6.0149828514E-02   -5.3195733194E-02   -4.6197034157E-02   -3.9158402814E-02
   -3.2084413727E-02   -2.4979539829E-02   -1.7848148174E-02   -1.0694496205E-02
   -3.5227285286E-03    3.6631258077E-03    1.0859155553E-02    1.8061569026E-02
    2.5266695436E-02    3.2470985778E-02    3.9671013321E-02    4.6863473717E-02
    5.4045184759E-02    6.1213085808E-02    6.8364236928E-02    7.5495817746E-02
    8.2605126084E-02    8.9689576376E-02    9.6746697918E-02    1.0377413297E-01
    1.1076963474E-01    1.1773106529E-01    1.2465639342E-01    1.3154369244E-01
    1.3839113805E-01    1.4519700618E-01    1.5195967092E-01    1.5867760262E-01
    1.6534936621E-01    1.7197361937E-01    1.7854911061E-01    1.8507467762E-01
    1.9154924578E-01    1.9797182692E-01    2.0434151818E-01    2.1065749810E-01
    2.1691901268E-01    2.2312535772E-01    2.2927587520E-01    2.3536995467E-01
    2.4140703009E-01    2.4738657860E-01    2.5330811893E-01    2.5917120997E-01
    2.6497544931E-01    2.7072047188E-01    2.7640594854E-01    2.8203158483E-01
    2.8759711963E-01    2.9310232396E-01    2.9854699973E-01    3.0393097862E-01
    3.0925412088E-01    3.1451631426E-01    3.1971747294E-01    3.2485753647E-01
    3.2993646877E-01    3.3495425714E-01    3.3991091134E-01    3.4480646262E-01
    3.4964096289E-01    3.5441448380E-01    3.5912711595E-01    3.6377896805E-01
    3.6837016612E-01    3.7290085280E-01    3.7737118655E-01    3.8178134095E-01
    3.8613150404E-01    3.9042187763E-01    3.9465267669E-01    3.9882412866E-01
    4.0293647294E-01    4.0698996023E-01    4.1098485202E-01    4.1492142002E-01
    4.1879994565E-01    4.2262071954E-01    4.2638404100E-01    4.3009021761E-01
    4.3373956473E-01    4.3733240504E-01    4.4086906818E-01    4.4434989026E-01
    4.4777521353E-01    4.5114538597E-01    4.5446076093E-01    4.5772169676E-01
    4.6092855650E-01    4.6408170752E-01    4.6718152122E-01    4.7022837273E-01
    4.7322264059E-01    4.7616470650E-01    4.7905495503E-01    4.8189377336E-01
    4.8468155102E-01    4.8741867966E-01    4.9010555283E-01    4.9274256572E-01
    4.9533011498E-01    4.9786859850E-01    5.0035841520E-01    5.0279996487E-01
    5.0519364798E-01    5.0753986547E-01    5.0983901864E-01    5.1209150895E-01
    5.1429773790E-01    5.1645810684E-01    5.1857301688E-01    5.2064286873E-01
    5.2266806259E-01    5.2464899801E-01    5.2658607378E-01    5.2847968786E-01
    5.3033023721E-01    5.3213811775E-01    5.3390372424E-01    5.3562745019E-01
    5.3730968781E-01    5.3895082788E-01    5.4055125973E-01    5.4211137110E-01
    5.4363154818E-01    5.4511217544E-01    5.4655363563E-01    5.4795630973E-01
    5.4932057689E-01    5.5064681434E-01    5.5193539744E-01    5.5318669954E-01
    5.5440109201E-01    5.5557894418E-01    5.5672062330E-01    5.5782649455E-01
    5.5889692095E-01    5.5993226340E-01    5.6093288060E-01    5.6189912908E-01
    5.6283136315E-01    5.6372993491E-01    5.6459519421E-01    5.6542748863E-01
    5.6622716353E-01    5.6699456195E-01    5.6773002469E-01    5.6843389024E-01
    5.6910649481E-01    5.6974817232E-01    5.7035925439E-01    5.7094007033E-01
    5.7149094717E-01    5.7201220962E-01    5.7250418013E-01    5.7296717881E-01
    5.7340152352E-01    5.7380752981E-01    5.7418551094E-01    5.7453577793E-01
    5.7485863949E-01    5.7515440208E-01    5.7542336990E-01    5.7566584491E-01
    5.7588212680E-01    5.7607251306E-01    5.7623729893E-01    5.7637677743E-01
    5.7649123939E-01    5.7658097343E-01    5.7664626597E-01    5.7668740127E-01
    5.7670466142E-01    5.7669832633E-01    5.7666867379E-01    5.7661597943E-01
    5.7654051676E-01    5.7644255718E-01    5.7632236999E-01    5.7618022237E-01
    5.7601637945E-01    5.7583110427E-01    5.7562465782E-01    5.7539729903E-01
    5.7514928481E-01    5.7488087003E-01    5.7459230755E-01    5.7428384824E-01
    5.7395574096E-01    5.7360823262E-01    5.7324156812E-01    5.7285599045E-01
    5.7245174062E-01    5.7202905773E-01    5.7158817895E-01    5.7112933954E-01
    5.7065277288E-01    5.7015871043E-01    5.6964738179E-01    5.6911901472E-01
    5.6857383510E-01    5.6801206696E-01    5.6743393254E-01    5.6683965222E-01
    5.6622944461E-01    5.6560352648E-01    5.6496211286E-01    5.6430541698E-01
    5.6363365032E-01    5.6294702258E-01    5.6224574176E-01    5.6153001410E-01
    5.6080004413E-01    5.6005603466E-01    5.5929818683E-01    5.5852670006E-01
    5.5774177211E-01    5.5694359907E-01    5.5613237537E-01    5.5530829380E-01
    5.5447154550E-01    5.5362232000E-01    5.5276080520E-01    5.5188718742E-01
    5.5100165134E-01    5.5010438010E-01    5.4919555524E-01    5.4827535672E-01
    5.4734396298E-01    5.4640155088E-01    5.4544829576E-01    5.4448437142E-01
    5.4350995016E-01    5.4252520274E-01    5.4153029845E-01    5.4052540507E-01
    5.3951068891E-01    5.3848631480E-01    5.3745244609E-01    5.3640924472E-01
    5.3535687113E-01    5.3429548436E-01    5.3322524200E-01    5.3214630024E-01
    5.3105881384E-01    5.2996293615E-01    5.2885881916E-01    5.2774661343E-01
    5.2662646818E-01    5.2549853123E-01    5.2436294905E-01    5.2321986677E-01
    5.2206942814E-01    5.2091177561E-01    5.1974705027E-01    5.1857539190E-01
    5.1739693897E-01    5.1621182863E-01    5.1502019675E-01    5.1382217789E-01
    5.1261790533E-01    5.1140751107E-01    5.1019112587E-01    5.0896887918E-01
    5.0774089923E-01    5.0650731299E-01    5.0526824620E-01    5.0402382335E-01
    5.0277416771E-01    5.0151940135E-01    5.0025964510E-01    4.9899501860E-01
    4.9772564029E-01    4.9645162742E-01    4.9517309606E-01    4.9389016109E-01
    4.9260293623E-01    4.9131153403E-01    4.9001606588E-01    4.8871664205E-01
    4.8741337161E-01    4.8610636255E-01    4.8479572170E-01    4.8348155476E-01
    4.8216396633E-01    4.8084305990E-01    4.7951893783E-01    4.7819170142E-01
    4.7686145084E-01    4.7552828521E-01    4.7419230254E-01    4.7285359980E-01
    4.7151227286E-01    4.7016841657E-01    4.6882212468E-01    4.6747348994E-01
    4.6612260403E-01    4.6476955760E-01    4.6341444028E-01    4.6205734068E-01
    4.6069834639E-01    4.5933754398E-01    4.5797501905E-01    4.5661085616E-01
    4.5524513892E-01    4.5387794993E-01    4.5250937083E-01    4.5113948228E-01
    4.4976836397E-01    4.4839609465E-01    4.4702275210E-01    4.4564841316E-01
    4.4427315374E-01    4.4289704879E-01    4.4152017237E-01    4.4014259759E-01
    4.3876439665E-01    4.3738564086E-01    4.3600640061E-01    4.3462674539E-01
    4.3324674383E-01    4.3186646365E-01    4.3048597170E-01    4.2910533396E-01
    4.2772461555E-01    4.2634388072E-01    4.2496319289E-01    4.2358261462E-01
    4.2220220763E-01    4.2082203282E-01    4.1944215024E-01    4.1806261915E-01
    4.1668349798E-01    4.1530484435E-01    4.1392671508E-01    4.1254916621E-01
    4.1117225298E-01    4.0979602985E-01    4.0842055050E-01    4.0704586785E-01
    4.0567203404E-01    4.0429910049E-01    4.0292711783E-01    4.0155613596E-01
    4.0018620406E-01    3.9881737055E-01    3.9744968314E-01    3.9608318882E-01
    3.9471793388E-01    3.9335396387E-01    3.9199132368E-01    3.9063005749E-01
    3.8927020878E-01    3.8791182036E-01    3.8655493438E-01    3.8519959229E-01
    3.8384583491E-01    3.8249370238E-01    3.8114323421E-01    3.7979446925E-01
    3.7844744571E-01    3.7710220119E-01    3.7575877264E-01    3.7441719642E-01
    3.7307750824E-01    3.7173974325E-01    3.7040393594E-01    3.6907012026E-01
    3.6773832955E-01    3.6640859656E-01    3.6508095347E-01    3.6375543189E-01
    3.6243206286E-01    3.6111087688E-01    3.5979190387E-01    3.5847517322E-01
    3.5716071378E-01    3.5584855385E-01    3.5453872122E-01    3.5323124314E-01
    3.5192614636E-01    3.5062345709E-01    3.4932320105E-01    3.4802540348E-01
    3.4673008908E-01    3.4543728210E-01    3.4414700628E-01    3.4285928490E-01
    3.4157414075E-01    3.4029159617E-01    3.3901167302E-01    3.3773439272E-01
    3.3645977623E-01    3.3518784406E-01    3.3391861629E-01    3.3265211256E-01
    3.3138835208E-01    3.3012735364E-01    3.2886913559E-01    3.2761371589E-01
    3.2636111208E-01    3.2511134131E-01    3.2386442030E-01    3.2262036540E-01
    3.2137919257E-01    3.2014091738E-01    3.1890555501E-01    3.1767312030E-01
    3.1644362767E-01    3.1521709122E-01    3.1399352467E-01    3.1277294138E-01
    3.1155535436E-01    3.1034077630E-01    3.0912921952E-01    3.0792069600E-01
    3.0671521741E-01    3.0551279508E-01    3.0431344001E-01    3.0311716289E-01
    3.0192397410E-01    3.0073388370E-01    2.9954690144E-01    2.9836303678E-01
    2.9718229887E-01    2.9600469658E-01    2.9483023847E-01    2.9365893285E-01
    2.9249078771E-01    2.9132581078E-01    2.9016400953E-01    2.8900539113E-01
    2.8784996250E-01    2.8669773031E-01    2.8554870095E-01    2.8440288057E-01
    2.8326027508E-01    2.8212089011E-01    2.8098473107E-01    2.7985180313E-01
    2.7872211122E-01    2.7759566005E-01    2.7647245407E-01    2.7535249753E-01
    2.7423579446E-01    2.7312234865E-01    2.7201216370E-01    2.7090524299E-01
    2.6980158967E-01    2.6870120672E-01    2.6760409688E-01    2.6651026273E-01
    2.6541970662E-01    2.6433243074E-01    2.6324843705E-01    2.6216772735E-01
    2.6109030326E-01    2.6001616621E-01    2.5894531744E-01    2.5787775804E-01
    2.5681348891E-01    2.5575251078E-01    2.5469482422E-01    2.5364042964E-01
    2.5258932729E-01    2.5154151723E-01    2.5049699941E-01    2.4945577360E-01
    2.4841783942E-01    2.4738319635E-01    2.4635184371E-01    2.4532378070E-01
    2.4429900637E-01    2.4327751961E-01    2.4225931920E-01    2.4124440377E-01
    2.4023277184E-01    2.3922442178E-01    2.3821935184E-01    2.3721756014E-01
    2.3621904469E-01    2.3522380337E-01    2.3423183394E-01    2.3324313405E-01
    2.3225770123E-01    2.3127553291E-01    2.3029662639E-01    2.2932097889E-01
    2.2834858749E-01    2.2737944920E-01    2.2641356089E-01    2.2545091937E-01
    2.2449152132E-01    2.2353536334E-01    2.2258244192E-01    2.2163275349E-01
    2.2068629435E-01    2.1974306072E-01    2.1880304875E-01    2.1786625449E-01
    2.1693267390E-01    2.1600230287E-01    2.1507513720E-01    2.1415117262E-01
    2.1323040476E-01    2.1231282920E-01    2.1139844142E-01    2.1048723685E-01
    2.0957921083E-01    2.0867435864E-01    2.0777267547E-01    2.0687415647E-01
    2.0597879672E-01    2.0508659120E-01    2.0419753487E-01    2.0331162260E-01
    2.0242884920E-01    2.0154920944E-01    2.0067269802E-01    1.9979930956E-01
    1.9892903865E-01    1.9806187983E-01    1.9719782756E-01    1.9633687626E-01
    1.9547902031E-01    1.9462425401E-01    1.9377257164E-01    1.9292396742E-01
    1.9207843551E-01    1.9123597005E-01    1.9039656511E-01    1.8956021472E-01
    1.8872691288E-01    1.8789665353E-01    1.8706943059E-01    1.8624523792E-01
    1.8542406934E-01    1.8460591865E-01    1.8379077960E-01    1.8297864589E-01
    1.8216951121E-01    1.8136336919E-01    1.8056021345E-01    1.7976003755E-01
    1.7896283505E-01    1.7816859944E-01    1.7737732420E-01    1.7658900279E-01
    1.7580362862E-01    1.7502119508E-01    1.7424169553E-01    1.7346512330E-01
    1.7269147170E-01    1.7192073401E-01    1.7115290348E-01    1.7038797335E-01
    1.6962593682E-01    1.6886678707E-01    1.6811051726E-01    1.6735712054E-01
    1.6660659001E-01    1.6585891877E-01    1.6511409991E-01    1.6437212647E-01
    1.6363299148E-01    1.6289668798E-01    1.6216320895E-01    1.6143254738E-01
    1.6070469624E-01    1.5997964848E-01    1.5925739702E-01    1.5853793478E-01
    1.5782125468E-01    1.5710734960E-01    1.5639621240E-01    1.5568783596E-01
    1.5498221313E-01    1.5427933673E-01    1.5357919959E-01    1.5288179453E-01
    1.5218711435E-01    1.5149515183E-01    1.5080589976E-01    1.5011935091E-01
    1.4943549804E-01    1.4875433390E-01    1.4807585123E-01    1.4740004278E-01
    1.4672690126E-01    1.4605641940E-01    1.4538858991E-01    1.4472340550E-01
    1.4406085886E-01    1.4340094269E-01    1.4274364967E-01    1.4208897250E-01
    1.4143690384E-01    1.4078743637E-01    1.4014056276E-01    1.3949627567E-01
    1.3885456776E-01    1.3821543169E-01    1.3757886011E-01    1.3694484568E-01
    1.3631338103E-01    1.3568445883E-01    1.3505807170E-01    1.3443421230E-01
    1.3381287326E-01    1.3319404723E-01    1.3257772684E-01    1.3196390473E-01
    1.3135257354E-01    1.3074372590E-01    1.3013735446E-01    1.2953345185E-01
    1.2893201071E-01    1.2833302368E-01    1.2773648340E-01    1.2714238251E-01
    1.2655071365E-01    1.2596146948E-01    1.2537464263E-01    1.2479022575E-01
    1.2420821150E-01    1.2362859253E-01    1.2305136150E-01    1.2247651106E-01
    1.2190403389E-01    1.2133392264E-01    1.2076616998E-01    1.2020076859E-01
    1.1963771115E-01    1.1907699033E-01    1.1851859883E-01    1.1796252933E-01
    1.1740877453E-01    1.1685732713E-01    1.1630817983E-01    1.1576132535E-01
    1.1521675639E-01    1.1467446568E-01    1.1413444595E-01    1.1359668993E-01
    1.1306119035E-01    1.1252793997E-01    1.1199693153E-01    1.1146815778E-01
    1.1094161150E-01    1.1041728545E-01    1.0989517242E-01    1.0937526518E-01
    1.0885755652E-01    1.0834203925E-01    1.0782870618E-01    1.0731755010E-01
    1.0680856386E-01    1.0630174028E-01    1.0579707218E-01    1.0529455243E-01
    1.0479417388E-01    1.0429592937E-01    1.0379981180E-01    1.0330581403E-01
    1.0281392895E-01    1.0232414947E-01    1.0183646848E-01    1.0135087890E-01
    1.0086737365E-01    1.0038594567E-01    9.9906587902E-02    9.9429293296E-02
    9.8954054813E-02    9.8480865425E-02    9.8009718114E-02    9.7540605869E-02
    9.7073521693E-02    9.6608458597E-02    9.6145409603E-02    9.5684367741E-02
    9.5225326055E-02    9.4768277596E-02    9.4313215430E-02    9.3860132629E-02
    9.3409022279E-02    9.2959877475E-02    9.2512691325E-02    9.2067456945E-02
    9.1624167466E-02    9.1182816028E-02    9.0743395781E-02    9.0305899890E-02
    8.9870321529E-02    8.9436653884E-02    8.9004890152E-02    8.8575023544E-02
    8.8147047280E-02    8.7720954595E-02    8.7296738733E-02    8.6874392951E-02
    8.6453910520E-02    8.6035284721E-02    8.5618508848E-02    8.5203576207E-02
    8.4790480117E-02    8.4379213910E-02    8.3969770929E-02    8.3562144531E-02
    8.3156328085E-02    8.2752314973E-02    8.2350098590E-02    8.1949672344E-02
    8.1551029655E-02    8.1154163957E-02    8.0759068697E-02    8.0365737336E-02
    7.9974163345E-02    7.9584340213E-02    7.9196261438E-02    7.8809920535E-02
    7.8425311029E-02    7.8042426462E-02    7.7661260386E-02    7.7281806370E-02
    7.6904057995E-02    7.6528008856E-02    7.6153652560E-02    7.5780982732E-02
    7.5409993006E-02    7.5040677035E-02    7.4673028481E-02    7.4307041024E-02
    7.3942708357E-02    7.3580024185E-02    7.3218982229E-02    7.2859576226E-02
    7.2501799923E-02    7.2145647085E-02    7.1791111491E-02    7.1438186932E-02
    7.1086867215E-02    7.0737146163E-02    7.0389017610E-02    7.0042475408E-02
    6.9697513422E-02    6.9354125531E-02    6.9012305631E-02    6.8672047630E-02
    6.8333345453E-02    6.7996193038E-02    6.7660584340E-02    6.7326513327E-02
    6.6993973983E-02    6.6662960306E-02    6.6333466309E-02    6.6005486021E-02
    6.5679013486E-02    6.5354042762E-02    6.5030567924E-02    6.4708583059E-02
    6.4388082272E-02    6.4069059682E-02    6.3751509424E-02    6.3435425648E-02
    6.3120802518E-02    6.2807634215E-02    6.2495914934E-02    6.2185638886E-02
    6.1876800298E-02    6.1569393412E-02    6.1263412485E-02    6.0958851788E-02
    6.0655705612E-02    6.0353968258E-02    6.0053634047E-02    5.9754697312E-02
    5.9457152405E-02    5.9160993690E-02    5.8866215550E-02    5.8572812381E-02
    5.8280778595E-02    5.7990108621E-02    5.7700796903E-02    5.7412837900E-02
    5.7126226088E-02    5.6840955957E-02    5.6557022014E-02    5.6274418782E-02
    5.5993140797E-02    5.5713182615E-02    5.5434538805E-02    5.5157203952E-02
    5.4881172657E-02    5.4606439537E-02    5.4332999225E-02    5.4060846369E-02
    5.3789975634E-02    5.3520381699E-02    5.3252059261E-02    5.2985003032E-02
    5.2719207738E-02    5.2454668125E-02    5.2191378950E-02    5.1929334989E-02
    5.1668531033E-02    5.1408961890E-02    5.1150622381E-02    5.0893507345E-02
    5.0637611637E-02    5.0382930127E-02    5.0129457702E-02    4.9877189263E-02
    4.9626119729E-02    4.9376244033E-02    4.9127557125E-02    4.8880053970E-02
    4.8633729551E-02    4.8388578863E-02    4.8144596921E-02    4.7901778754E-02
    4.7660119405E-02    4.7419613937E-02    4.7180257425E-02    4.6942044961E-02
    4.6704971655E-02    4.6469032630E-02    4.6234223025E-02    4.6000537997E-02
    4.5767972717E-02    4.5536522372E-02    4.5306182166E-02    4.5076947316E-02
    4.4848813059E-02    4.4621774643E-02    4.4395827335E-02    4.4170966417E-02
    4.3947187187E-02    4.3724484957E-02    4.3502855058E-02    4.3282292832E-02
    4.3062793642E-02    4.2844352862E-02    4.2626965885E-02    4.2410628117E-02
    4.2195334983E-02    4.1981081919E-02    4.1767864382E-02    4.1555677839E-02
    4.1344517777E-02    4.1134379697E-02    4.0925259115E-02    4.0717151562E-02
    4.0510052587E-02    4.0303957753E-02    4.0098862637E-02    3.9894762833E-02
    3.9691653951E-02    3.9489531616E-02    3.9288391468E-02    3.9088229162E-02
    3.8889040368E-02    3.8690820774E-02    3.8493566081E-02    3.8297272006E-02
    3.8101934280E-02    3.7907548651E-02    3.7714110881E-02    3.7521616749E-02
    3.7330062048E-02    3.7139442585E-02    3.6949754184E-02    3.6760992684E-02
    3.6573153937E-02    3.6386233813E-02    3.6200228195E-02    3.6015132983E-02
    3.5830944089E-02    3.5647657442E-02    3.5465268987E-02    3.5283774682E-02
    3.5103170500E-02    3.4923452429E-02    3.4744616474E-02    3.4566658652E-02
    3.4389574996E-02    3.4213361555E-02    3.4038014389E-02    3.3863529577E-02
    3.3689903210E-02    3.3517131396E-02    3.3345210255E-02    3.3174135923E-02
    3.3003904550E-02    3.2834512302E-02    3.2665955359E-02    3.2498229913E-02
    3.2331332174E-02    3.2165258365E-02    3.2000004724E-02    3.1835567501E-02
    3.1671942963E-02    3.1509127391E-02    3.1347117079E-02    3.1185908337E-02
    3.1025497488E-02    3.0865880869E-02    3.0707054833E-02    3.0549015744E-02
    3.0391759984E-02    3.0235283945E-02    3.0079584037E-02    2.9924656681E-02
    2.9770498314E-02    2.9617105386E-02    2.9464474360E-02    2.9312601715E-02
    2.9161483943E-02    2.9011117549E-02    2.8861499053E-02    2.8712624988E-02
    2.8564491900E-02    2.8417096352E-02    2.8270434917E-02    2.8124504182E-02
    2.7979300751E-02    2.7834821237E-02    2.7691062270E-02    2.7548020492E-02
    2.7405692558E-02    2.7264075138E-02    2.7123164914E-02    2.6982958582E-02
    2.6843452852E-02    2.6704644446E-02    2.6566530100E-02    2.6429106562E-02
    2.6292370595E-02    2.6156318976E-02    2.6020948491E-02    2.5886255942E-02
    2.5752238146E-02    2.5618891928E-02    2.5486214130E-02    2.5354201606E-02
    2.5222851222E-02    2.5092159858E-02    2.4962124405E-02    2.4832741770E-02
    2.4704008869E-02    2.4575922634E-02    2.4448480008E-02    2.4321677947E-02
    2.4195513420E-02    2.4069983407E-02    2.3945084904E-02    2.3820814915E-02
    2.3697170460E-02    2.3574148571E-02    2.3451746290E-02    2.3329960674E-02
    2.3208788791E-02    2.3088227723E-02    2.2968274562E-02    2.2848926413E-02
    2.2730180394E-02    2.2612033634E-02    2.2494483276E-02    2.2377526472E-02
    2.2261160390E-02    2.2145382206E-02    2.2030189110E-02    2.1915578305E-02
    2.1801547004E-02    2.1688092433E-02    2.1575211829E-02    2.1462902441E-02
    2.1351161530E-02    2.1239986370E-02    2.1129374244E-02    2.1019322448E-02
    2.0909828290E-02    2.0800889089E-02    2.0692502177E-02    2.0584664894E-02
    2.0477374596E-02    2.0370628646E-02    2.0264424422E-02    2.0158759312E-02
    2.0053630714E-02    1.9949036039E-02    1.9844972709E-02    1.9741438157E-02
    1.9638429827E-02    1.9535945174E-02    1.9433981664E-02    1.9332536775E-02
    1.9231607995E-02    1.9131192824E-02    1.9031288771E-02    1.8931893359E-02
    1.8833004119E-02    1.8734618593E-02    1.8636734337E-02    1.8539348914E-02
    1.8442459899E-02    1.8346064879E-02    1.8250161450E-02    1.8154747219E-02
    1.8059819804E-02    1.7965376833E-02    1.7871415946E-02    1.7777934791E-02
    1.7684931027E-02    1.7592402326E-02    1.7500346368E-02    1.7408760843E-02
    1.7317643452E-02    1.7226991907E-02    1.7136803930E-02    1.7047077251E-02
    1.6957809614E-02    1.6868998769E-02    1.6780642479E-02    1.6692738516E-02
    1.6605284662E-02    1.6518278709E-02    1.6431718459E-02    1.6345601723E-02
    1.6259926324E-02    1.6174690093E-02    1.6089890871E-02    1.6005526509E-02
    1.5921594868E-02    1.5838093819E-02    1.5755021240E-02    1.5672375023E-02
    1.5590153066E-02    1.5508353277E-02    1.5426973576E-02    1.5346011890E-02
    1.5265466156E-02    1.5185334320E-02    1.5105614338E-02    1.5026304176E-02
    1.4947401807E-02    1.4868905217E-02    1.4790812397E-02    1.4713121349E-02
    1.4635830086E-02    1.4558936626E-02    1.4482439000E-02    1.4406335247E-02
    1.4330623413E-02    1.4255301555E-02    1.4180367738E-02    1.4105820037E-02
    1.4031656535E-02    1.3957875324E-02    1.3884474504E-02    1.3811452185E-02
    1.3738806486E-02    1.3666535533E-02    1.3594637463E-02    1.3523110418E-02
    1.3451952552E-02    1.3381162028E-02    1.3310737013E-02    1.3240675687E-02
    1.3170976238E-02    1.3101636859E-02    1.3032655755E-02    1.2964031138E-02
    1.2895761229E-02    1.2827844255E-02    1.2760278455E-02    1.2693062072E-02
    1.2626193361E-02    1.2559670584E-02    1.2493492009E-02    1.2427655915E-02
    1.2362160587E-02    1.2297004319E-02    1.2232185414E-02    1.2167702180E-02
    1.2103552936E-02    1.2039736008E-02    1.1976249729E-02    1.1913092440E-02
    1.1850262491E-02    1.1787758238E-02    1.1725578046E-02    1.1663720288E-02
    1.1602183344E-02    1.1540965602E-02    1.1480065456E-02    1.1419481310E-02
    1.1359211574E-02    1.1299254667E-02    1.1239609014E-02    1.1180273047E-02
    1.1121245208E-02    1.1062523944E-02    1.1004107710E-02    1.0945994969E-02
    1.0888184191E-02    1.0830673852E-02    1.0773462437E-02    1.0716548438E-02
    1.0659930354E-02    1.0603606689E-02    1.0547575958E-02    1.0491836681E-02
    1.0436387383E-02    1.0381226601E-02    1.0326352875E-02    1.0271764753E-02
    1.0217460791E-02    1.0163439549E-02    1.0109699599E-02    1.0056239515E-02
    1.0003057879E-02    9.9501532821E-03    9.8975243196E-03    9.8451695946E-03
    9.7930877168E-03    9.7412773026E-03    9.6897369749E-03    9.6384653634E-03
    9.5874611044E-03    9.5367228407E-03    9.4862492215E-03    9.4360389028E-03
    9.3860905469E-03    9.3364028227E-03    9.2869744053E-03    9.2378039765E-03
    9.1888902241E-03    9.1402318427E-03    9.0918275328E-03    9.0436760014E-03
    8.9957759618E-03    8.9481261334E-03    8.9007252420E-03    8.8535720193E-03
    8.8066652034E-03    8.7600035385E-03    8.7135857748E-03    8.6674106685E-03
    8.6214769822E-03    8.5757834842E-03    8.5303289488E-03    8.4851121564E-03
    8.4401318933E-03    8.3953869518E-03    8.3508761298E-03    8.3065982315E-03
    8.2625520665E-03    8.2187364506E-03    8.1751502050E-03    8.1317921570E-03
    8.0886611395E-03    8.0457559910E-03    8.0030755559E-03    7.9606186840E-03
    7.9183842310E-03    7.8763710580E-03    7.8345780319E-03    7.7930040249E-03
    7.7516479148E-03    7.7105085852E-03    7.6695849247E-03    7.6288758278E-03
    7.5883801940E-03    7.5480969287E-03    7.5080249424E-03    7.4681631508E-03
    7.4285104753E-03    7.3890658425E-03    7.3498281840E-03    7.3107964371E-03
    7.2719695440E-03    7.2333464524E-03    7.1949261150E-03    7.1567074896E-03
    7.1186895394E-03    7.0808712325E-03    7.0432515422E-03    7.0058294469E-03
    6.9686039301E-03    6.9315739800E-03    6.8947385902E-03    6.8580967592E-03
    6.8216474903E-03    6.7853897918E-03    6.7493226770E-03    6.7134451641E-03
    6.6777562760E-03    6.6422550407E-03    6.6069404908E-03    6.5718116637E-03
    6.5368676019E-03    6.5021073522E-03    6.4675299666E-03    6.4331345014E-03
    6.3989200178E-03    6.3648855818E-03    6.3310302637E-03    6.2973531389E-03
    6.2638532869E-03    6.2305297921E-03    6.1973817434E-03    6.1644082343E-03
    6.1316083627E-03    6.0989812310E-03    6.0665259463E-03    6.0342416199E-03
    6.0021273676E-03    5.9701823098E-03    5.9384055711E-03    5.9067962804E-03
    5.8753535713E-03    5.8440765815E-03    5.8129644529E-03    5.7820163320E-03
    5.7512313693E-03    5.7206087198E-03    5.6901475425E-03    5.6598470008E-03
    5.6297062622E-03    5.5997244983E-03    5.5699008852E-03    5.5402346026E-03
    5.5107248349E-03    5.4813707701E-03    5.4521716005E-03    5.4231265226E-03
    5.3942347366E-03    5.3654954471E-03    5.3369078624E-03    5.3084711949E-03
    5.2801846611E-03    5.2520474811E-03    5.2240588792E-03    5.1962180836E-03
    5.1685243264E-03    5.1409768434E-03    5.1135748743E-03    5.0863176629E-03
    5.0592044564E-03    5.0322345061E-03    5.0054070670E-03    4.9787213979E-03
    4.9521767612E-03    4.9257724232E-03    4.8995076538E-03    4.8733817266E-03
    4.8473939190E-03    4.8215435118E-03    4.7958297897E-03    4.7702520409E-03
    4.7448095572E-03    4.7195016341E-03    4.6943275704E-03    4.6692866687E-03
    4.6443782351E-03    4.6196015792E-03    4.5949560140E-03    4.5704408561E-03
    4.5460554255E-03    4.5217990457E-03    4.4976710437E-03    4.4736707497E-03
    4.4497974976E-03    4.4260506243E-03    4.4024294705E-03    4.3789333800E-03
    4.3555616998E-03    4.3323137806E-03    4.3091889762E-03    4.2861866435E-03
    4.2633061431E-03    4.2405468385E-03    4.2179080965E-03    4.1953892873E-03
    4.1729897841E-03    4.1507089635E-03    4.1285462050E-03    4.1065008916E-03
    4.0845724092E-03    4.0627601469E-03    4.0410634969E-03    4.0194818545E-03
    3.9980146182E-03    3.9766611894E-03    3.9554209728E-03    3.9342933757E-03
    3.9132778090E-03    3.8923736861E-03    3.8715804237E-03    3.8508974414E-03
    3.8303241618E-03    3.8098600104E-03    3.7895044156E-03    3.7692568088E-03
    3.7491166244E-03    3.7290832995E-03    3.7091562741E-03    3.6893349913E-03
    3.6696188968E-03    3.6500074392E-03    3.6305000700E-03    3.6110962435E-03
    3.5917954168E-03    3.5725970496E-03    3.5535006047E-03    3.5345055474E-03
    3.5156113458E-03    3.4968174708E-03    3.4781233959E-03    3.4595285975E-03
    3.4410325545E-03    3.4226347485E-03    3.4043346638E-03    3.3861317874E-03
    3.3680256089E-03    3.3500156206E-03    3.3321013171E-03    3.3142821960E-03
    3.2965577572E-03    3.2789275034E-03    3.2613909396E-03    3.2439475737E-03
    3.2265969157E-03    3.2093384785E-03    3.1921717773E-03    3.1750963299E-03
    3.1581116564E-03    3.1412172797E-03    3.1244127248E-03    3.1076975194E-03
    3.0910711936E-03    3.0745332798E-03    3.0580833129E-03    3.0417208303E-03
    3.0254453715E-03    3.0092564786E-03    2.9931536961E-03    2.9771365708E-03
    2.9612046517E-03    2.9453574902E-03    2.9295946402E-03    2.9139156577E-03
    2.8983201010E-03    2.8828075308E-03    2.8673775100E-03    2.8520296038E-03
    2.8367633795E-03    2.8215784069E-03    2.8064742579E-03    2.7914505064E-03
    2.7765067289E-03    2.7616425038E-03    2.7468574118E-03    2.7321510357E-03
    2.7175229606E-03    2.7029727736E-03    2.6885000640E-03    2.6741044233E-03
    2.6597854449E-03    2.6455427245E-03    2.6313758599E-03    2.6172844510E-03
    2.6032680995E-03    2.5893264095E-03    2.5754589870E-03    2.5616654401E-03
    2.5479453788E-03    2.5342984154E-03    2.5207241639E-03    2.5072222405E-03
    2.4937922632E-03    2.4804338524E-03    2.4671466299E-03    2.4539302200E-03
    2.4407842485E-03    2.4277083435E-03    2.4147021348E-03    2.4017652543E-03
    2.3888973356E-03    2.3760980144E-03    2.3633669282E-03    2.3507037165E-03
    2.3381080205E-03    2.3255794833E-03    2.3131177500E-03    2.3007224674E-03
    2.2883932842E-03    2.2761298510E-03    2.2639318200E-03    2.2517988455E-03
    2.2397305833E-03    2.2277266913E-03    2.2157868289E-03    2.2039106575E-03
    2.1920978402E-03    2.1803480416E-03    2.1686609285E-03    2.1570361692E-03
    2.1454734336E-03    2.1339723935E-03    2.1225327224E-03    2.1111540955E-03
    2.0998361897E-03    2.0885786834E-03    2.0773812570E-03    2.0662435923E-03
    2.0551653729E-03    2.0441462841E-03    2.0331860125E-03    2.0222842469E-03
    2.0114406772E-03    2.0006549953E-03    1.9899268944E-03    1.9792560695E-03
    1.9686422172E-03    1.9580850356E-03    1.9475842244E-03    1.9371394849E-03
    1.9267505199E-03    1.9164170338E-03    1.9061387326E-03    1.8959153238E-03
    1.8857465162E-03    1.8756320206E-03    1.8655715488E-03    1.8555648146E-03
    1.8456115328E-03    1.8357114201E-03    1.8258641946E-03    1.8160695756E-03
    1.8063272842E-03    1.7966370427E-03    1.7869985752E-03    1.7774116069E-03
    1.7678758646E-03    1.7583910765E-03    1.7489569721E-03    1.7395732827E-03
    1.7302397406E-03    1.7209560796E-03    1.7117220351E-03    1.7025373437E-03
    1.6934017433E-03    1.6843149735E-03    1.6752767748E-03    1.6662868895E-03
    1.6573450611E-03    1.6484510343E-03    1.6396045554E-03    1.6308053717E-03
    1.6220532322E-03    1.6133478870E-03    1.6046890874E-03    1.5960765863E-03
    1.5875101377E-03    1.5789894970E-03    1.5705144207E-03    1.5620846668E-03
    1.5536999944E-03    1.5453601641E-03    1.5370649374E-03    1.5288140774E-03
    1.5206073483E-03    1.5124445154E-03    1.5043253455E-03    1.4962496064E-03
    1.4882170673E-03    1.4802274985E-03    1.4722806715E-03    1.4643763591E-03
    1.4565143352E-03    1.4486943750E-03    1.4409162547E-03    1.4331797518E-03
    1.4254846450E-03    1.4178307141E-03    1.4102177401E-03    1.4026455051E-03
    1.3951137925E-03    1.3876223865E-03    1.3801710728E-03    1.3727596381E-03
    1.3653878701E-03    1.3580555578E-03    1.3507624912E-03    1.3435084615E-03
    1.3362932609E-03    1.3291166828E-03    1.3219785215E-03    1.3148785727E-03
    1.3078166327E-03    1.3007924995E-03    1.2938059715E-03    1.2868568488E-03
    1.2799449320E-03    1.2730700231E-03    1.2662319250E-03    1.2594304417E-03
    1.2526653782E-03    1.2459365405E-03    1.2392437357E-03    1.2325867720E-03
    1.2259654583E-03    1.2193796048E-03    1.2128290225E-03    1.2063135237E-03
    1.1998329213E-03    1.1933870295E-03    1.1869756632E-03    1.1805986386E-03
    1.1742557727E-03    1.1679468833E-03    1.1616717895E-03    1.1554303112E-03
    1.1492222691E-03    1.1430474851E-03    1.1369057819E-03    1.1307969832E-03
    1.1247209135E-03    1.1186773985E-03    1.1126662644E-03    1.1066873387E-03
    1.1007404497E-03    1.0948254266E-03    1.0889420994E-03    1.0830902991E-03
    1.0772698576E-03    1.0714806077E-03    1.0657223830E-03    1.0599950180E-03
    1.0542983482E-03    1.0486322098E-03    1.0429964400E-03    1.0373908767E-03
   </PP_CHI.6>
 </PP_PSWFC>
 <PP_NLCC type="real"  size="1680" columns="4">
    3.6979242051E+00    3.6971022350E+00    3.6946373511E+00    3.6905326309E+00
    3.6847931965E+00    3.6774262050E+00    3.6684408347E+00    3.6578482666E+00
    3.6456616630E+00    3.6318961420E+00    3.6165687478E+00    3.5996984181E+00
    3.5813059468E+00    3.5614139445E+00    3.5400467947E+00    3.5172306066E+00
    3.4929931657E+00    3.4673638801E+00    3.4403737248E+00    3.4120551831E+00
    3.3824421848E+00    3.3515700426E+00    3.3194753858E+00    3.2861960919E+00
    3.2517712165E+00    3.2162409211E+00    3.1796463989E+00    3.1420298005E+00
    3.1034341564E+00    3.0639033001E+00    3.0234817895E+00    2.9822148274E+00
    2.9401481823E+00    2.8973281078E+00    2.8538012629E+00    2.8096146313E+00
    2.7648154420E+00    2.7194510890E+00    2.6735690532E+00    2.6272168232E+00
    2.5804418186E+00    2.5332913135E+00    2.4858123616E+00    2.4380517223E+00
    2.3900557888E+00    2.3418705181E+00    2.2935413617E+00    2.2451131996E+00
    2.1966302760E+00    2.1481361363E+00    2.0996735682E+00    2.0512845432E+00
    2.0030101625E+00    1.9548906042E+00    1.9069650740E+00    1.8592717578E+00
    1.8118477786E+00    1.7647291545E+00    1.7179507608E+00    1.6715462952E+00
    1.6255482451E+00    1.5799878587E+00    1.5348951187E+00    1.4902987197E+00
    1.4462260475E+00    1.4027031626E+00    1.3597547862E+00    1.3174042891E+00
    1.2756736837E+00    1.2345836190E+00    1.1941533785E+00    1.1544008803E+00
    1.1153426810E+00    1.0769939816E+00    1.0393686359E+00    1.0024791619E+00
    9.6633675559E-01    9.3095130652E-01    8.9633141652E-01    8.6248441995E-01
    8.2941640628E-01    7.9713224456E-01    7.6563560987E-01    7.3492901138E-01
    7.0501382216E-01    6.7589031050E-01    6.4755767262E-01    6.2001406669E-01
    5.9325664809E-01    5.6728160565E-01    5.4208419893E-01    5.1765879625E-01
    4.9399891353E-01    4.7109725370E-01    4.4894574655E-01    4.2753558905E-01
    4.0685728593E-01    3.8690069033E-01    3.6765504466E-01    3.4910902130E-01
    3.3125076321E-01    3.1406792433E-01    2.9754770959E-01    2.8167691454E-01
    2.6644196453E-01    2.5182895321E-01    2.3782368041E-01    2.2441168936E-01
    2.1157830303E-01    1.9930865960E-01    1.8758774708E-01    1.7640043693E-01
    1.6573151657E-01    1.5556572098E-01    1.4588776302E-01    1.3668236271E-01
    1.2793427529E-01    1.1962831807E-01    1.1174939603E-01    1.0428252623E-01
    9.7212860876E-02    9.0525709165E-02    8.4206557811E-02    7.8241090308E-02
    7.2615204903E-02    6.7315031283E-02    6.2326945994E-02    5.7637586610E-02
    5.3233864642E-02    4.9102977235E-02    4.5232417656E-02    4.1609984598E-02
    3.8223790337E-02    3.5062267759E-02    3.2114176292E-02    2.9368606782E-02
    2.6814985336E-02    2.4443076180E-02    2.2242983560E-02    2.0205152736E-02
    1.8320370098E-02    1.6579762449E-02    1.4974795506E-02    1.3497271644E-02
    1.2139326943E-02    1.0893427564E-02    9.7523655216E-03    8.7092538616E-03
    7.7575213235E-03    6.8909065031E-03    6.1034515696E-03    5.3894955770E-03
    4.7436674086E-03    4.1608783962E-03    3.6363146527E-03    3.1654291548E-03
    2.7439336152E-03    2.3677901773E-03    2.0332029688E-03    1.7366095465E-03
    1.4746722642E-03    1.2442695942E-03    1.0424874314E-03    8.6661040686E-04
    7.1411323775E-04    5.8265213706E-04    4.7005630659E-04    3.7431953431E-04
    2.9359191581E-04    2.2617171817E-04    1.7049740284E-04    1.2513982285E-04
    8.8794607923E-05    6.0274749849E-05    3.8503398846E-05    2.2506880436E-05
    1.1407940848E-05    4.4192277699E-06    8.3701193888E-07    3.5153905455E-08
    1.4593191016E-06    4.6214432680E-06    9.0944492315E-06    1.4507215036E-05
    2.0539792489E-05    2.6918874324E-05    3.3413507327E-05    3.9831048077E-05
    4.6013357174E-05    5.1833227254E-05    5.7191039487E-05    6.2011642700E-05
    6.6241448859E-05    6.9845738170E-05    7.2806166752E-05    7.5118469502E-05
    7.6790350509E-05    7.7839553216E-05    7.8292102303E-05    7.8180709208E-05
    7.7543333105E-05    7.6421889124E-05    7.4861095630E-05    7.2907452386E-05
    7.0608341540E-05    6.8011243460E-05    6.5163059571E-05    6.2109534543E-05
    5.8894770328E-05    5.5560824784E-05    5.2147387817E-05    4.8691528242E-05
    4.5227504816E-05    4.1786635145E-05    3.8397216495E-05    3.5084492741E-05
    3.1870662085E-05    2.8774920373E-05    2.5813535233E-05    2.2999946464E-05
    2.0344888480E-05    1.7856530870E-05    1.5540633448E-05    1.3400712453E-05
    1.1438214799E-05    9.6526976397E-06    8.0420106911E-06    6.6024790695E-06
    5.3290846007E-06    4.2156438550E-06    3.2549813461E-06    2.4390965596E-06
    1.7593236655E-06    1.2064829982E-06    7.7102354585E-07    4.4315583107E-07
    2.1297476885E-07    7.0572208382E-08    6.1389967640E-09    1.0056503123E-08
    7.2977694750E-08    1.8589792267E-07    3.4021564235E-07    5.2778341470E-07
    7.4094956977E-07    9.7259096378E-07    1.2161373243E-06    1.4655877097E-06
    1.7155196279E-06    1.9610913901E-06    2.1980382890E-06    2.4226631882E-06
    2.6318221238E-06    2.8229055029E-06    2.9938154768E-06    3.1429400637E-06
    3.2691245561E-06    3.3716407413E-06    3.4501544477E-06    3.5046918693E-06
    3.5356051280E-06    3.5435374893E-06    3.5293885943E-06    3.4942800777E-06
    3.4395218815E-06    3.3665795268E-06    3.2770426279E-06    3.1725948361E-06
    3.0549853968E-06    2.9260025017E-06    2.7874485183E-06    2.6411172183E-06
    2.4887730693E-06    2.3321326060E-06    2.1728479363E-06    2.0124923436E-06
    1.8525479718E-06    1.6943955592E-06    1.5393061357E-06    1.3884346341E-06
    1.2428153093E-06    1.1033588694E-06    9.7085121898E-07    8.4595368390E-07
    7.2920461002E-07    6.2102219939E-07    5.2170846230E-07    4.3145415073E-07
    3.5034454887E-07    2.7836598686E-07    2.1541295726E-07    1.6129571142E-07
    1.1574821231E-07    7.8436346858E-08    4.8966268089E-08    2.6892795391E-08
    1.1727754344E-08    2.9481896909E-09    4.3667692590E-12    2.3274858851E-09
    9.3370679543E-09    2.0447926164E-08    3.5076717960E-08    5.2647997950E-08
    7.2599779092E-08    9.4388551564E-08    1.1749376034E-07    1.4142172756E-07
    1.6570901189E-07    1.8992522287E-07    2.1367527705E-07    2.3660113771E-07
    2.5838302569E-07    2.7874015404E-07    2.9743098608E-07    3.1425306668E-07
    3.2904244281E-07    3.4167271759E-07    3.5205376558E-07    3.6013015044E-07
    3.6587927787E-07    3.6930932449E-07    3.7045697522E-07    3.6938501123E-07
    3.6617977621E-07    3.6094856563E-07    3.5381695875E-07    3.4492614114E-07
    3.3443022724E-07    3.2249363376E-07    3.0928850255E-07    2.9499222544E-07
    2.7978505941E-07    2.6384788475E-07    2.4736008544E-07    2.3049760291E-07
    2.1343113511E-07    1.9632452840E-07    1.7933332948E-07    1.6260353922E-07
    1.4627053342E-07    1.3045818491E-07    1.1527815228E-07    1.0082936113E-07
    8.7197645349E-08    7.4455564962E-08    6.2662372228E-08    5.1864132860E-08
    4.2093979261E-08    3.3372493860E-08    2.5708204571E-08    1.9099092011E-08
    1.3529616114E-08    8.9741011235E-09    5.4043869215E-09    2.7786216949E-09
    1.0500345011E-09    1.6588875593E-10   -5.3728258807E-11    4.7913913575E-12
    2.4628325516E-11    7.7765962113E-13   -1.6388553641E-12   -5.0790732168E-13
   -8.0737130052E-13   -4.0149006192E-13    0.0000000000E+00    0.0000000000E+00
    0.0000000000E+00    0.0000000000E+00    0.0000000000E+00    0.0000000000E+00
    0.0000000000E+00    0.0000000000E+00    0.0000000000E+00    0.0000000000E+00
    0.0000000000E+00    0.0000000000E+00    0.0000000000E+00    0.0000000000E+00
    0.0000000000E+00    0.0000000000E+00    0.0000000000E+00    0.0000000000E+00
    0.0000000000E+00    0.0000000000E+00    0.0000000000E+00    0.0000000000E+00
    0.0000000000E+00    0.0000000000E+00    0.0000000000E+00    0.0000000000E+00
    0.0000000000E+00    0.0000000000E+00    0.0000000000E+00    0.0000000000E+00
    0.0000000000E+00    0.0000000000E+00    0.0000000000E+00    0.0000000000E+00
    0.0000000000E+00    0.0000000000E+00    0.0000000000E+00    0.0000000000E+00
    0.0000000000E+00    0.0000000000E+00    0.0000000000E+00    0.0000000000E+00
    0.0000000000E+00    0.0000000000E+00    0.0000000000E+00    0.0000000000E+00
    0.0000000000E+00    0.0000000000E+00    0.0000000000E+00    0.0000000000E+00
    0.0000000000E+00    0.0000000000E+00    0.0000000000E+00    0.0000000000E+00
    0.0000000000E+00    0.0000000000E+00    0.0000000000E+00    0.0000000000E+00
    0.0000000000E+00    0.0000000000E+00    0.0000000000E+00    0.0000000000E+00
    0.0000000000E+00    0.0000000000E+00    0.0000000000E+00    0.0000000000E+00
    0.0000000000E+00    0.0000000000E+00    0.0000000000E+00    0.0000000000E+00
    0.0000000000E+00    0.0000000000E+00    0.0000000000E+00    0.0000000000E+00
    0.0000000000E+00    0.0000000000E+00    0.0000000000E+00    0.0000000000E+00
    0.0000000000E+00    0.0000000000E+00    0.0000000000E+00    0.0000000000E+00
    0.0000000000E+00    0.0000000000E+00    0.0000000000E+00    0.0000000000E+00
    0.0000000000E+00    0.0000000000E+00    0.0000000000E+00    0.0000000000E+00
    0.0000000000E+00    0.0000000000E+00    0.0000000000E+00    0.0000000000E+00
    0.0000000000E+00    0.0000000000E+00    0.0000000000E+00    0.0000000000E+00
    0.0000000000E+00    0.0000000000E+00    0.0000000000E+00    0.0000000000E+00
    0.0000000000E+00    0.0000000000E+00    0.0000000000E+00    0.0000000000E+00
    0.0000000000E+00    0.0000000000E+00    0.0000000000E+00    0.0000000000E+00
    0.0000000000E+00    0.0000000000E+00    0.0000000000E+00    0.0000000000E+00
    0.0000000000E+00    0.0000000000E+00    0.0000000000E+00    0.0000000000E+00
    0.0000000000E+00    0.0000000000E+00    0.0000000000E+00    0.0000000000E+00
    0.0000000000E+00    0.0000000000E+00    0.0000000000E+00    0.0000000000E+00
    0.0000000000E+00    0.0000000000E+00    0.0000000000E+00    0.0000000000E+00
    0.0000000000E+00    0.0000000000E+00    0.0000000000E+00    0.0000000000E+00
    0.0000000000E+00    0.0000000000E+00    0.0000000000E+00    0.0000000000E+00
    0.0000000000E+00    0.0000000000E+00    0.0000000000E+00    0.0000000000E+00
    0.0000000000E+00    0.0000000000E+00    0.0000000000E+00    0.0000000000E+00
    0.0000000000E+00    0.0000000000E+00    0.0000000000E+00    0.0000000000E+00
    0.0000000000E+00    0.0000000000E+00    0.0000000000E+00    0.0000000000E+00
    0.0000000000E+00    0.0000000000E+00    0.0000000000E+00    0.0000000000E+00
    0.0000000000E+00    0.0000000000E+00    0.0000000000E+00    0.0000000000E+00
    0.0000000000E+00    0.0000000000E+00    0.0000000000E+00    0.0000000000E+00
    0.0000000000E+00    0.0000000000E+00    0.0000000000E+00    0.0000000000E+00
    0.0000000000E+00    0.0000000000E+00    0.0000000000E+00    0.0000000000E+00
    0.0000000000E+00    0.0000000000E+00    0.0000000000E+00    0.0000000000E+00
    0.0000000000E+00    0.0000000000E+00    0.0000000000E+00    0.0000000000E+00
    0.0000000000E+00    0.0000000000E+00    0.0000000000E+00    0.0000000000E+00
    0.0000000000E+00    0.0000000000E+00    0.0000000000E+00    0.0000000000E+00
    0.0000000000E+00    0.0000000000E+00    0.0000000000E+00    0.0000000000E+00
    0.0000000000E+00    0.0000000000E+00    0.0000000000E+00    0.0000000000E+00
    0.0000000000E+00    0.0000000000E+00    0.0000000000E+00    0.0000000000E+00
    0.0000000000E+00    0.0000000000E+00    0.0000000000E+00    0.0000000000E+00
    0.0000000000E+00    0.0000000000E+00    0.0000000000E+00    0.0000000000E+00
    0.0000000000E+00    0.0000000000E+00    0.0000000000E+00    0.0000000000E+00
    0.0000000000E+00    0.0000000000E+00    0.0000000000E+00    0.0000000000E+00
    0.0000000000E+00    0.0000000000E+00    0.0000000000E+00    0.0000000000E+00
    0.0000000000E+00    0.0000000000E+00    0.0000000000E+00    0.0000000000E+00
    0.0000000000E+00    0.0000000000E+00    0.0000000000E+00    0.0000000000E+00
    0.0000000000E+00    0.0000000000E+00    0.0000000000E+00    0.0000000000E+00
    0.0000000000E+00    0.0000000000E+00    0.0000000000E+00    0.0000000000E+00
    0.0000000000E+00    0.0000000000E+00    0.0000000000E+00    0.0000000000E+00
    0.0000000000E+00    0.0000000000E+00    0.0000000000E+00    0.0000000000E+00
    0.0000000000E+00    0.0000000000E+00    0.0000000000E+00    0.0000000000E+00
    0.0000000000E+00    0.0000000000E+00    0.0000000000E+00    0.0000000000E+00
    0.0000000000E+00    0.0000000000E+00    0.0000000000E+00    0.0000000000E+00
    0.0000000000E+00    0.0000000000E+00    0.0000000000E+00    0.0000000000E+00
    0.0000000000E+00    0.0000000000E+00    0.0000000000E+00    0.0000000000E+00
    0.0000000000E+00    0.0000000000E+00    0.0000000000E+00    0.0000000000E+00
    0.0000000000E+00    0.0000000000E+00    0.0000000000E+00    0.0000000000E+00
    0.0000000000E+00    0.0000000000E+00    0.0000000000E+00    0.0000000000E+00
    0.0000000000E+00    0.0000000000E+00    0.0000000000E+00    0.0000000000E+00
    0.0000000000E+00    0.0000000000E+00    0.0000000000E+00    0.0000000000E+00
    0.0000000000E+00    0.0000000000E+00    0.0000000000E+00    0.0000000000E+00
    0.0000000000E+00    0.0000000000E+00    0.0000000000E+00    0.0000000000E+00
    0.0000000000E+00    0.0000000000E+00    0.0000000000E+00    0.0000000000E+00
    0.0000000000E+00    0.0000000000E+00    0.0000000000E+00    0.0000000000E+00
    0.0000000000E+00    0.0000000000E+00    0.0000000000E+00    0.0000000000E+00
    0.0000000000E+00    0.0000000000E+00    0.0000000000E+00    0.0000000000E+00
    0.0000000000E+00    0.0000000000E+00    0.0000000000E+00    0.0000000000E+00
    0.0000000000E+00    0.0000000000E+00    0.0000000000E+00    0.0000000000E+00
    0.0000000000E+00    0.0000000000E+00    0.0000000000E+00    0.0000000000E+00
    0.0000000000E+00    0.0000000000E+00    0.0000000000E+00    0.0000000000E+00
    0.0000000000E+00    0.0000000000E+00    0.0000000000E+00    0.0000000000E+00
    0.0000000000E+00    0.0000000000E+00    0.0000000000E+00    0.0000000000E+00
    0.0000000000E+00    0.0000000000E+00    0.0000000000E+00    0.0000000000E+00
    0.0000000000E+00    0.0000000000E+00    0.0000000000E+00    0.0000000000E+00
    0.0000000000E+00    0.0000000000E+00    0.0000000000E+00    0.0000000000E+00
    0.0000000000E+00    0.0000000000E+00    0.0000000000E+00    0.0000000000E+00
    0.0000000000E+00    0.0000000000E+00    0.0000000000E+00    0.0000000000E+00
    0.0000000000E+00    0.0000000000E+00    0.0000000000E+00    0.0000000000E+00
    0.0000000000E+00    0.0000000000E+00    0.0000000000E+00    0.0000000000E+00
    0.0000000000E+00    0.0000000000E+00    0.0000000000E+00    0.0000000000E+00
    0.0000000000E+00    0.0000000000E+00    0.0000000000E+00    0.0000000000E+00
    0.0000000000E+00    0.0000000000E+00    0.0000000000E+00    0.0000000000E+00
    0.0000000000E+00    0.0000000000E+00    0.0000000000E+00    0.0000000000E+00
    0.0000000000E+00    0.0000000000E+00    0.0000000000E+00    0.0000000000E+00
    0.0000000000E+00    0.0000000000E+00    0.0000000000E+00    0.0000000000E+00
    0.0000000000E+00    0.0000000000E+00    0.0000000000E+00    0.0000000000E+00
    0.0000000000E+00    0.0000000000E+00    0.0000000000E+00    0.0000000000E+00
    0.0000000000E+00    0.0000000000E+00    0.0000000000E+00    0.0000000000E+00
    0.0000000000E+00    0.0000000000E+00    0.0000000000E+00    0.0000000000E+00
    0.0000000000E+00    0.0000000000E+00    0.0000000000E+00    0.0000000000E+00
    0.0000000000E+00    0.0000000000E+00    0.0000000000E+00    0.0000000000E+00
    0.0000000000E+00    0.0000000000E+00    0.0000000000E+00    0.0000000000E+00
    0.0000000000E+00    0.0000000000E+00    0.0000000000E+00    0.0000000000E+00
    0.0000000000E+00    0.0000000000E+00    0.0000000000E+00    0.0000000000E+00
    0.0000000000E+00    0.0000000000E+00    0.0000000000E+00    0.0000000000E+00
    0.0000000000E+00    0.0000000000E+00    0.0000000000E+00    0.0000000000E+00
    0.0000000000E+00    0.0000000000E+00    0.0000000000E+00    0.0000000000E+00
    0.0000000000E+00    0.0000000000E+00    0.0000000000E+00    0.0000000000E+00
    0.0000000000E+00    0.0000000000E+00    0.0000000000E+00    0.0000000000E+00
    0.0000000000E+00    0.0000000000E+00    0.0000000000E+00    0.0000000000E+00
    0.0000000000E+00    0.0000000000E+00    0.0000000000E+00    0.0000000000E+00
    0.0000000000E+00    0.0000000000E+00    0.0000000000E+00    0.0000000000E+00
    0.0000000000E+00    0.0000000000E+00    0.0000000000E+00    0.0000000000E+00
    0.0000000000E+00    0.0000000000E+00    0.0000000000E+00    0.0000000000E+00
    0.0000000000E+00    0.0000000000E+00    0.0000000000E+00    0.0000000000E+00
    0.0000000000E+00    0.0000000000E+00    0.0000000000E+00    0.0000000000E+00
    0.0000000000E+00    0.0000000000E+00    0.0000000000E+00    0.0000000000E+00
    0.0000000000E+00    0.0000000000E+00    0.0000000000E+00    0.0000000000E+00
    0.0000000000E+00    0.0000000000E+00    0.0000000000E+00    0.0000000000E+00
    0.0000000000E+00    0.0000000000E+00    0.0000000000E+00    0.0000000000E+00
    0.0000000000E+00    0.0000000000E+00    0.0000000000E+00    0.0000000000E+00
    0.0000000000E+00    0.0000000000E+00    0.0000000000E+00    0.0000000000E+00
    0.0000000000E+00    0.0000000000E+00    0.0000000000E+00    0.0000000000E+00
    0.0000000000E+00    0.0000000000E+00    0.0000000000E+00    0.0000000000E+00
    0.0000000000E+00    0.0000000000E+00    0.0000000000E+00    0.0000000000E+00
    0.0000000000E+00    0.0000000000E+00    0.0000000000E+00    0.0000000000E+00
    0.0000000000E+00    0.0000000000E+00    0.0000000000E+00    0.0000000000E+00
    0.0000000000E+00    0.0000000000E+00    0.0000000000E+00    0.0000000000E+00
    0.0000000000E+00    0.0000000000E+00    0.0000000000E+00    0.0000000000E+00
    0.0000000000E+00    0.0000000000E+00    0.0000000000E+00    0.0000000000E+00
    0.0000000000E+00    0.0000000000E+00    0.0000000000E+00    0.0000000000E+00
    0.0000000000E+00    0.0000000000E+00    0.0000000000E+00    0.0000000000E+00
    0.0000000000E+00    0.0000000000E+00    0.0000000000E+00    0.0000000000E+00
    0.0000000000E+00    0.0000000000E+00    0.0000000000E+00    0.0000000000E+00
    0.0000000000E+00    0.0000000000E+00    0.0000000000E+00    0.0000000000E+00
    0.0000000000E+00    0.0000000000E+00    0.0000000000E+00    0.0000000000E+00
    0.0000000000E+00    0.0000000000E+00    0.0000000000E+00    0.0000000000E+00
    0.0000000000E+00    0.0000000000E+00    0.0000000000E+00    0.0000000000E+00
    0.0000000000E+00    0.0000000000E+00    0.0000000000E+00    0.0000000000E+00
    0.0000000000E+00    0.0000000000E+00    0.0000000000E+00    0.0000000000E+00
    0.0000000000E+00    0.0000000000E+00    0.0000000000E+00    0.0000000000E+00
    0.0000000000E+00    0.0000000000E+00    0.0000000000E+00    0.0000000000E+00
    0.0000000000E+00    0.0000000000E+00    0.0000000000E+00    0.0000000000E+00
    0.0000000000E+00    0.0000000000E+00    0.0000000000E+00    0.0000000000E+00
    0.0000000000E+00    0.0000000000E+00    0.0000000000E+00    0.0000000000E+00
    0.0000000000E+00    0.0000000000E+00    0.0000000000E+00    0.0000000000E+00
    0.0000000000E+00    0.0000000000E+00    0.0000000000E+00    0.0000000000E+00
    0.0000000000E+00    0.0000000000E+00    0.0000000000E+00    0.0000000000E+00
    0.0000000000E+00    0.0000000000E+00    0.0000000000E+00    0.0000000000E+00
    0.0000000000E+00    0.0000000000E+00    0.0000000000E+00    0.0000000000E+00
    0.0000000000E+00    0.0000000000E+00    0.0000000000E+00    0.0000000000E+00
    0.0000000000E+00    0.0000000000E+00    0.0000000000E+00    0.0000000000E+00
    0.0000000000E+00    0.0000000000E+00    0.0000000000E+00    0.0000000000E+00
    0.0000000000E+00    0.0000000000E+00    0.0000000000E+00    0.0000000000E+00
    0.0000000000E+00    0.0000000000E+00    0.0000000000E+00    0.0000000000E+00
    0.0000000000E+00    0.0000000000E+00    0.0000000000E+00    0.0000000000E+00
    0.0000000000E+00    0.0000000000E+00    0.0000000000E+00    0.0000000000E+00
    0.0000000000E+00    0.0000000000E+00    0.0000000000E+00    0.0000000000E+00
    0.0000000000E+00    0.0000000000E+00    0.0000000000E+00    0.0000000000E+00
    0.0000000000E+00    0.0000000000E+00    0.0000000000E+00    0.0000000000E+00
    0.0000000000E+00    0.0000000000E+00    0.0000000000E+00    0.0000000000E+00
    0.0000000000E+00    0.0000000000E+00    0.0000000000E+00    0.0000000000E+00
    0.0000000000E+00    0.0000000000E+00    0.0000000000E+00    0.0000000000E+00
    0.0000000000E+00    0.0000000000E+00    0.0000000000E+00    0.0000000000E+00
    0.0000000000E+00    0.0000000000E+00    0.0000000000E+00    0.0000000000E+00
    0.0000000000E+00    0.0000000000E+00    0.0000000000E+00    0.0000000000E+00
    0.0000000000E+00    0.0000000000E+00    0.0000000000E+00    0.0000000000E+00
    0.0000000000E+00    0.0000000000E+00    0.0000000000E+00    0.0000000000E+00
    0.0000000000E+00    0.0000000000E+00    0.0000000000E+00    0.0000000000E+00
    0.0000000000E+00    0.0000000000E+00    0.0000000000E+00    0.0000000000E+00
    0.0000000000E+00    0.0000000000E+00    0.0000000000E+00    0.0000000000E+00
    0.0000000000E+00    0.0000000000E+00    0.0000000000E+00    0.0000000000E+00
    0.0000000000E+00    0.0000000000E+00    0.0000000000E+00    0.0000000000E+00
    0.0000000000E+00    0.0000000000E+00    0.0000000000E+00    0.0000000000E+00
    0.0000000000E+00    0.0000000000E+00    0.0000000000E+00    0.0000000000E+00
    0.0000000000E+00    0.0000000000E+00    0.0000000000E+00    0.0000000000E+00
    0.0000000000E+00    0.0000000000E+00    0.0000000000E+00    0.0000000000E+00
    0.0000000000E+00    0.0000000000E+00    0.0000000000E+00    0.0000000000E+00
    0.0000000000E+00    0.0000000000E+00    0.0000000000E+00    0.0000000000E+00
    0.0000000000E+00    0.0000000000E+00    0.0000000000E+00    0.0000000000E+00
    0.0000000000E+00    0.0000000000E+00    0.0000000000E+00    0.0000000000E+00
    0.0000000000E+00    0.0000000000E+00    0.0000000000E+00    0.0000000000E+00
    0.0000000000E+00    0.0000000000E+00    0.0000000000E+00    0.0000000000E+00
    0.0000000000E+00    0.0000000000E+00    0.0000000000E+00    0.0000000000E+00
    0.0000000000E+00    0.0000000000E+00    0.0000000000E+00    0.0000000000E+00
    0.0000000000E+00    0.0000000000E+00    0.0000000000E+00    0.0000000000E+00
    0.0000000000E+00    0.0000000000E+00    0.0000000000E+00    0.0000000000E+00
    0.0000000000E+00    0.0000000000E+00    0.0000000000E+00    0.0000000000E+00
    0.0000000000E+00    0.0000000000E+00    0.0000000000E+00    0.0000000000E+00
    0.0000000000E+00    0.0000000000E+00    0.0000000000E+00    0.0000000000E+00
    0.0000000000E+00    0.0000000000E+00    0.0000000000E+00    0.0000000000E+00
    0.0000000000E+00    0.0000000000E+00    0.0000000000E+00    0.0000000000E+00
    0.0000000000E+00    0.0000000000E+00    0.0000000000E+00    0.0000000000E+00
    0.0000000000E+00    0.0000000000E+00    0.0000000000E+00    0.0000000000E+00
    0.0000000000E+00    0.0000000000E+00    0.0000000000E+00    0.0000000000E+00
    0.0000000000E+00    0.0000000000E+00    0.0000000000E+00    0.0000000000E+00
    0.0000000000E+00    0.0000000000E+00    0.0000000000E+00    0.0000000000E+00
    0.0000000000E+00    0.0000000000E+00    0.0000000000E+00    0.0000000000E+00
    0.0000000000E+00    0.0000000000E+00    0.0000000000E+00    0.0000000000E+00
    0.0000000000E+00    0.0000000000E+00    0.0000000000E+00    0.0000000000E+00
    0.0000000000E+00    0.0000000000E+00    0.0000000000E+00    0.0000000000E+00
    0.0000000000E+00    0.0000000000E+00    0.0000000000E+00    0.0000000000E+00
    0.0000000000E+00    0.0000000000E+00    0.0000000000E+00    0.0000000000E+00
    0.0000000000E+00    0.0000000000E+00    0.0000000000E+00    0.0000000000E+00
    0.0000000000E+00    0.0000000000E+00    0.0000000000E+00    0.0000000000E+00
    0.0000000000E+00    0.0000000000E+00    0.0000000000E+00    0.0000000000E+00
    0.0000000000E+00    0.0000000000E+00    0.0000000000E+00    0.0000000000E+00
    0.0000000000E+00    0.0000000000E+00    0.0000000000E+00    0.0000000000E+00
    0.0000000000E+00    0.0000000000E+00    0.0000000000E+00    0.0000000000E+00
    0.0000000000E+00    0.0000000000E+00    0.0000000000E+00    0.0000000000E+00
    0.0000000000E+00    0.0000000000E+00    0.0000000000E+00    0.0000000000E+00
    0.0000000000E+00    0.0000000000E+00    0.0000000000E+00    0.0000000000E+00
    0.0000000000E+00    0.0000000000E+00    0.0000000000E+00    0.0000000000E+00
    0.0000000000E+00    0.0000000000E+00    0.0000000000E+00    0.0000000000E+00
    0.0000000000E+00    0.0000000000E+00    0.0000000000E+00    0.0000000000E+00
    0.0000000000E+00    0.0000000000E+00    0.0000000000E+00    0.0000000000E+00
    0.0000000000E+00    0.0000000000E+00    0.0000000000E+00    0.0000000000E+00
    0.0000000000E+00    0.0000000000E+00    0.0000000000E+00    0.0000000000E+00
    0.0000000000E+00    0.0000000000E+00    0.0000000000E+00    0.0000000000E+00
    0.0000000000E+00    0.0000000000E+00    0.0000000000E+00    0.0000000000E+00
    0.0000000000E+00    0.0000000000E+00    0.0000000000E+00    0.0000000000E+00
    0.0000000000E+00    0.0000000000E+00    0.0000000000E+00    0.0000000000E+00
    0.0000000000E+00    0.0000000000E+00    0.0000000000E+00    0.0000000000E+00
    0.0000000000E+00    0.0000000000E+00    0.0000000000E+00    0.0000000000E+00
    0.0000000000E+00    0.0000000000E+00    0.0000000000E+00    0.0000000000E+00
    0.0000000000E+00    0.0000000000E+00    0.0000000000E+00    0.0000000000E+00
    0.0000000000E+00    0.0000000000E+00    0.0000000000E+00    0.0000000000E+00
    0.0000000000E+00    0.0000000000E+00    0.0000000000E+00    0.0000000000E+00
    0.0000000000E+00    0.0000000000E+00    0.0000000000E+00    0.0000000000E+00
    0.0000000000E+00    0.0000000000E+00    0.0000000000E+00    0.0000000000E+00
    0.0000000000E+00    0.0000000000E+00    0.0000000000E+00    0.0000000000E+00
    0.0000000000E+00    0.0000000000E+00    0.0000000000E+00    0.0000000000E+00
    0.0000000000E+00    0.0000000000E+00    0.0000000000E+00    0.0000000000E+00
    0.0000000000E+00    0.0000000000E+00    0.0000000000E+00    0.0000000000E+00
    0.0000000000E+00    0.0000000000E+00    0.0000000000E+00    0.0000000000E+00
    0.0000000000E+00    0.0000000000E+00    0.0000000000E+00    0.0000000000E+00
    0.0000000000E+00    0.0000000000E+00    0.0000000000E+00    0.0000000000E+00
    0.0000000000E+00    0.0000000000E+00    0.0000000000E+00    0.0000000000E+00
    0.0000000000E+00    0.0000000000E+00    0.0000000000E+00    0.0000000000E+00
    0.0000000000E+00    0.0000000000E+00    0.0000000000E+00    0.0000000000E+00
    0.0000000000E+00    0.0000000000E+00    0.0000000000E+00    0.0000000000E+00
    0.0000000000E+00    0.0000000000E+00    0.0000000000E+00    0.0000000000E+00
    0.0000000000E+00    0.0000000000E+00    0.0000000000E+00    0.0000000000E+00
    0.0000000000E+00    0.0000000000E+00    0.0000000000E+00    0.0000000000E+00
    0.0000000000E+00    0.0000000000E+00    0.0000000000E+00    0.0000000000E+00
    0.0000000000E+00    0.0000000000E+00    0.0000000000E+00    0.0000000000E+00
    0.0000000000E+00    0.0000000000E+00    0.0000000000E+00    0.0000000000E+00
    0.0000000000E+00    0.0000000000E+00    0.0000000000E+00    0.0000000000E+00
    0.0000000000E+00    0.0000000000E+00    0.0000000000E+00    0.0000000000E+00
    0.0000000000E+00    0.0000000000E+00    0.0000000000E+00    0.0000000000E+00
    0.0000000000E+00    0.0000000000E+00    0.0000000000E+00    0.0000000000E+00
    0.0000000000E+00    0.0000000000E+00    0.0000000000E+00    0.0000000000E+00
    0.0000000000E+00    0.0000000000E+00    0.0000000000E+00    0.0000000000E+00
    0.0000000000E+00    0.0000000000E+00    0.0000000000E+00    0.0000000000E+00
    0.0000000000E+00    0.0000000000E+00    0.0000000000E+00    0.0000000000E+00
    0.0000000000E+00    0.0000000000E+00    0.0000000000E+00    0.0000000000E+00
    0.0000000000E+00    0.0000000000E+00    0.0000000000E+00    0.0000000000E+00
    0.0000000000E+00    0.0000000000E+00    0.0000000000E+00    0.0000000000E+00
    0.0000000000E+00    0.0000000000E+00    0.0000000000E+00    0.0000000000E+00
    0.0000000000E+00    0.0000000000E+00    0.0000000000E+00    0.0000000000E+00
    0.0000000000E+00    0.0000000000E+00    0.0000000000E+00    0.0000000000E+00
    0.0000000000E+00    0.0000000000E+00    0.0000000000E+00    0.0000000000E+00
    0.0000000000E+00    0.0000000000E+00    0.0000000000E+00    0.0000000000E+00
    0.0000000000E+00    0.0000000000E+00    0.0000000000E+00    0.0000000000E+00
    0.0000000000E+00    0.0000000000E+00    0.0000000000E+00    0.0000000000E+00
    0.0000000000E+00    0.0000000000E+00    0.0000000000E+00    0.0000000000E+00
    0.0000000000E+00    0.0000000000E+00    0.0000000000E+00    0.0000000000E+00
    0.0000000000E+00    0.0000000000E+00    0.0000000000E+00    0.0000000000E+00
    0.0000000000E+00    0.0000000000E+00    0.0000000000E+00    0.0000000000E+00
    0.0000000000E+00    0.0000000000E+00    0.0000000000E+00    0.0000000000E+00
    0.0000000000E+00    0.0000000000E+00    0.0000000000E+00    0.0000000000E+00
    0.0000000000E+00    0.0000000000E+00    0.0000000000E+00    0.0000000000E+00
    0.0000000000E+00    0.0000000000E+00    0.0000000000E+00    0.0000000000E+00
    0.0000000000E+00    0.0000000000E+00    0.0000000000E+00    0.0000000000E+00
    0.0000000000E+00    0.0000000000E+00    0.0000000000E+00    0.0000000000E+00
    0.0000000000E+00    0.0000000000E+00    0.0000000000E+00    0.0000000000E+00
    0.0000000000E+00    0.0000000000E+00    0.0000000000E+00    0.0000000000E+00
    0.0000000000E+00    0.0000000000E+00    0.0000000000E+00    0.0000000000E+00
    0.0000000000E+00    0.0000000000E+00    0.0000000000E+00    0.0000000000E+00
    0.0000000000E+00    0.0000000000E+00    0.0000000000E+00    0.0000000000E+00
    0.0000000000E+00    0.0000000000E+00    0.0000000000E+00    0.0000000000E+00
    0.0000000000E+00    0.0000000000E+00    0.0000000000E+00    0.0000000000E+00
    0.0000000000E+00    0.0000000000E+00    0.0000000000E+00    0.0000000000E+00
    0.0000000000E+00    0.0000000000E+00    0.0000000000E+00    0.0000000000E+00
    0.0000000000E+00    0.0000000000E+00    0.0000000000E+00    0.0000000000E+00
    0.0000000000E+00    0.0000000000E+00    0.0000000000E+00    0.0000000000E+00
    0.0000000000E+00    0.0000000000E+00    0.0000000000E+00    0.0000000000E+00
    0.0000000000E+00    0.0000000000E+00    0.0000000000E+00    0.0000000000E+00
    0.0000000000E+00    0.0000000000E+00    0.0000000000E+00    0.0000000000E+00
    0.0000000000E+00    0.0000000000E+00    0.0000000000E+00    0.0000000000E+00
    0.0000000000E+00    0.0000000000E+00    0.0000000000E+00    0.0000000000E+00
    0.0000000000E+00    0.0000000000E+00    0.0000000000E+00    0.0000000000E+00
    0.0000000000E+00    0.0000000000E+00    0.0000000000E+00    0.0000000000E+00
    0.0000000000E+00    0.0000000000E+00    0.0000000000E+00    0.0000000000E+00
    0.0000000000E+00    0.0000000000E+00    0.0000000000E+00    0.0000000000E+00
    0.0000000000E+00    0.0000000000E+00    0.0000000000E+00    0.0000000000E+00
    0.0000000000E+00    0.0000000000E+00    0.0000000000E+00    0.0000000000E+00
    0.0000000000E+00    0.0000000000E+00    0.0000000000E+00    0.0000000000E+00
    0.0000000000E+00    0.0000000000E+00    0.0000000000E+00    0.0000000000E+00
    0.0000000000E+00    0.0000000000E+00    0.0000000000E+00    0.0000000000E+00
    0.0000000000E+00    0.0000000000E+00    0.0000000000E+00    0.0000000000E+00
    0.0000000000E+00    0.0000000000E+00    0.0000000000E+00    0.0000000000E+00
    0.0000000000E+00    0.0000000000E+00    0.0000000000E+00    0.0000000000E+00
    0.0000000000E+00    0.0000000000E+00    0.0000000000E+00    0.0000000000E+00
    0.0000000000E+00    0.0000000000E+00    0.0000000000E+00    0.0000000000E+00
    0.0000000000E+00    0.0000000000E+00    0.0000000000E+00    0.0000000000E+00
    0.0000000000E+00    0.0000000000E+00    0.0000000000E+00    0.0000000000E+00
    0.0000000000E+00    0.0000000000E+00    0.0000000000E+00    0.0000000000E+00
    0.0000000000E+00    0.0000000000E+00    0.0000000000E+00    0.0000000000E+00
    0.0000000000E+00    0.0000000000E+00    0.0000000000E+00    0.0000000000E+00
    0.0000000000E+00    0.0000000000E+00    0.0000000000E+00    0.0000000000E+00
    0.0000000000E+00    0.0000000000E+00    0.0000000000E+00    0.0000000000E+00
    0.0000000000E+00    0.0000000000E+00    0.0000000000E+00    0.0000000000E+00
    0.0000000000E+00    0.0000000000E+00    0.0000000000E+00    0.0000000000E+00
    0.0000000000E+00    0.0000000000E+00    0.0000000000E+00    0.0000000000E+00
    0.0000000000E+00    0.0000000000E+00    0.0000000000E+00    0.0000000000E+00
    0.0000000000E+00    0.0000000000E+00    0.0000000000E+00    0.0000000000E+00
    0.0000000000E+00    0.0000000000E+00    0.0000000000E+00    0.0000000000E+00
    0.0000000000E+00    0.0000000000E+00    0.0000000000E+00    0.0000000000E+00
    0.0000000000E+00    0.0000000000E+00    0.0000000000E+00    0.0000000000E+00
    0.0000000000E+00    0.0000000000E+00    0.0000000000E+00    0.0000000000E+00
    0.0000000000E+00    0.0000000000E+00    0.0000000000E+00    0.0000000000E+00
    0.0000000000E+00    0.0000000000E+00    0.0000000000E+00    0.0000000000E+00
    0.0000000000E+00    0.0000000000E+00    0.0000000000E+00    0.0000000000E+00
    0.0000000000E+00    0.0000000000E+00    0.0000000000E+00    0.0000000000E+00
    0.0000000000E+00    0.0000000000E+00    0.0000000000E+00    0.0000000000E+00
    0.0000000000E+00    0.0000000000E+00    0.0000000000E+00    0.0000000000E+00
 </PP_NLCC>
 <PP_RHOATOM type="real"  size="1680" columns="4">
    0.0000000000E+00    6.6177115332E-05    2.6762050434E-04    6.1306593490E-04
    1.1170716814E-03    1.8000160455E-03    2.6880929526E-03    3.8133047050E-03
    5.2134507422E-03    6.9321110333E-03    9.0186225338E-03    1.1528046966E-02
    1.4521128035E-02    1.8064236082E-02    2.2229298092E-02    2.7093710921E-02
    3.2740235610E-02    3.9256870646E-02    4.6736702122E-02    5.5277728822E-02
    6.4982660386E-02    7.5958686877E-02    8.8317218275E-02    1.0217359262E-01
    1.1764675182E-01    1.3485888436E-01    1.5393503451E-01    1.7500267791E-01
    1.9819126370E-01    2.2363172383E-01    2.5145595041E-01    2.8179624232E-01
    3.1478472283E-01    3.5055272997E-01    3.8923018221E-01    4.3094492186E-01
    4.7582203926E-01    5.2398318096E-01    5.7554584537E-01    6.3062266972E-01
    6.8932071222E-01    7.5174073362E-01    8.1797648254E-01    8.8811398899E-01
    9.6223087060E-01    1.0403956562E+00    1.1226671316E+00    1.2090937113E+00
    1.2997128421E+00    1.3945504421E+00    1.4936203792E+00    1.5969239940E+00
    1.7044496710E+00    1.8161724612E+00    1.9320537604E+00    2.0520410454E+00
    2.1760676723E+00    2.3040527383E+00    2.4359010093E+00    2.5715029160E+00
    2.7107346183E+00    2.8534581405E+00    2.9995215773E+00    3.1487593690E+00
    3.3009926492E+00    3.4560296599E+00    3.6136662359E+00    3.7736863551E+00
    3.9358627530E+00    4.0999575987E+00    4.2657232295E+00    4.4329029401E+00
    4.6012318234E+00    4.7704376574E+00    4.9402418354E+00    5.1103603332E+00
    5.2805047080E+00    5.4503831254E+00    5.6197014070E+00    5.7881640933E+00
    5.9554755171E+00    6.1213408802E+00    6.2854673274E+00    6.4475650129E+00
    6.6073481517E+00    6.7645360517E+00    6.9188541191E+00    7.0700348329E+00
    7.2178186823E+00    7.3619550625E+00    7.5022031240E+00    7.6383325707E+00
    7.7701244028E+00    7.8973716017E+00    8.0198797520E+00    8.1374675996E+00
    8.2499675427E+00    8.3572260535E+00    8.4591040306E+00    8.5554770795E+00
    8.6462357229E+00    8.7312855390E+00    8.8105472301E+00    8.8839566212E+00
    8.9514645912E+00    9.0130369388E+00    9.0686541842E+00    9.1183113108E+00
    9.1620174495E+00    9.1997955090E+00    9.2316817556E+00    9.2577253472E+00
    9.2779878244E+00    9.2925425644E+00    9.3014742012E+00    9.3048780162E+00
    9.3028593057E+00    9.2955327266E+00    9.2830216277E+00    9.2654573696E+00
    9.2429786371E+00    9.2157307493E+00    9.1838649702E+00    9.1475378245E+00
    9.1069104213E+00    9.0621477892E+00    9.0134182260E+00    8.9608926659E+00
    8.9047440655E+00    8.8451468123E+00    8.7822761563E+00    8.7163076673E+00
    8.6474167181E+00    8.5757779958E+00    8.5015650408E+00    8.4249498151E+00
    8.3461022989E+00    8.2651901172E+00    8.1823781940E+00    8.0978284363E+00
    8.0116994444E+00    7.9241462510E+00    7.8353200854E+00    7.7453681637E+00
    7.6544335026E+00    7.5626547571E+00    7.4701660795E+00    7.3770969997E+00
    7.2835723238E+00    7.1897120531E+00    7.0956313211E+00    7.0014403428E+00
    6.9072443765E+00    6.8131436996E+00    6.7192335979E+00    6.6256043654E+00
    6.5323413121E+00    6.4395247422E+00    6.3472299056E+00    6.2555270267E+00
    6.1644813989E+00    6.0741534686E+00    5.9845989320E+00    5.8958688404E+00
    5.8080097128E+00    5.7210636549E+00    5.6350684847E+00    5.5500578610E+00
    5.4660614199E+00    5.3831049165E+00    5.3012103690E+00    5.2203962341E+00
    5.1406776755E+00    5.0620668625E+00    4.9845731635E+00    4.9082036274E+00
    4.8329636338E+00    4.7588569777E+00    4.6858859616E+00    4.6140514855E+00
    4.5433531305E+00    4.4737892393E+00    4.4053569944E+00    4.3380524923E+00
    4.2718708153E+00    4.2068060996E+00    4.1428516012E+00    4.0799997584E+00
    4.0182422518E+00    3.9575700617E+00    3.8979735223E+00    3.8394423742E+00
    3.7819658136E+00    3.7255325399E+00    3.6701308003E+00    3.6157484327E+00
    3.5623729060E+00    3.5099913586E+00    3.4585906348E+00    3.4081573196E+00
    3.3586777707E+00    3.3101381499E+00    3.2625244522E+00    3.2158225329E+00
    3.1700181337E+00    3.1250969071E+00    3.0810444395E+00    3.0378462722E+00
    2.9954879221E+00    2.9539549002E+00    2.9132327298E+00    2.8733069625E+00
    2.8341631939E+00    2.7957870778E+00    2.7581643396E+00    2.7212807889E+00
    2.6851223305E+00    2.6496749755E+00    2.6149248504E+00    2.5808582070E+00
    2.5474614295E+00    2.5147210432E+00    2.4826237202E+00    2.4511562865E+00
    2.4203057272E+00    2.3900591915E+00    2.3604039972E+00    2.3313276351E+00
    2.3028177717E+00    2.2748622531E+00    2.2474491071E+00    2.2205665456E+00
    2.1942029664E+00    2.1683469548E+00    2.1429872845E+00    2.1181129190E+00
    2.0937130114E+00    2.0697769053E+00    2.0462941348E+00    2.0232544238E+00
    2.0006476863E+00    1.9784640250E+00    1.9566937311E+00    1.9353272833E+00
    1.9143553460E+00    1.8937687688E+00    1.8735585846E+00    1.8537160080E+00
    1.8342324341E+00    1.8150994359E+00    1.7963087633E+00    1.7778523405E+00
    1.7597222641E+00    1.7419108013E+00    1.7244103871E+00    1.7072136226E+00
    1.6903132725E+00    1.6737022628E+00    1.6573736783E+00    1.6413207603E+00
    1.6255369042E+00    1.6100156570E+00    1.5947507150E+00    1.5797359207E+00
    1.5649652613E+00    1.5504328652E+00    1.5361330001E+00    1.5220600706E+00
    1.5082086150E+00    1.4945733036E+00    1.4811489358E+00    1.4679304376E+00
    1.4549128594E+00    1.4420913733E+00    1.4294612710E+00    1.4170179609E+00
    1.4047569663E+00    1.3926739227E+00    1.3807645753E+00    1.3690247771E+00
    1.3574504866E+00    1.3460377652E+00    1.3347827751E+00    1.3236817772E+00
    1.3127311291E+00    1.3019272825E+00    1.2912667814E+00    1.2807462602E+00
    1.2703624411E+00    1.2601121326E+00    1.2499922274E+00    1.2399997002E+00
    1.2301316061E+00    1.2203850785E+00    1.2107573275E+00    1.2012456377E+00
    1.1918473667E+00    1.1825599435E+00    1.1733808662E+00    1.1643077009E+00
    1.1553380797E+00    1.1464696992E+00    1.1377003190E+00    1.1290277599E+00
    1.1204499025E+00    1.1119646858E+00    1.1035701054E+00    1.0952642126E+00
    1.0870451125E+00    1.0789109626E+00    1.0708599721E+00    1.0628903997E+00
    1.0550005529E+00    1.0471887866E+00    1.0394535018E+00    1.0317931443E+00
    1.0242062038E+00    1.0166912125E+00    1.0092467439E+00    1.0018714120E+00
    9.9456387005E-01    9.8732280946E-01    9.8014695880E-01    9.7303508280E-01
    9.6598598139E-01    9.5899848869E-01    9.5207147212E-01    9.4520383145E-01
    9.3839449793E-01    9.3164243342E-01    9.2494662950E-01    9.1830610670E-01
    9.1171991363E-01    9.0518712625E-01    8.9870684705E-01    8.9227820431E-01
    8.8590035141E-01    8.7957246604E-01    8.7329374957E-01    8.6706342634E-01
    8.6088074302E-01    8.5474496791E-01    8.4865539040E-01    8.4261132028E-01
    8.3661208717E-01    8.3065703996E-01    8.2474554622E-01    8.1887699165E-01
    8.1305077954E-01    8.0726633027E-01    8.0152308079E-01    7.9582048409E-01
    7.9015800877E-01    7.8453513855E-01    7.7895137180E-01    7.7340622109E-01
    7.6789921280E-01    7.6242988665E-01    7.5699779532E-01    7.5160250403E-01
    7.4624359017E-01    7.4092064290E-01    7.3563326281E-01    7.3038106154E-01
    7.2516366145E-01    7.1998069527E-01    7.1483180577E-01    7.0971664544E-01
    7.0463487619E-01    6.9958616905E-01    6.9457020385E-01    6.8958666897E-01
    6.8463526104E-01    6.7971568466E-01    6.7482765218E-01    6.6997088340E-01
    6.6514510536E-01    6.6035005206E-01    6.5558546426E-01    6.5085108924E-01
    6.4614668059E-01    6.4147199798E-01    6.3682680695E-01    6.3221087876E-01
    6.2762399010E-01    6.2306592300E-01    6.1853646457E-01    6.1403540686E-01
    6.0956254669E-01    6.0511768546E-01    6.0070062899E-01    5.9631118738E-01
    5.9194917484E-01    5.8761440955E-01    5.8330671350E-01    5.7902591237E-01
    5.7477183540E-01    5.7054431522E-01    5.6634318776E-01    5.6216829211E-01
    5.5801947040E-01    5.5389656771E-01    5.4979943192E-01    5.4572791361E-01
    5.4168186598E-01    5.3766114472E-01    5.3366560793E-01    5.2969511601E-01
    5.2574953158E-01    5.2182871939E-01    5.1793254623E-01    5.1406088083E-01
    5.1021359382E-01    5.0639055762E-01    5.0259164637E-01    4.9881673586E-01
    4.9506570347E-01    4.9133842809E-01    4.8763479004E-01    4.8395467106E-01
    4.8029795419E-01    4.7666452374E-01    4.7305426524E-01    4.6946706536E-01
    4.6590281188E-01    4.6236139363E-01    4.5884270045E-01    4.5534662314E-01
    4.5187305340E-01    4.4842188381E-01    4.4499300777E-01    4.4158631948E-01
    4.3820171387E-01    4.3483908660E-01    4.3149833401E-01    4.2817935307E-01
    4.2488204137E-01    4.2160629707E-01    4.1835201891E-01    4.1511910612E-01
    4.1190745845E-01    4.0871697610E-01    4.0554755973E-01    4.0239911042E-01
    3.9927152965E-01    3.9616471926E-01    3.9307858148E-01    3.9001301885E-01
    3.8696793425E-01    3.8394323085E-01    3.8093881211E-01    3.7795458177E-01
    3.7499044380E-01    3.7204630245E-01    3.6912206217E-01    3.6621762764E-01
    3.6333290374E-01    3.6046779555E-01    3.5762220833E-01    3.5479604752E-01
    3.5198921872E-01    3.4920162768E-01    3.4643318033E-01    3.4368378272E-01
    3.4095334104E-01    3.3824176161E-01    3.3554895089E-01    3.3287481544E-01
    3.3021926196E-01    3.2758219725E-01    3.2496352821E-01    3.2236316187E-01
    3.1978100535E-01    3.1721696586E-01    3.1467095075E-01    3.1214286742E-01
    3.0963262340E-01    3.0714012631E-01    3.0466528386E-01    3.0220800385E-01
    2.9976819420E-01    2.9734576290E-01    2.9494061806E-01    2.9255266787E-01
    2.9018182064E-01    2.8782798476E-01    2.8549106873E-01    2.8317098115E-01
    2.8086763074E-01    2.7858092633E-01    2.7631077683E-01    2.7405709130E-01
    2.7181977889E-01    2.6959874889E-01    2.6739391069E-01    2.6520517382E-01
    2.6303244793E-01    2.6087564282E-01    2.5873466839E-01    2.5660943472E-01
    2.5449985198E-01    2.5240583054E-01    2.5032728088E-01    2.4826411366E-01
    2.4621623966E-01    2.4418356986E-01    2.4216601539E-01    2.4016348754E-01
    2.3817589777E-01    2.3620315774E-01    2.3424517926E-01    2.3230187434E-01
    2.3037315519E-01    2.2845893419E-01    2.2655912392E-01    2.2467363717E-01
    2.2280238694E-01    2.2094528642E-01    2.1910224902E-01    2.1727318837E-01
    2.1545801831E-01    2.1365665293E-01    2.1186900653E-01    2.1009499363E-01
    2.0833452901E-01    2.0658752767E-01    2.0485390488E-01    2.0313357613E-01
    2.0142645717E-01    1.9973246402E-01    1.9805151293E-01    1.9638352044E-01
    1.9472840335E-01    1.9308607871E-01    1.9145646386E-01    1.8983947641E-01
    1.8823503426E-01    1.8664305557E-01    1.8506345881E-01    1.8349616273E-01
    1.8194108636E-01    1.8039814904E-01    1.7886727041E-01    1.7734837040E-01
    1.7584136923E-01    1.7434618747E-01    1.7286274596E-01    1.7139096587E-01
    1.6993076866E-01    1.6848207615E-01    1.6704481045E-01    1.6561889398E-01
    1.6420424952E-01    1.6280080014E-01    1.6140846926E-01    1.6002718063E-01
    1.5865685833E-01    1.5729742675E-01    1.5594881066E-01    1.5461093514E-01
    1.5328372560E-01    1.5196710783E-01    1.5066100793E-01    1.4936535235E-01
    1.4808006789E-01    1.4680508171E-01    1.4554032130E-01    1.4428571451E-01
    1.4304118953E-01    1.4180667493E-01    1.4058209961E-01    1.3936739282E-01
    1.3816248419E-01    1.3696730369E-01    1.3578178165E-01    1.3460584877E-01
    1.3343943608E-01    1.3228247501E-01    1.3113489733E-01    1.2999663515E-01
    1.2886762099E-01    1.2774778770E-01    1.2663706848E-01    1.2553539694E-01
    1.2444270701E-01    1.2335893301E-01    1.2228400960E-01    1.2121787183E-01
    1.2016045510E-01    1.1911169517E-01    1.1807152818E-01    1.1703989062E-01
    1.1601671935E-01    1.1500195160E-01    1.1399552495E-01    1.1299737736E-01
    1.1200744714E-01    1.1102567297E-01    1.1005199390E-01    1.0908634932E-01
    1.0812867901E-01    1.0717892310E-01    1.0623702207E-01    1.0530291677E-01
    1.0437654842E-01    1.0345785859E-01    1.0254678920E-01    1.0164328256E-01
    1.0074728129E-01    9.9858728410E-02    9.8977567273E-02    9.8103741594E-02
    9.7237195443E-02    9.6377873242E-02    9.5525719767E-02    9.4680680146E-02
    9.3842699856E-02    9.3011724726E-02    9.2187700934E-02    9.1370575005E-02
    9.0560293812E-02    8.9756804572E-02    8.8960054849E-02    8.8169992550E-02
    8.7386565924E-02    8.6609723561E-02    8.5839414394E-02    8.5075587690E-02
    8.4318193060E-02    8.3567180445E-02    8.2822500127E-02    8.2084102719E-02
    8.1351939168E-02    8.0625960750E-02    7.9906119074E-02    7.9192366077E-02
    7.8484654023E-02    7.7782935502E-02    7.7087163429E-02    7.6397291042E-02
    7.5713271901E-02    7.5035059886E-02    7.4362609197E-02    7.3695874351E-02
    7.3034810181E-02    7.2379371836E-02    7.1729514775E-02    7.1085194771E-02
    7.0446367908E-02    6.9812990577E-02    6.9185019477E-02    6.8562411613E-02
    6.7945124292E-02    6.7333115127E-02    6.6726342029E-02    6.6124763211E-02
    6.5528337183E-02    6.4937022750E-02    6.4350779014E-02    6.3769565371E-02
    6.3193341505E-02    6.2622067393E-02    6.2055703302E-02    6.1494209783E-02
    6.0937547673E-02    6.0385678094E-02    5.9838562451E-02    5.9296162427E-02
    5.8758439987E-02    5.8225357372E-02    5.7696877098E-02    5.7172961958E-02
    5.6653575016E-02    5.6138679608E-02    5.5628239338E-02    5.5122218080E-02
    5.4620579974E-02    5.4123289423E-02    5.3630311096E-02    5.3141609922E-02
    5.2657151091E-02    5.2176900050E-02    5.1700822505E-02    5.1228884416E-02
    5.0761051996E-02    5.0297291712E-02    4.9837570281E-02    4.9381854670E-02
    4.8930112091E-02    4.8482310004E-02    4.8038416113E-02    4.7598398365E-02
    4.7162224948E-02    4.6729864289E-02    4.6301285056E-02    4.5876456150E-02
    4.5455346710E-02    4.5037926107E-02    4.4624163945E-02    4.4214030059E-02
    4.3807494512E-02    4.3404527596E-02    4.3005099827E-02    4.2609181947E-02
    4.2216744921E-02    4.1827759936E-02    4.1442198399E-02    4.1060031935E-02
    4.0681232387E-02    4.0305771813E-02    3.9933622487E-02    3.9564756893E-02
    3.9199147730E-02    3.8836767903E-02    3.8477590530E-02    3.8121588932E-02
    3.7768736638E-02    3.7419007382E-02    3.7072375099E-02    3.6728813926E-02
    3.6388298202E-02    3.6050802461E-02    3.5716301439E-02    3.5384770064E-02
    3.5056183461E-02    3.4730516948E-02    3.4407746034E-02    3.4087846420E-02
    3.3770793995E-02    3.3456564836E-02    3.3145135208E-02    3.2836481560E-02
    3.2530580526E-02    3.2227408921E-02    3.1926943743E-02    3.1629162171E-02
    3.1334041560E-02    3.1041559445E-02    3.0751693536E-02    3.0464421720E-02
    3.0179722055E-02    2.9897572774E-02    2.9617952279E-02    2.9340839146E-02
    2.9066212115E-02    2.8794050098E-02    2.8524332171E-02    2.8257037576E-02
    2.7992145719E-02    2.7729636170E-02    2.7469488658E-02    2.7211683075E-02
    2.6956199473E-02    2.6703018060E-02    2.6452119202E-02    2.6203483422E-02
    2.5957091396E-02    2.5712923956E-02    2.5470962084E-02    2.5231186916E-02
    2.4993579737E-02    2.4758121981E-02    2.4524795230E-02    2.4293581216E-02
    2.4064461813E-02    2.3837419042E-02    2.3612435069E-02    2.3389492200E-02
    2.3168572885E-02    2.2949659714E-02    2.2732735418E-02    2.2517782863E-02
    2.2304785058E-02    2.2093725144E-02    2.1884586400E-02    2.1677352239E-02
    2.1472006208E-02    2.1268531986E-02    2.1066913384E-02    2.0867134345E-02
    2.0669178939E-02    2.0473031367E-02    2.0278675957E-02    2.0086097164E-02
    1.9895279568E-02    1.9706207876E-02    1.9518866918E-02    1.9333241646E-02
    1.9149317135E-02    1.8967078582E-02    1.8786511304E-02    1.8607600737E-02
    1.8430332437E-02    1.8254692074E-02    1.8080665440E-02    1.7908238439E-02
    1.7737397092E-02    1.7568127533E-02    1.7400416011E-02    1.7234248885E-02
    1.7069612628E-02    1.6906493824E-02    1.6744879164E-02    1.6584755450E-02
    1.6426109594E-02    1.6268928613E-02    1.6113199632E-02    1.5958909881E-02
    1.5806046695E-02    1.5654597514E-02    1.5504549883E-02    1.5355891446E-02
    1.5208609951E-02    1.5062693249E-02    1.4918129287E-02    1.4774906116E-02
    1.4633011884E-02    1.4492434836E-02    1.4353163316E-02    1.4215185765E-02
    1.4078490717E-02    1.3943066805E-02    1.3808902754E-02    1.3675987384E-02
    1.3544309606E-02    1.3413858426E-02    1.3284622939E-02    1.3156592333E-02
    1.3029755885E-02    1.2904102962E-02    1.2779623018E-02    1.2656305599E-02
    1.2534140335E-02    1.2413116944E-02    1.2293225230E-02    1.2174455082E-02
    1.2056796474E-02    1.1940239466E-02    1.1824774199E-02    1.1710390897E-02
    1.1597079867E-02    1.1484831498E-02    1.1373636259E-02    1.1263484699E-02
    1.1154367449E-02    1.1046275216E-02    1.0939198787E-02    1.0833129027E-02
    1.0728056878E-02    1.0623973358E-02    1.0520869562E-02    1.0418736659E-02
    1.0317565895E-02    1.0217348588E-02    1.0118076133E-02    1.0019739993E-02
    9.9223317082E-03    9.8258428887E-03    9.7302652163E-03    9.6355904436E-03
    9.5418103936E-03    9.4489169591E-03    9.3569021020E-03    9.2657578527E-03
    9.1754763101E-03    9.0860496403E-03    8.9974700767E-03    8.9097299190E-03
    8.8228215331E-03    8.7367373502E-03    8.6514698665E-03    8.5670116427E-03
    8.4833553034E-03    8.4004935366E-03    8.3184190931E-03    8.2371247864E-03
    8.1566034917E-03    8.0768481456E-03    7.9978517458E-03    7.9196073505E-03
    7.8421080776E-03    7.7653471047E-03    7.6893176685E-03    7.6140130640E-03
    7.5394266445E-03    7.4655518208E-03    7.3923820610E-03    7.3199108897E-03
    7.2481318878E-03    7.1770386922E-03    7.1066249949E-03    7.0368845429E-03
    6.9678111376E-03    6.8993986345E-03    6.8316409427E-03    6.7645320244E-03
    6.6980658945E-03    6.6322366203E-03    6.5670383209E-03    6.5024651668E-03
    6.4385113797E-03    6.3751712318E-03    6.3124390456E-03    6.2503091934E-03
    6.1887760967E-03    6.1278342263E-03    6.0674781015E-03    6.0077022898E-03
    5.9485014064E-03    5.8898701142E-03    5.8318031228E-03    5.7742951886E-03
    5.7173411145E-03    5.6609357490E-03    5.6050739861E-03    5.5497507652E-03
    5.4949610702E-03    5.4406999297E-03    5.3869624160E-03    5.3337436454E-03
    5.2810387773E-03    5.2288430141E-03    5.1771516010E-03    5.1259598252E-03
    5.0752630160E-03    5.0250565440E-03    4.9753358214E-03    4.9260963010E-03
    4.8773334762E-03    4.8290428806E-03    4.7812200877E-03    4.7338607105E-03
    4.6869604013E-03    4.6405148511E-03    4.5945197897E-03    4.5489709850E-03
    4.5038642426E-03    4.4591954062E-03    4.4149603564E-03    4.3711550109E-03
    4.3277753240E-03    4.2848172865E-03    4.2422769250E-03    4.2001503023E-03
    4.1584335161E-03    4.1171226996E-03    4.0762140209E-03    4.0357036824E-03
    3.9955879209E-03    3.9558630073E-03    3.9165252460E-03    3.8775709750E-03
    3.8389965653E-03    3.8007984207E-03    3.7629729777E-03    3.7255167052E-03
    3.6884261038E-03    3.6516977060E-03    3.6153280759E-03    3.5793138087E-03
    3.5436515305E-03    3.5083378982E-03    3.4733695991E-03    3.4387433505E-03
    3.4044558998E-03    3.3705040239E-03    3.3368845294E-03    3.3035942515E-03
    3.2706300549E-03    3.2379888324E-03    3.2056675057E-03    3.1736630243E-03
    3.1419723656E-03    3.1105925351E-03    3.0795205652E-03    3.0487535158E-03
    3.0182884737E-03    2.9881225525E-03    2.9582528922E-03    2.9286766591E-03
    2.8993910456E-03    2.8703932699E-03    2.8416805758E-03    2.8132502323E-03
    2.7850995339E-03    2.7572257998E-03    2.7296263739E-03    2.7022986247E-03
    2.6752399451E-03    2.6484477518E-03    2.6219194856E-03    2.5956526108E-03
    2.5696446153E-03    2.5438930102E-03    2.5183953297E-03    2.4931491307E-03
    2.4681519928E-03    2.4434015182E-03    2.4188953312E-03    2.3946310782E-03
    2.3706064274E-03    2.3468190687E-03    2.3232667136E-03    2.2999470948E-03
    2.2768579661E-03    2.2539971021E-03    2.2313622984E-03    2.2089513709E-03
    2.1867621561E-03    2.1647925104E-03    2.1430403105E-03    2.1215034528E-03
    2.1001798533E-03    2.0790674476E-03    2.0581641905E-03    2.0374680560E-03
    2.0169770371E-03    1.9966891457E-03    1.9766024119E-03    1.9567148848E-03
    1.9370246316E-03    1.9175297374E-03    1.8982283057E-03    1.8791184575E-03
    1.8601983316E-03    1.8414660843E-03    1.8229198891E-03    1.8045579369E-03
    1.7863784355E-03    1.7683796097E-03    1.7505597009E-03    1.7329169670E-03
    1.7154496827E-03    1.6981561386E-03    1.6810346416E-03    1.6640835146E-03
    1.6473010963E-03    1.6306857412E-03    1.6142358193E-03    1.5979497159E-03
    1.5818258319E-03    1.5658625829E-03    1.5500584000E-03    1.5344117288E-03
    1.5189210299E-03    1.5035847783E-03    1.4884014635E-03    1.4733695895E-03
    1.4584876744E-03    1.4437542503E-03    1.4291678635E-03    1.4147270738E-03
    1.4004304550E-03    1.3862765944E-03    1.3722640926E-03    1.3583915637E-03
    1.3446576349E-03    1.3310609466E-03    1.3176001522E-03    1.3042739176E-03
    1.2910809219E-03    1.2780198566E-03    1.2650894257E-03    1.2522883456E-03
    1.2396153449E-03    1.2270691646E-03    1.2146485574E-03    1.2023522883E-03
    1.1901791338E-03    1.1781278824E-03    1.1661973340E-03    1.1543863002E-03
    1.1426936038E-03    1.1311180790E-03    1.1196585713E-03    1.1083139370E-03
    1.0970830437E-03    1.0859647696E-03    1.0749580040E-03    1.0640616465E-03
    1.0532746076E-03    1.0425958083E-03    1.0320241796E-03    1.0215586633E-03
    1.0111982111E-03    1.0009417847E-03    9.9078835620E-04    9.8073690727E-04
    9.7078642955E-04    9.6093592440E-04    9.5118440279E-04    9.4153088528E-04
    9.3197440188E-04    9.2251399197E-04    9.1314870422E-04    9.0387759651E-04
    8.9469973585E-04    8.8561419824E-04    8.7662006865E-04    8.6771644094E-04
    8.5890241769E-04    8.5017711024E-04    8.4153963851E-04    8.3298913097E-04
    8.2452472453E-04    8.1614556450E-04    8.0785080446E-04    7.9963960625E-04
    7.9151113982E-04    7.8346458320E-04    7.7549912241E-04    7.6761395138E-04
    7.5980827189E-04    7.5208129349E-04    7.4443223340E-04    7.3686031650E-04
    7.2936477520E-04    7.2194484938E-04    7.1459978635E-04    7.0732884073E-04
    7.0013127445E-04    6.9300635660E-04    6.8595336343E-04    6.7897157824E-04
    6.7206029134E-04    6.6521879996E-04    6.5844640821E-04    6.5174242699E-04
    6.4510617393E-04    6.3853697337E-04    6.3203415621E-04    6.2559705993E-04
    6.1922502849E-04    6.1291741226E-04    6.0667356800E-04    6.0049285874E-04
    5.9437465376E-04    5.8831832855E-04    5.8232326468E-04    5.7638884982E-04
    5.7051447763E-04    5.6469954773E-04    5.5894346563E-04    5.5324564267E-04
    5.4760549598E-04    5.4202244842E-04    5.3649592851E-04    5.3102537040E-04
    5.2561021379E-04    5.2024990391E-04    5.1494389142E-04    5.0969163242E-04
    5.0449258834E-04    4.9934622592E-04    4.9425201715E-04    4.8920943921E-04
    4.8421797446E-04    4.7927711035E-04    4.7438633936E-04    4.6954515901E-04
    4.6475307176E-04    4.6000958497E-04    4.5531421088E-04    4.5066646653E-04
    4.4606587374E-04    4.4151195905E-04    4.3700425367E-04    4.3254229346E-04
    4.2812561884E-04    4.2375377480E-04    4.1942631081E-04    4.1514278081E-04
    4.1090274315E-04    4.0670576055E-04    4.0255140005E-04    3.9843923299E-04
    3.9436883495E-04    3.9033978571E-04    3.8635166922E-04    3.8240407355E-04
    3.7849659084E-04    3.7462881731E-04    3.7080035314E-04    3.6701080251E-04
    3.6325977352E-04    3.5954687814E-04    3.5587173221E-04    3.5223395539E-04
    3.4863317109E-04    3.4506900650E-04    3.4154109247E-04    3.3804906355E-04
    3.3459255791E-04    3.3117121733E-04    3.2778468713E-04    3.2443261618E-04
    3.2111465682E-04    3.1783046487E-04    3.1457969957E-04    3.1136202355E-04
    3.0817710280E-04    3.0502460663E-04    3.0190420765E-04    2.9881558174E-04
    2.9575840799E-04    2.9273236871E-04    2.8973714936E-04    2.8677243856E-04
    2.8383792800E-04    2.8093331247E-04    2.7805828980E-04    2.7521256084E-04
    2.7239582942E-04    2.6960780233E-04    2.6684818928E-04    2.6411670290E-04
    2.6141305866E-04    2.5873697490E-04    2.5608817275E-04    2.5346637616E-04
    2.5087131181E-04    2.4830270912E-04    2.4576030023E-04    2.4324381995E-04
    2.4075300573E-04    2.3828759767E-04    2.3584733846E-04    2.3343197336E-04
    2.3104125020E-04    2.2867491931E-04    2.2633273354E-04    2.2401444821E-04
    2.2171982108E-04    2.1944861236E-04    2.1720058465E-04    2.1497550293E-04
    2.1277313454E-04    2.1059324915E-04    2.0843561874E-04    2.0630001758E-04
    2.0418622220E-04    2.0209401138E-04    2.0002316612E-04    1.9797346961E-04
    1.9594470723E-04    1.9393666651E-04    1.9194913709E-04    1.8998191077E-04
    1.8803478141E-04    1.8610754494E-04    1.8419999935E-04    1.8231194467E-04
    1.8044318293E-04    1.7859351814E-04    1.7676275631E-04    1.7495070536E-04
    1.7315717519E-04    1.7138197757E-04    1.6962492619E-04    1.6788583661E-04
    1.6616452625E-04    1.6446081436E-04    1.6277452200E-04    1.6110547207E-04
    1.5945348921E-04    1.5781839985E-04    1.5620003218E-04    1.5459821609E-04
    1.5301278320E-04    1.5144356684E-04    1.4989040201E-04    1.4835312536E-04
    1.4683157521E-04    1.4532559149E-04    1.4383501577E-04    1.4235969120E-04
    1.4089946251E-04    1.3945417601E-04    1.3802367956E-04    1.3660782254E-04
    1.3520645587E-04    1.3381943196E-04    1.3244660473E-04    1.3108782955E-04
    1.2974296327E-04    1.2841186419E-04    1.2709439202E-04    1.2579040790E-04
    1.2449977438E-04    1.2322235540E-04    1.2195801625E-04    1.2070662362E-04
    1.1946804553E-04    1.1824215132E-04    1.1702881167E-04    1.1582789857E-04
    1.1463928530E-04    1.1346284642E-04    1.1229845776E-04    1.1114599641E-04
    1.1000534071E-04    1.0887637021E-04    1.0775896570E-04    1.0665300918E-04
    1.0555838383E-04    1.0447497402E-04    1.0340266529E-04    1.0234134434E-04
    1.0129089903E-04    1.0025121834E-04    9.9222192370E-05    9.8203712360E-05
    9.7195670632E-05    9.6197960607E-05    9.5210476786E-05    9.4233114737E-05
    9.3265771091E-05    9.2308343527E-05    9.1360730760E-05    9.0422832534E-05
    8.9494549612E-05    8.8575783761E-05    8.7666437748E-05    8.6766415323E-05
    8.5875621217E-05    8.4993961127E-05    8.4121341708E-05    8.3257670563E-05
    8.2402856231E-05    8.1556808184E-05    8.0719436810E-05    7.9890653409E-05
    7.9070370183E-05    7.8258500226E-05    7.7454957514E-05    7.6659656898E-05
    7.5872514094E-05    7.5093445677E-05    7.4322369068E-05    7.3559202527E-05
    7.2803865148E-05    7.2056276846E-05    7.1316358350E-05    7.0584031198E-05
    6.9859217723E-05    6.9141841050E-05    6.8431825086E-05    6.7729094512E-05
    6.7033574776E-05    6.6345192084E-05    6.5663873394E-05    6.4989546408E-05
    6.4322139562E-05    6.3661582023E-05    6.3007803677E-05    6.2360735126E-05
    6.1720307678E-05    6.1086453341E-05    6.0459104815E-05    5.9838195486E-05
    5.9223659418E-05    5.8615431349E-05    5.8013446679E-05    5.7417641468E-05
    5.6827952427E-05    5.6244316914E-05    5.5666672924E-05    5.5094959083E-05
    5.4529114646E-05    5.3969079483E-05    5.3414794081E-05    5.2866199531E-05
    5.2323237528E-05    5.1785850359E-05    5.1253980900E-05    5.0727572611E-05
    5.0206569529E-05    4.9690916260E-05    4.9180557977E-05    4.8675440411E-05
    4.8175509849E-05    4.7680713123E-05    4.7190997612E-05    4.6706311228E-05
    4.6226602417E-05    4.5751820151E-05    4.5281913922E-05    4.4816833740E-05
    4.4356530122E-05    4.3900954094E-05    4.3450057180E-05    4.3003791400E-05
    4.2562109263E-05    4.2124963765E-05    4.1692308380E-05    4.1264097059E-05
    4.0840284222E-05    4.0420824757E-05    4.0005674011E-05    3.9594787788E-05
    3.9188122344E-05    3.8785634383E-05    3.8387281048E-05    3.7993019924E-05
    3.7602809028E-05    3.7216606805E-05    3.6834372129E-05    3.6456064289E-05
    3.6081642995E-05    3.5711068366E-05    3.5344300930E-05    3.4981301620E-05
    3.4622031765E-05    3.4266453094E-05    3.3914527724E-05    3.3566218161E-05
    3.3221487296E-05    3.2880298396E-05    3.2542615108E-05    3.2208401448E-05
    3.1877621801E-05    3.1550240918E-05    3.1226223909E-05    3.0905536241E-05
    3.0588143736E-05    3.0274012565E-05    2.9963109246E-05    2.9655400637E-05
    2.9350853940E-05    2.9049436688E-05    2.8751116750E-05    2.8455862323E-05
    2.8163641929E-05    2.7874424412E-05    2.7588178937E-05    2.7304874983E-05
    2.7024482344E-05    2.6746971119E-05    2.6472311718E-05    2.6200474852E-05
    2.5931431531E-05    2.5665153065E-05    2.5401611056E-05    2.5140777396E-05
    2.4882624267E-05    2.4627124136E-05    2.4374249750E-05    2.4123974138E-05
    2.3876270603E-05    2.3631112724E-05    2.3388474350E-05    2.3148329597E-05
    2.2910652847E-05    2.2675418745E-05    2.2442602196E-05    2.2212178362E-05
    2.1984122658E-05    2.1758410754E-05    2.1535018569E-05    2.1313922267E-05
    2.1095098257E-05    2.0878523192E-05    2.0664173963E-05    2.0452027696E-05
    2.0242061756E-05    2.0034253736E-05    1.9828581461E-05    1.9625022983E-05
    1.9423556580E-05    1.9224160751E-05    1.9026814218E-05    1.8831495919E-05
    1.8638185009E-05    1.8446860857E-05    1.8257503044E-05    1.8070091360E-05
    1.7884605802E-05    1.7701026574E-05    1.7519334082E-05    1.7339508931E-05
    1.7161531930E-05    1.6985384080E-05    1.6811046580E-05    1.6638500822E-05
    1.6467728386E-05    1.6298711045E-05    1.6131430756E-05    1.5965869664E-05
    1.5802010095E-05    1.5639834558E-05    1.5479325740E-05    1.5320466507E-05
    1.5163239901E-05    1.5007629137E-05    1.4853617604E-05    1.4701188861E-05
    1.4550326633E-05    1.4401014818E-05    1.4253237474E-05    1.4106978825E-05
    1.3962223256E-05    1.3818955315E-05    1.3677159706E-05    1.3536821290E-05
    1.3397925086E-05    1.3260456265E-05    1.3124400151E-05    1.2989742217E-05
    1.2856468088E-05    1.2724563535E-05    1.2594014475E-05    1.2464806971E-05
    1.2336927229E-05    1.2210361595E-05    1.2085096557E-05    1.1961118741E-05
    1.1838414911E-05    1.1716971967E-05    1.1596776943E-05    1.1477817006E-05
    1.1360079457E-05    1.1243551724E-05    1.1128221368E-05    1.1014076076E-05
    1.0901103660E-05    1.0789292060E-05    1.0678629338E-05    1.0569103680E-05
    1.0460703393E-05    1.0353416904E-05    1.0247232759E-05    1.0142139622E-05
    1.0038126273E-05    9.9351816085E-06    9.8332946372E-06    9.7324544825E-06
    9.6326503788E-06    9.5338716715E-06    9.4361078154E-06    9.3393483739E-06
    9.2435830174E-06    9.1488015228E-06    9.0549937719E-06    8.9621497507E-06
    8.8702595479E-06    8.7793133544E-06    8.6893014617E-06    8.6002142613E-06
    8.5120422436E-06    8.4247759967E-06    8.3384062053E-06    8.2529236501E-06
    8.1683192067E-06    8.0845838441E-06    8.0017086247E-06    7.9196847023E-06
    7.8385033222E-06    7.7581558194E-06    7.6786336181E-06    7.5999282307E-06
    7.5220312570E-06    7.4449343830E-06    7.3686293804E-06    7.2931081053E-06
    7.2183624977E-06    7.1443845806E-06    7.0711664590E-06    6.9987003190E-06
    6.9269784271E-06    6.8559931296E-06    6.7857368511E-06    6.7162020945E-06
    6.6473814396E-06    6.5792675426E-06    6.5118531351E-06    6.4451310238E-06
    6.3790940892E-06    6.3137352851E-06    6.2490476377E-06    6.1850242450E-06
    6.1216582760E-06    6.0589429699E-06    5.9968716356E-06    5.9354376507E-06
    5.8746344610E-06    5.8144555797E-06    5.7548945870E-06    5.6959451287E-06
    5.6376009163E-06    5.5798557258E-06    5.5227033974E-06    5.4661378347E-06
    5.4101530037E-06    5.3547429328E-06    5.2999017119E-06    5.2456234914E-06
    5.1919024822E-06    5.1387329545E-06    5.0861092378E-06    5.0340257195E-06
    4.9824768451E-06    4.9314571172E-06    4.8809610947E-06    4.8309833927E-06
    4.7815186819E-06    4.7325616875E-06    4.6841071892E-06    4.6361500203E-06
    4.5886850673E-06    4.5417072693E-06    4.4952116176E-06    4.4491931547E-06
    4.4036469746E-06    4.3585682213E-06    4.3139520892E-06    4.2697938219E-06
    4.2260887121E-06    4.1828321007E-06    4.1400193768E-06    4.0976459767E-06
    4.0557073840E-06    4.0141991283E-06    3.9731167857E-06    3.9324559776E-06
    3.8922123704E-06    3.8523816751E-06    3.8129596471E-06    3.7739420852E-06
    3.7353248315E-06    3.6971037708E-06    3.6592748305E-06    3.6218339797E-06
    3.5847772290E-06    3.5481006301E-06    3.5118002755E-06    3.4758722976E-06
    3.4403128687E-06    3.4051182007E-06    3.3702845443E-06    3.3358081886E-06
    3.3016854613E-06    3.2679127275E-06    3.2344863900E-06    3.2014028885E-06
    3.1686586993E-06    3.1362503351E-06    3.1041743443E-06    3.0724273110E-06
    3.0410058544E-06    3.0099066283E-06    2.9791263212E-06    2.9486616555E-06
    2.9185093875E-06    2.8886663066E-06    2.8591292357E-06    2.8298950299E-06
    2.8009605769E-06    2.7723227966E-06    2.7439786401E-06    2.7159250904E-06
    2.6881591612E-06    2.6606778971E-06    2.6334783730E-06    2.6065576941E-06
    2.5799129952E-06    2.5535414406E-06    2.5274402238E-06    2.5016065673E-06
    2.4760377220E-06    2.4507309671E-06    2.4256836100E-06    2.4008929856E-06
    2.3763564563E-06    2.3520714116E-06    2.3280352680E-06    2.3042454684E-06
    2.2806994821E-06    2.2573948044E-06    2.2343289565E-06    2.2114994850E-06
 </PP_RHOATOM>
 <PP_SPIN_ORB>
   <PP_RELBETA.1  index="1"  lll="0" jjj="0.5"/>
   <PP_RELBETA.2  index="2"  lll="0" jjj="0.5"/>
   <PP_RELBETA.3  index="3"  lll="1" jjj="0.5"/>
   <PP_RELBETA.4  index="4"  lll="1" jjj="1.5"/>
   <PP_RELBETA.5  index="5"  lll="1" jjj="0.5"/>
   <PP_RELBETA.6  index="6"  lll="1" jjj="1.5"/>
   <PP_RELBETA.7  index="7"  lll="2" jjj="1.5"/>
   <PP_RELBETA.8  index="8"  lll="2" jjj="2.5"/>
   <PP_RELBETA.9  index="9"  lll="2" jjj="1.5"/>
   <PP_RELBETA.10 index="10" lll="2" jjj="2.5"/>
   <PP_RELWFC.1  index="1"  lchi="0" jchi="0.5" nn="1"/>
   <PP_RELWFC.2  index="2"  lchi="1" jchi="1.5" nn="2"/>
   <PP_RELWFC.3  index="3"  lchi="1" jchi="0.5" nn="2"/>
   <PP_RELWFC.4  index="4"  lchi="2" jchi="2.5" nn="3"/>
   <PP_RELWFC.5  index="5"  lchi="2" jchi="1.5" nn="3"/>
   <PP_RELWFC.6  index="6"  lchi="0" jchi="0.5" nn="4"/>
 </PP_SPIN_ORB>
</UPF>

