<UPF version="2.0.1">
  <PP_INFO>

 This pseudopotential file has been produced using the code
 ONCVPSP  (Optimized Norm-Conservinng Vanderbilt PSeudopotential)
 fully-relativistic version 4.0.1 06/20/2107 by D. R. Hamann
 The code is available through a link at URL www.mat-simresearch.com.
 Documentation with the package provides a full discription of the
 input data below.


 While it is not required under the terms of the GNU GPL, it is
 suggested that you cite D. R. Hamann, Phys. Rev. B 88, 085117 (2013)
 in any publication using these pseudopotentials.

    <PP_INPUTFILE>
# ATOM AND REFERENCE CONFIGURATION
# atsym  z   nc   nv     iexc    psfile
  Os 76.00   10    4       4      upf
#
#   n    l    f        energy (Ha)
    1    0    2.00
    2    0    2.00
    2    1    6.00
    3    0    2.00
    3    1    6.00
    3    2   10.00
    4    0    2.00
    4    1    6.00
    4    2   10.00
    4    3   14.00
    5    0    2.00
    5    1    6.00
    5    2    6.00
    6    0    2.00
#
# PSEUDOPOTENTIAL AND OPTIMIZATION
# lmax
    3
#
#   l,   rc,     ep,   ncon, nbas, qcut
    0   2.67769  -3.36448    4    7   7.34525
    1   2.70000  -1.86833    4    9   6.00628
    2   2.70000  -0.22987    4    9   5.91387
    3   2.67614   0.50000    4    7   5.93230
#
# LOCAL POTENTIAL
# lloc, lpopt,  rc(5),   dvloc0
    4    5   2.67614      0.00000
#
# VANDERBILT-KLEINMAN-BYLANDER PROJECTORs
# l, nproj, debl
    0    2   3.13859
    1    2   2.00000
    2    2   1.50000
    3    2   3.00000
#
# MODEL CORE CHARGE
# icmod, fcfact, rcfact
    3   5.00000   1.40000
#
# LOG DERIVATIVE ANALYSIS
# epsh1, epsh2, depsh
  -12.00   12.00    0.02
#
# OUTPUT GRID
# rlmax, drl
    6.00    0.01
#
# TEST CONFIGURATIONS
# ncnf
    0
# nvcnf
#   n    l    f
    </PP_INPUTFILE>
  </PP_INFO>
  <!--                               -->
  <!-- END OF HUMAN READABLE SECTION -->
  <!--                               -->
    <PP_HEADER
       generated="Generated using ONCVPSP code by D. R. Hamann"
       author="anonymous"
       date="260612"
       comment=""
       element="Os"
       pseudo_type="NC"
       relativistic="full"
       is_ultrasoft="F"
       is_paw="F"
       is_coulomb="F"
       has_so="T"
       has_wfc="F"
       has_gipaw="F"
       core_correction="T"
       functional="PBE"
       z_valence="   16.00"
       total_psenergy="  -1.84181840540E+02"
       rho_cutoff="   1.33700000000E+01"
       l_max="3"
       l_local="-1"
       mesh_size="  1338"
       number_of_wfc="6"
       number_of_proj="14"/>
 <PP_MESH>
   <PP_R type="real"  size="1338" columns="8">
    0.0000    0.0100    0.0200    0.0300    0.0400    0.0500    0.0600    0.0700
    0.0800    0.0900    0.1000    0.1100    0.1200    0.1300    0.1400    0.1500
    0.1600    0.1700    0.1800    0.1900    0.2000    0.2100    0.2200    0.2300
    0.2400    0.2500    0.2600    0.2700    0.2800    0.2900    0.3000    0.3100
    0.3200    0.3300    0.3400    0.3500    0.3600    0.3700    0.3800    0.3900
    0.4000    0.4100    0.4200    0.4300    0.4400    0.4500    0.4600    0.4700
    0.4800    0.4900    0.5000    0.5100    0.5200    0.5300    0.5400    0.5500
    0.5600    0.5700    0.5800    0.5900    0.6000    0.6100    0.6200    0.6300
    0.6400    0.6500    0.6600    0.6700    0.6800    0.6900    0.7000    0.7100
    0.7200    0.7300    0.7400    0.7500    0.7600    0.7700    0.7800    0.7900
    0.8000    0.8100    0.8200    0.8300    0.8400    0.8500    0.8600    0.8700
    0.8800    0.8900    0.9000    0.9100    0.9200    0.9300    0.9400    0.9500
    0.9600    0.9700    0.9800    0.9900    1.0000    1.0100    1.0200    1.0300
    1.0400    1.0500    1.0600    1.0700    1.0800    1.0900    1.1000    1.1100
    1.1200    1.1300    1.1400    1.1500    1.1600    1.1700    1.1800    1.1900
    1.2000    1.2100    1.2200    1.2300    1.2400    1.2500    1.2600    1.2700
    1.2800    1.2900    1.3000    1.3100    1.3200    1.3300    1.3400    1.3500
    1.3600    1.3700    1.3800    1.3900    1.4000    1.4100    1.4200    1.4300
    1.4400    1.4500    1.4600    1.4700    1.4800    1.4900    1.5000    1.5100
    1.5200    1.5300    1.5400    1.5500    1.5600    1.5700    1.5800    1.5900
    1.6000    1.6100    1.6200    1.6300    1.6400    1.6500    1.6600    1.6700
    1.6800    1.6900    1.7000    1.7100    1.7200    1.7300    1.7400    1.7500
    1.7600    1.7700    1.7800    1.7900    1.8000    1.8100    1.8200    1.8300
    1.8400    1.8500    1.8600    1.8700    1.8800    1.8900    1.9000    1.9100
    1.9200    1.9300    1.9400    1.9500    1.9600    1.9700    1.9800    1.9900
    2.0000    2.0100    2.0200    2.0300    2.0400    2.0500    2.0600    2.0700
    2.0800    2.0900    2.1000    2.1100    2.1200    2.1300    2.1400    2.1500
    2.1600    2.1700    2.1800    2.1900    2.2000    2.2100    2.2200    2.2300
    2.2400    2.2500    2.2600    2.2700    2.2800    2.2900    2.3000    2.3100
    2.3200    2.3300    2.3400    2.3500    2.3600    2.3700    2.3800    2.3900
    2.4000    2.4100    2.4200    2.4300    2.4400    2.4500    2.4600    2.4700
    2.4800    2.4900    2.5000    2.5100    2.5200    2.5300    2.5400    2.5500
    2.5600    2.5700    2.5800    2.5900    2.6000    2.6100    2.6200    2.6300
    2.6400    2.6500    2.6600    2.6700    2.6800    2.6900    2.7000    2.7100
    2.7200    2.7300    2.7400    2.7500    2.7600    2.7700    2.7800    2.7900
    2.8000    2.8100    2.8200    2.8300    2.8400    2.8500    2.8600    2.8700
    2.8800    2.8900    2.9000    2.9100    2.9200    2.9300    2.9400    2.9500
    2.9600    2.9700    2.9800    2.9900    3.0000    3.0100    3.0200    3.0300
    3.0400    3.0500    3.0600    3.0700    3.0800    3.0900    3.1000    3.1100
    3.1200    3.1300    3.1400    3.1500    3.1600    3.1700    3.1800    3.1900
    3.2000    3.2100    3.2200    3.2300    3.2400    3.2500    3.2600    3.2700
    3.2800    3.2900    3.3000    3.3100    3.3200    3.3300    3.3400    3.3500
    3.3600    3.3700    3.3800    3.3900    3.4000    3.4100    3.4200    3.4300
    3.4400    3.4500    3.4600    3.4700    3.4800    3.4900    3.5000    3.5100
    3.5200    3.5300    3.5400    3.5500    3.5600    3.5700    3.5800    3.5900
    3.6000    3.6100    3.6200    3.6300    3.6400    3.6500    3.6600    3.6700
    3.6800    3.6900    3.7000    3.7100    3.7200    3.7300    3.7400    3.7500
    3.7600    3.7700    3.7800    3.7900    3.8000    3.8100    3.8200    3.8300
    3.8400    3.8500    3.8600    3.8700    3.8800    3.8900    3.9000    3.9100
    3.9200    3.9300    3.9400    3.9500    3.9600    3.9700    3.9800    3.9900
    4.0000    4.0100    4.0200    4.0300    4.0400    4.0500    4.0600    4.0700
    4.0800    4.0900    4.1000    4.1100    4.1200    4.1300    4.1400    4.1500
    4.1600    4.1700    4.1800    4.1900    4.2000    4.2100    4.2200    4.2300
    4.2400    4.2500    4.2600    4.2700    4.2800    4.2900    4.3000    4.3100
    4.3200    4.3300    4.3400    4.3500    4.3600    4.3700    4.3800    4.3900
    4.4000    4.4100    4.4200    4.4300    4.4400    4.4500    4.4600    4.4700
    4.4800    4.4900    4.5000    4.5100    4.5200    4.5300    4.5400    4.5500
    4.5600    4.5700    4.5800    4.5900    4.6000    4.6100    4.6200    4.6300
    4.6400    4.6500    4.6600    4.6700    4.6800    4.6900    4.7000    4.7100
    4.7200    4.7300    4.7400    4.7500    4.7600    4.7700    4.7800    4.7900
    4.8000    4.8100    4.8200    4.8300    4.8400    4.8500    4.8600    4.8700
    4.8800    4.8900    4.9000    4.9100    4.9200    4.9300    4.9400    4.9500
    4.9600    4.9700    4.9800    4.9900    5.0000    5.0100    5.0200    5.0300
    5.0400    5.0500    5.0600    5.0700    5.0800    5.0900    5.1000    5.1100
    5.1200    5.1300    5.1400    5.1500    5.1600    5.1700    5.1800    5.1900
    5.2000    5.2100    5.2200    5.2300    5.2400    5.2500    5.2600    5.2700
    5.2800    5.2900    5.3000    5.3100    5.3200    5.3300    5.3400    5.3500
    5.3600    5.3700    5.3800    5.3900    5.4000    5.4100    5.4200    5.4300
    5.4400    5.4500    5.4600    5.4700    5.4800    5.4900    5.5000    5.5100
    5.5200    5.5300    5.5400    5.5500    5.5600    5.5700    5.5800    5.5900
    5.6000    5.6100    5.6200    5.6300    5.6400    5.6500    5.6600    5.6700
    5.6800    5.6900    5.7000    5.7100    5.7200    5.7300    5.7400    5.7500
    5.7600    5.7700    5.7800    5.7900    5.8000    5.8100    5.8200    5.8300
    5.8400    5.8500    5.8600    5.8700    5.8800    5.8900    5.9000    5.9100
    5.9200    5.9300    5.9400    5.9500    5.9600    5.9700    5.9800    5.9900
    6.0000    6.0100    6.0200    6.0300    6.0400    6.0500    6.0600    6.0700
    6.0800    6.0900    6.1000    6.1100    6.1200    6.1300    6.1400    6.1500
    6.1600    6.1700    6.1800    6.1900    6.2000    6.2100    6.2200    6.2300
    6.2400    6.2500    6.2600    6.2700    6.2800    6.2900    6.3000    6.3100
    6.3200    6.3300    6.3400    6.3500    6.3600    6.3700    6.3800    6.3900
    6.4000    6.4100    6.4200    6.4300    6.4400    6.4500    6.4600    6.4700
    6.4800    6.4900    6.5000    6.5100    6.5200    6.5300    6.5400    6.5500
    6.5600    6.5700    6.5800    6.5900    6.6000    6.6100    6.6200    6.6300
    6.6400    6.6500    6.6600    6.6700    6.6800    6.6900    6.7000    6.7100
    6.7200    6.7300    6.7400    6.7500    6.7600    6.7700    6.7800    6.7900
    6.8000    6.8100    6.8200    6.8300    6.8400    6.8500    6.8600    6.8700
    6.8800    6.8900    6.9000    6.9100    6.9200    6.9300    6.9400    6.9500
    6.9600    6.9700    6.9800    6.9900    7.0000    7.0100    7.0200    7.0300
    7.0400    7.0500    7.0600    7.0700    7.0800    7.0900    7.1000    7.1100
    7.1200    7.1300    7.1400    7.1500    7.1600    7.1700    7.1800    7.1900
    7.2000    7.2100    7.2200    7.2300    7.2400    7.2500    7.2600    7.2700
    7.2800    7.2900    7.3000    7.3100    7.3200    7.3300    7.3400    7.3500
    7.3600    7.3700    7.3800    7.3900    7.4000    7.4100    7.4200    7.4300
    7.4400    7.4500    7.4600    7.4700    7.4800    7.4900    7.5000    7.5100
    7.5200    7.5300    7.5400    7.5500    7.5600    7.5700    7.5800    7.5900
    7.6000    7.6100    7.6200    7.6300    7.6400    7.6500    7.6600    7.6700
    7.6800    7.6900    7.7000    7.7100    7.7200    7.7300    7.7400    7.7500
    7.7600    7.7700    7.7800    7.7900    7.8000    7.8100    7.8200    7.8300
    7.8400    7.8500    7.8600    7.8700    7.8800    7.8900    7.9000    7.9100
    7.9200    7.9300    7.9400    7.9500    7.9600    7.9700    7.9800    7.9900
    8.0000    8.0100    8.0200    8.0300    8.0400    8.0500    8.0600    8.0700
    8.0800    8.0900    8.1000    8.1100    8.1200    8.1300    8.1400    8.1500
    8.1600    8.1700    8.1800    8.1900    8.2000    8.2100    8.2200    8.2300
    8.2400    8.2500    8.2600    8.2700    8.2800    8.2900    8.3000    8.3100
    8.3200    8.3300    8.3400    8.3500    8.3600    8.3700    8.3800    8.3900
    8.4000    8.4100    8.4200    8.4300    8.4400    8.4500    8.4600    8.4700
    8.4800    8.4900    8.5000    8.5100    8.5200    8.5300    8.5400    8.5500
    8.5600    8.5700    8.5800    8.5900    8.6000    8.6100    8.6200    8.6300
    8.6400    8.6500    8.6600    8.6700    8.6800    8.6900    8.7000    8.7100
    8.7200    8.7300    8.7400    8.7500    8.7600    8.7700    8.7800    8.7900
    8.8000    8.8100    8.8200    8.8300    8.8400    8.8500    8.8600    8.8700
    8.8800    8.8900    8.9000    8.9100    8.9200    8.9300    8.9400    8.9500
    8.9600    8.9700    8.9800    8.9900    9.0000    9.0100    9.0200    9.0300
    9.0400    9.0500    9.0600    9.0700    9.0800    9.0900    9.1000    9.1100
    9.1200    9.1300    9.1400    9.1500    9.1600    9.1700    9.1800    9.1900
    9.2000    9.2100    9.2200    9.2300    9.2400    9.2500    9.2600    9.2700
    9.2800    9.2900    9.3000    9.3100    9.3200    9.3300    9.3400    9.3500
    9.3600    9.3700    9.3800    9.3900    9.4000    9.4100    9.4200    9.4300
    9.4400    9.4500    9.4600    9.4700    9.4800    9.4900    9.5000    9.5100
    9.5200    9.5300    9.5400    9.5500    9.5600    9.5700    9.5800    9.5900
    9.6000    9.6100    9.6200    9.6300    9.6400    9.6500    9.6600    9.6700
    9.6800    9.6900    9.7000    9.7100    9.7200    9.7300    9.7400    9.7500
    9.7600    9.7700    9.7800    9.7900    9.8000    9.8100    9.8200    9.8300
    9.8400    9.8500    9.8600    9.8700    9.8800    9.8900    9.9000    9.9100
    9.9200    9.9300    9.9400    9.9500    9.9600    9.9700    9.9800    9.9900
   10.0000   10.0100   10.0200   10.0300   10.0400   10.0500   10.0600   10.0700
   10.0800   10.0900   10.1000   10.1100   10.1200   10.1300   10.1400   10.1500
   10.1600   10.1700   10.1800   10.1900   10.2000   10.2100   10.2200   10.2300
   10.2400   10.2500   10.2600   10.2700   10.2800   10.2900   10.3000   10.3100
   10.3200   10.3300   10.3400   10.3500   10.3600   10.3700   10.3800   10.3900
   10.4000   10.4100   10.4200   10.4300   10.4400   10.4500   10.4600   10.4700
   10.4800   10.4900   10.5000   10.5100   10.5200   10.5300   10.5400   10.5500
   10.5600   10.5700   10.5800   10.5900   10.6000   10.6100   10.6200   10.6300
   10.6400   10.6500   10.6600   10.6700   10.6800   10.6900   10.7000   10.7100
   10.7200   10.7300   10.7400   10.7500   10.7600   10.7700   10.7800   10.7900
   10.8000   10.8100   10.8200   10.8300   10.8400   10.8500   10.8600   10.8700
   10.8800   10.8900   10.9000   10.9100   10.9200   10.9300   10.9400   10.9500
   10.9600   10.9700   10.9800   10.9900   11.0000   11.0100   11.0200   11.0300
   11.0400   11.0500   11.0600   11.0700   11.0800   11.0900   11.1000   11.1100
   11.1200   11.1300   11.1400   11.1500   11.1600   11.1700   11.1800   11.1900
   11.2000   11.2100   11.2200   11.2300   11.2400   11.2500   11.2600   11.2700
   11.2800   11.2900   11.3000   11.3100   11.3200   11.3300   11.3400   11.3500
   11.3600   11.3700   11.3800   11.3900   11.4000   11.4100   11.4200   11.4300
   11.4400   11.4500   11.4600   11.4700   11.4800   11.4900   11.5000   11.5100
   11.5200   11.5300   11.5400   11.5500   11.5600   11.5700   11.5800   11.5900
   11.6000   11.6100   11.6200   11.6300   11.6400   11.6500   11.6600   11.6700
   11.6800   11.6900   11.7000   11.7100   11.7200   11.7300   11.7400   11.7500
   11.7600   11.7700   11.7800   11.7900   11.8000   11.8100   11.8200   11.8300
   11.8400   11.8500   11.8600   11.8700   11.8800   11.8900   11.9000   11.9100
   11.9200   11.9300   11.9400   11.9500   11.9600   11.9700   11.9800   11.9900
   12.0000   12.0100   12.0200   12.0300   12.0400   12.0500   12.0600   12.0700
   12.0800   12.0900   12.1000   12.1100   12.1200   12.1300   12.1400   12.1500
   12.1600   12.1700   12.1800   12.1900   12.2000   12.2100   12.2200   12.2300
   12.2400   12.2500   12.2600   12.2700   12.2800   12.2900   12.3000   12.3100
   12.3200   12.3300   12.3400   12.3500   12.3600   12.3700   12.3800   12.3900
   12.4000   12.4100   12.4200   12.4300   12.4400   12.4500   12.4600   12.4700
   12.4800   12.4900   12.5000   12.5100   12.5200   12.5300   12.5400   12.5500
   12.5600   12.5700   12.5800   12.5900   12.6000   12.6100   12.6200   12.6300
   12.6400   12.6500   12.6600   12.6700   12.6800   12.6900   12.7000   12.7100
   12.7200   12.7300   12.7400   12.7500   12.7600   12.7700   12.7800   12.7900
   12.8000   12.8100   12.8200   12.8300   12.8400   12.8500   12.8600   12.8700
   12.8800   12.8900   12.9000   12.9100   12.9200   12.9300   12.9400   12.9500
   12.9600   12.9700   12.9800   12.9900   13.0000   13.0100   13.0200   13.0300
   13.0400   13.0500   13.0600   13.0700   13.0800   13.0900   13.1000   13.1100
   13.1200   13.1300   13.1400   13.1500   13.1600   13.1700   13.1800   13.1900
   13.2000   13.2100   13.2200   13.2300   13.2400   13.2500   13.2600   13.2700
   13.2800   13.2900   13.3000   13.3100   13.3200   13.3300   13.3400   13.3500
   13.3600   13.3700
   </PP_R>
   <PP_RAB type="real"  size="1338" columns="8">
    0.0100    0.0100    0.0100    0.0100    0.0100    0.0100    0.0100    0.0100
    0.0100    0.0100    0.0100    0.0100    0.0100    0.0100    0.0100    0.0100
    0.0100    0.0100    0.0100    0.0100    0.0100    0.0100    0.0100    0.0100
    0.0100    0.0100    0.0100    0.0100    0.0100    0.0100    0.0100    0.0100
    0.0100    0.0100    0.0100    0.0100    0.0100    0.0100    0.0100    0.0100
    0.0100    0.0100    0.0100    0.0100    0.0100    0.0100    0.0100    0.0100
    0.0100    0.0100    0.0100    0.0100    0.0100    0.0100    0.0100    0.0100
    0.0100    0.0100    0.0100    0.0100    0.0100    0.0100    0.0100    0.0100
    0.0100    0.0100    0.0100    0.0100    0.0100    0.0100    0.0100    0.0100
    0.0100    0.0100    0.0100    0.0100    0.0100    0.0100    0.0100    0.0100
    0.0100    0.0100    0.0100    0.0100    0.0100    0.0100    0.0100    0.0100
    0.0100    0.0100    0.0100    0.0100    0.0100    0.0100    0.0100    0.0100
    0.0100    0.0100    0.0100    0.0100    0.0100    0.0100    0.0100    0.0100
    0.0100    0.0100    0.0100    0.0100    0.0100    0.0100    0.0100    0.0100
    0.0100    0.0100    0.0100    0.0100    0.0100    0.0100    0.0100    0.0100
    0.0100    0.0100    0.0100    0.0100    0.0100    0.0100    0.0100    0.0100
    0.0100    0.0100    0.0100    0.0100    0.0100    0.0100    0.0100    0.0100
    0.0100    0.0100    0.0100    0.0100    0.0100    0.0100    0.0100    0.0100
    0.0100    0.0100    0.0100    0.0100    0.0100    0.0100    0.0100    0.0100
    0.0100    0.0100    0.0100    0.0100    0.0100    0.0100    0.0100    0.0100
    0.0100    0.0100    0.0100    0.0100    0.0100    0.0100    0.0100    0.0100
    0.0100    0.0100    0.0100    0.0100    0.0100    0.0100    0.0100    0.0100
    0.0100    0.0100    0.0100    0.0100    0.0100    0.0100    0.0100    0.0100
    0.0100    0.0100    0.0100    0.0100    0.0100    0.0100    0.0100    0.0100
    0.0100    0.0100    0.0100    0.0100    0.0100    0.0100    0.0100    0.0100
    0.0100    0.0100    0.0100    0.0100    0.0100    0.0100    0.0100    0.0100
    0.0100    0.0100    0.0100    0.0100    0.0100    0.0100    0.0100    0.0100
    0.0100    0.0100    0.0100    0.0100    0.0100    0.0100    0.0100    0.0100
    0.0100    0.0100    0.0100    0.0100    0.0100    0.0100    0.0100    0.0100
    0.0100    0.0100    0.0100    0.0100    0.0100    0.0100    0.0100    0.0100
    0.0100    0.0100    0.0100    0.0100    0.0100    0.0100    0.0100    0.0100
    0.0100    0.0100    0.0100    0.0100    0.0100    0.0100    0.0100    0.0100
    0.0100    0.0100    0.0100    0.0100    0.0100    0.0100    0.0100    0.0100
    0.0100    0.0100    0.0100    0.0100    0.0100    0.0100    0.0100    0.0100
    0.0100    0.0100    0.0100    0.0100    0.0100    0.0100    0.0100    0.0100
    0.0100    0.0100    0.0100    0.0100    0.0100    0.0100    0.0100    0.0100
    0.0100    0.0100    0.0100    0.0100    0.0100    0.0100    0.0100    0.0100
    0.0100    0.0100    0.0100    0.0100    0.0100    0.0100    0.0100    0.0100
    0.0100    0.0100    0.0100    0.0100    0.0100    0.0100    0.0100    0.0100
    0.0100    0.0100    0.0100    0.0100    0.0100    0.0100    0.0100    0.0100
    0.0100    0.0100    0.0100    0.0100    0.0100    0.0100    0.0100    0.0100
    0.0100    0.0100    0.0100    0.0100    0.0100    0.0100    0.0100    0.0100
    0.0100    0.0100    0.0100    0.0100    0.0100    0.0100    0.0100    0.0100
    0.0100    0.0100    0.0100    0.0100    0.0100    0.0100    0.0100    0.0100
    0.0100    0.0100    0.0100    0.0100    0.0100    0.0100    0.0100    0.0100
    0.0100    0.0100    0.0100    0.0100    0.0100    0.0100    0.0100    0.0100
    0.0100    0.0100    0.0100    0.0100    0.0100    0.0100    0.0100    0.0100
    0.0100    0.0100    0.0100    0.0100    0.0100    0.0100    0.0100    0.0100
    0.0100    0.0100    0.0100    0.0100    0.0100    0.0100    0.0100    0.0100
    0.0100    0.0100    0.0100    0.0100    0.0100    0.0100    0.0100    0.0100
    0.0100    0.0100    0.0100    0.0100    0.0100    0.0100    0.0100    0.0100
    0.0100    0.0100    0.0100    0.0100    0.0100    0.0100    0.0100    0.0100
    0.0100    0.0100    0.0100    0.0100    0.0100    0.0100    0.0100    0.0100
    0.0100    0.0100    0.0100    0.0100    0.0100    0.0100    0.0100    0.0100
    0.0100    0.0100    0.0100    0.0100    0.0100    0.0100    0.0100    0.0100
    0.0100    0.0100    0.0100    0.0100    0.0100    0.0100    0.0100    0.0100
    0.0100    0.0100    0.0100    0.0100    0.0100    0.0100    0.0100    0.0100
    0.0100    0.0100    0.0100    0.0100    0.0100    0.0100    0.0100    0.0100
    0.0100    0.0100    0.0100    0.0100    0.0100    0.0100    0.0100    0.0100
    0.0100    0.0100    0.0100    0.0100    0.0100    0.0100    0.0100    0.0100
    0.0100    0.0100    0.0100    0.0100    0.0100    0.0100    0.0100    0.0100
    0.0100    0.0100    0.0100    0.0100    0.0100    0.0100    0.0100    0.0100
    0.0100    0.0100    0.0100    0.0100    0.0100    0.0100    0.0100    0.0100
    0.0100    0.0100    0.0100    0.0100    0.0100    0.0100    0.0100    0.0100
    0.0100    0.0100    0.0100    0.0100    0.0100    0.0100    0.0100    0.0100
    0.0100    0.0100    0.0100    0.0100    0.0100    0.0100    0.0100    0.0100
    0.0100    0.0100    0.0100    0.0100    0.0100    0.0100    0.0100    0.0100
    0.0100    0.0100    0.0100    0.0100    0.0100    0.0100    0.0100    0.0100
    0.0100    0.0100    0.0100    0.0100    0.0100    0.0100    0.0100    0.0100
    0.0100    0.0100    0.0100    0.0100    0.0100    0.0100    0.0100    0.0100
    0.0100    0.0100    0.0100    0.0100    0.0100    0.0100    0.0100    0.0100
    0.0100    0.0100    0.0100    0.0100    0.0100    0.0100    0.0100    0.0100
    0.0100    0.0100    0.0100    0.0100    0.0100    0.0100    0.0100    0.0100
    0.0100    0.0100    0.0100    0.0100    0.0100    0.0100    0.0100    0.0100
    0.0100    0.0100    0.0100    0.0100    0.0100    0.0100    0.0100    0.0100
    0.0100    0.0100    0.0100    0.0100    0.0100    0.0100    0.0100    0.0100
    0.0100    0.0100    0.0100    0.0100    0.0100    0.0100    0.0100    0.0100
    0.0100    0.0100    0.0100    0.0100    0.0100    0.0100    0.0100    0.0100
    0.0100    0.0100    0.0100    0.0100    0.0100    0.0100    0.0100    0.0100
    0.0100    0.0100    0.0100    0.0100    0.0100    0.0100    0.0100    0.0100
    0.0100    0.0100    0.0100    0.0100    0.0100    0.0100    0.0100    0.0100
    0.0100    0.0100    0.0100    0.0100    0.0100    0.0100    0.0100    0.0100
    0.0100    0.0100    0.0100    0.0100    0.0100    0.0100    0.0100    0.0100
    0.0100    0.0100    0.0100    0.0100    0.0100    0.0100    0.0100    0.0100
    0.0100    0.0100    0.0100    0.0100    0.0100    0.0100    0.0100    0.0100
    0.0100    0.0100    0.0100    0.0100    0.0100    0.0100    0.0100    0.0100
    0.0100    0.0100    0.0100    0.0100    0.0100    0.0100    0.0100    0.0100
    0.0100    0.0100    0.0100    0.0100    0.0100    0.0100    0.0100    0.0100
    0.0100    0.0100    0.0100    0.0100    0.0100    0.0100    0.0100    0.0100
    0.0100    0.0100    0.0100    0.0100    0.0100    0.0100    0.0100    0.0100
    0.0100    0.0100    0.0100    0.0100    0.0100    0.0100    0.0100    0.0100
    0.0100    0.0100    0.0100    0.0100    0.0100    0.0100    0.0100    0.0100
    0.0100    0.0100    0.0100    0.0100    0.0100    0.0100    0.0100    0.0100
    0.0100    0.0100    0.0100    0.0100    0.0100    0.0100    0.0100    0.0100
    0.0100    0.0100    0.0100    0.0100    0.0100    0.0100    0.0100    0.0100
    0.0100    0.0100    0.0100    0.0100    0.0100    0.0100    0.0100    0.0100
    0.0100    0.0100    0.0100    0.0100    0.0100    0.0100    0.0100    0.0100
    0.0100    0.0100    0.0100    0.0100    0.0100    0.0100    0.0100    0.0100
    0.0100    0.0100    0.0100    0.0100    0.0100    0.0100    0.0100    0.0100
    0.0100    0.0100    0.0100    0.0100    0.0100    0.0100    0.0100    0.0100
    0.0100    0.0100    0.0100    0.0100    0.0100    0.0100    0.0100    0.0100
    0.0100    0.0100    0.0100    0.0100    0.0100    0.0100    0.0100    0.0100
    0.0100    0.0100    0.0100    0.0100    0.0100    0.0100    0.0100    0.0100
    0.0100    0.0100    0.0100    0.0100    0.0100    0.0100    0.0100    0.0100
    0.0100    0.0100    0.0100    0.0100    0.0100    0.0100    0.0100    0.0100
    0.0100    0.0100    0.0100    0.0100    0.0100    0.0100    0.0100    0.0100
    0.0100    0.0100    0.0100    0.0100    0.0100    0.0100    0.0100    0.0100
    0.0100    0.0100    0.0100    0.0100    0.0100    0.0100    0.0100    0.0100
    0.0100    0.0100    0.0100    0.0100    0.0100    0.0100    0.0100    0.0100
    0.0100    0.0100    0.0100    0.0100    0.0100    0.0100    0.0100    0.0100
    0.0100    0.0100    0.0100    0.0100    0.0100    0.0100    0.0100    0.0100
    0.0100    0.0100    0.0100    0.0100    0.0100    0.0100    0.0100    0.0100
    0.0100    0.0100    0.0100    0.0100    0.0100    0.0100    0.0100    0.0100
    0.0100    0.0100    0.0100    0.0100    0.0100    0.0100    0.0100    0.0100
    0.0100    0.0100    0.0100    0.0100    0.0100    0.0100    0.0100    0.0100
    0.0100    0.0100    0.0100    0.0100    0.0100    0.0100    0.0100    0.0100
    0.0100    0.0100    0.0100    0.0100    0.0100    0.0100    0.0100    0.0100
    0.0100    0.0100    0.0100    0.0100    0.0100    0.0100    0.0100    0.0100
    0.0100    0.0100    0.0100    0.0100    0.0100    0.0100    0.0100    0.0100
    0.0100    0.0100    0.0100    0.0100    0.0100    0.0100    0.0100    0.0100
    0.0100    0.0100    0.0100    0.0100    0.0100    0.0100    0.0100    0.0100
    0.0100    0.0100    0.0100    0.0100    0.0100    0.0100    0.0100    0.0100
    0.0100    0.0100    0.0100    0.0100    0.0100    0.0100    0.0100    0.0100
    0.0100    0.0100    0.0100    0.0100    0.0100    0.0100    0.0100    0.0100
    0.0100    0.0100    0.0100    0.0100    0.0100    0.0100    0.0100    0.0100
    0.0100    0.0100    0.0100    0.0100    0.0100    0.0100    0.0100    0.0100
    0.0100    0.0100    0.0100    0.0100    0.0100    0.0100    0.0100    0.0100
    0.0100    0.0100    0.0100    0.0100    0.0100    0.0100    0.0100    0.0100
    0.0100    0.0100    0.0100    0.0100    0.0100    0.0100    0.0100    0.0100
    0.0100    0.0100    0.0100    0.0100    0.0100    0.0100    0.0100    0.0100
    0.0100    0.0100    0.0100    0.0100    0.0100    0.0100    0.0100    0.0100
    0.0100    0.0100    0.0100    0.0100    0.0100    0.0100    0.0100    0.0100
    0.0100    0.0100    0.0100    0.0100    0.0100    0.0100    0.0100    0.0100
    0.0100    0.0100    0.0100    0.0100    0.0100    0.0100    0.0100    0.0100
    0.0100    0.0100    0.0100    0.0100    0.0100    0.0100    0.0100    0.0100
    0.0100    0.0100    0.0100    0.0100    0.0100    0.0100    0.0100    0.0100
    0.0100    0.0100    0.0100    0.0100    0.0100    0.0100    0.0100    0.0100
    0.0100    0.0100    0.0100    0.0100    0.0100    0.0100    0.0100    0.0100
    0.0100    0.0100    0.0100    0.0100    0.0100    0.0100    0.0100    0.0100
    0.0100    0.0100    0.0100    0.0100    0.0100    0.0100    0.0100    0.0100
    0.0100    0.0100    0.0100    0.0100    0.0100    0.0100    0.0100    0.0100
    0.0100    0.0100    0.0100    0.0100    0.0100    0.0100    0.0100    0.0100
    0.0100    0.0100    0.0100    0.0100    0.0100    0.0100    0.0100    0.0100
    0.0100    0.0100    0.0100    0.0100    0.0100    0.0100    0.0100    0.0100
    0.0100    0.0100    0.0100    0.0100    0.0100    0.0100    0.0100    0.0100
    0.0100    0.0100    0.0100    0.0100    0.0100    0.0100    0.0100    0.0100
    0.0100    0.0100    0.0100    0.0100    0.0100    0.0100    0.0100    0.0100
    0.0100    0.0100    0.0100    0.0100    0.0100    0.0100    0.0100    0.0100
    0.0100    0.0100    0.0100    0.0100    0.0100    0.0100    0.0100    0.0100
    0.0100    0.0100    0.0100    0.0100    0.0100    0.0100    0.0100    0.0100
    0.0100    0.0100    0.0100    0.0100    0.0100    0.0100    0.0100    0.0100
    0.0100    0.0100    0.0100    0.0100    0.0100    0.0100    0.0100    0.0100
    0.0100    0.0100    0.0100    0.0100    0.0100    0.0100    0.0100    0.0100
    0.0100    0.0100    0.0100    0.0100    0.0100    0.0100    0.0100    0.0100
    0.0100    0.0100    0.0100    0.0100    0.0100    0.0100    0.0100    0.0100
    0.0100    0.0100    0.0100    0.0100    0.0100    0.0100    0.0100    0.0100
    0.0100    0.0100    0.0100    0.0100    0.0100    0.0100    0.0100    0.0100
    0.0100    0.0100    0.0100    0.0100    0.0100    0.0100    0.0100    0.0100
    0.0100    0.0100    0.0100    0.0100    0.0100    0.0100    0.0100    0.0100
    0.0100    0.0100    0.0100    0.0100    0.0100    0.0100    0.0100    0.0100
    0.0100    0.0100    0.0100    0.0100    0.0100    0.0100    0.0100    0.0100
    0.0100    0.0100    0.0100    0.0100    0.0100    0.0100    0.0100    0.0100
    0.0100    0.0100    0.0100    0.0100    0.0100    0.0100    0.0100    0.0100
    0.0100    0.0100    0.0100    0.0100    0.0100    0.0100    0.0100    0.0100
    0.0100    0.0100    0.0100    0.0100    0.0100    0.0100    0.0100    0.0100
    0.0100    0.0100    0.0100    0.0100    0.0100    0.0100    0.0100    0.0100
    0.0100    0.0100    0.0100    0.0100    0.0100    0.0100    0.0100    0.0100
    0.0100    0.0100
   </PP_RAB>
 </PP_MESH>
  <PP_LOCAL type="real"  size="1338" columns="4">
   -2.7910928560E+01   -2.7910636306E+01   -2.7909759295E+01   -2.7908296791E+01
   -2.7906247569E+01   -2.7903609917E+01   -2.7900381644E+01   -2.7896560082E+01
   -2.7892142094E+01   -2.7887124085E+01   -2.7881502006E+01   -2.7875271371E+01
   -2.7868427263E+01   -2.7860964351E+01   -2.7852876901E+01   -2.7844158795E+01
   -2.7834803543E+01   -2.7824804300E+01   -2.7814153888E+01   -2.7802844813E+01
   -2.7790869281E+01   -2.7778219226E+01   -2.7764886323E+01   -2.7750862018E+01
   -2.7736137545E+01   -2.7720703951E+01   -2.7704552121E+01   -2.7687672798E+01
   -2.7670056616E+01   -2.7651694115E+01   -2.7632575774E+01   -2.7612692032E+01
   -2.7592033317E+01   -2.7570590069E+01   -2.7548352768E+01   -2.7525311959E+01
   -2.7501458276E+01   -2.7476782473E+01   -2.7451275442E+01   -2.7424928244E+01
   -2.7397732133E+01   -2.7369678578E+01   -2.7340759288E+01   -2.7310966239E+01
   -2.7280291690E+01   -2.7248728213E+01   -2.7216268710E+01   -2.7182906436E+01
   -2.7148635018E+01   -2.7113448477E+01   -2.7077341243E+01   -2.7040308177E+01
   -2.7002344585E+01   -2.6963446236E+01   -2.6923609374E+01   -2.6882830736E+01
   -2.6841107562E+01   -2.6798437609E+01   -2.6754819161E+01   -2.6710251038E+01
   -2.6664732604E+01   -2.6618263778E+01   -2.6570845038E+01   -2.6522477425E+01
   -2.6473162549E+01   -2.6422902593E+01   -2.6371700309E+01   -2.6319559028E+01
   -2.6266482649E+01   -2.6212475647E+01   -2.6157543062E+01   -2.6101690502E+01
   -2.6044924131E+01   -2.5987250670E+01   -2.5928677384E+01   -2.5869212079E+01
   -2.5808863087E+01   -2.5747639260E+01   -2.5685549960E+01   -2.5622605043E+01
   -2.5558814849E+01   -2.5494190185E+01   -2.5428742317E+01   -2.5362482948E+01
   -2.5295424204E+01   -2.5227578622E+01   -2.5158959124E+01   -2.5089579010E+01
   -2.5019451928E+01   -2.4948591865E+01   -2.4877013124E+01   -2.4804730303E+01
   -2.4731758277E+01   -2.4658112178E+01   -2.4583807375E+01   -2.4508859452E+01
   -2.4433284188E+01   -2.4357097538E+01   -2.4280315611E+01   -2.4202954651E+01
   -2.4125031014E+01   -2.4046561152E+01   -2.3967561589E+01   -2.3888048906E+01
   -2.3808039719E+01   -2.3727550661E+01   -2.3646598364E+01   -2.3565199443E+01
   -2.3483370475E+01   -2.3401127989E+01   -2.3318488446E+01   -2.3235468223E+01
   -2.3152083604E+01   -2.3068350763E+01   -2.2984285753E+01   -2.2899904494E+01
   -2.2815222762E+01   -2.2730256182E+01   -2.2645020214E+01   -2.2559530153E+01
   -2.2473801114E+01   -2.2387848032E+01   -2.2301685653E+01   -2.2215328534E+01
   -2.2128791036E+01   -2.2042087325E+01   -2.1955231367E+01   -2.1868236932E+01
   -2.1781117588E+01   -2.1693886709E+01   -2.1606557469E+01   -2.1519142850E+01
   -2.1431655640E+01   -2.1344108441E+01   -2.1256513667E+01   -2.1168883552E+01
   -2.1081230151E+01   -2.0993565345E+01   -2.0905900847E+01   -2.0818248204E+01
   -2.0730618803E+01   -2.0643023875E+01   -2.0555474498E+01   -2.0467981602E+01
   -2.0380555973E+01   -2.0293208256E+01   -2.0205948957E+01   -2.0118788448E+01
   -2.0031736969E+01   -1.9944804629E+01   -1.9858001406E+01   -1.9771337152E+01
   -1.9684821592E+01   -1.9598464322E+01   -1.9512274810E+01   -1.9426262397E+01
   -1.9340436293E+01   -1.9254805575E+01   -1.9169379188E+01   -1.9084165937E+01
   -1.8999174490E+01   -1.8914413369E+01   -1.8829890947E+01   -1.8745615446E+01
   -1.8661594930E+01   -1.8577837303E+01   -1.8494350298E+01   -1.8411141478E+01
   -1.8328218225E+01   -1.8245587739E+01   -1.8163257030E+01   -1.8081232909E+01
   -1.7999521990E+01   -1.7918130677E+01   -1.7837065163E+01   -1.7756331423E+01
   -1.7675935209E+01   -1.7595882046E+01   -1.7516177230E+01   -1.7436825819E+01
   -1.7357832635E+01   -1.7279202257E+01   -1.7200939024E+01   -1.7123047028E+01
   -1.7045530117E+01   -1.6968391891E+01   -1.6891635707E+01   -1.6815264677E+01
   -1.6739281670E+01   -1.6663689316E+01   -1.6588490005E+01   -1.6513685897E+01
   -1.6439278921E+01   -1.6365270783E+01   -1.6291662970E+01   -1.6218456757E+01
   -1.6145653214E+01   -1.6073253211E+01   -1.6001257431E+01   -1.5929666372E+01
   -1.5858480360E+01   -1.5787699555E+01   -1.5717323963E+01   -1.5647353446E+01
   -1.5577787729E+01   -1.5508626412E+01   -1.5439868984E+01   -1.5371514827E+01
   -1.5303563233E+01   -1.5236013413E+01   -1.5168864508E+01   -1.5102115601E+01
   -1.5035765728E+01   -1.4969813889E+01   -1.4904259060E+01   -1.4839100206E+01
   -1.4774336287E+01   -1.4709966272E+01   -1.4645989150E+01   -1.4582403939E+01
   -1.4519209691E+01   -1.4456405508E+01   -1.4393990546E+01   -1.4331964020E+01
   -1.4270325215E+01   -1.4209073487E+01   -1.4148208270E+01   -1.4087729080E+01
   -1.4027635513E+01   -1.3967927250E+01   -1.3908604055E+01   -1.3849665774E+01
   -1.3791112331E+01   -1.3732943726E+01   -1.3675160030E+01   -1.3617761379E+01
   -1.3560747965E+01   -1.3504120028E+01   -1.3447877852E+01   -1.3392021749E+01
   -1.3336552051E+01   -1.3281469099E+01   -1.3226773232E+01   -1.3172464774E+01
   -1.3118544021E+01   -1.3065011231E+01   -1.3011866608E+01   -1.2959110292E+01
   -1.2906742345E+01   -1.2854762740E+01   -1.2803171348E+01   -1.2751967925E+01
   -1.2701152104E+01   -1.2650723381E+01   -1.2600681106E+01   -1.2551024475E+01
   -1.2501752517E+01   -1.2452864089E+01   -1.2404357868E+01   -1.2356232341E+01
   -1.2308485801E+01   -1.2261116349E+01   -1.2214121879E+01   -1.2167500081E+01
   -1.2121248434E+01   -1.2075364217E+01   -1.2029844453E+01   -1.1984686005E+01
   -1.1939885534E+01   -1.1895439717E+01   -1.1851344255E+01   -1.1807592205E+01
   -1.1764173925E+01   -1.1721078403E+01   -1.1678299398E+01   -1.1635834283E+01
   -1.1593681169E+01   -1.1551836961E+01   -1.1510296832E+01   -1.1469057221E+01
   -1.1428115051E+01   -1.1387466774E+01   -1.1347108925E+01   -1.1307038148E+01
   -1.1267251109E+01   -1.1227744515E+01   -1.1188515120E+01   -1.1149559728E+01
   -1.1110875192E+01   -1.1072458417E+01   -1.1034306362E+01   -1.0996416040E+01
   -1.0958784521E+01   -1.0921408928E+01   -1.0884286446E+01   -1.0847414314E+01
   -1.0810789830E+01   -1.0774410349E+01   -1.0738273282E+01   -1.0702376100E+01
   -1.0666716326E+01   -1.0631291539E+01   -1.0596099374E+01   -1.0561137515E+01
   -1.0526403699E+01   -1.0491895710E+01   -1.0457611382E+01   -1.0423548593E+01
   -1.0389705265E+01   -1.0356079360E+01   -1.0322668882E+01   -1.0289471868E+01
   -1.0256486394E+01   -1.0223710566E+01   -1.0191142522E+01   -1.0158780427E+01
   -1.0126622474E+01   -1.0094666876E+01   -1.0062911874E+01   -1.0031355724E+01
   -9.9999967028E+00   -9.9688331043E+00   -9.9378632367E+00   -9.9070854221E+00
   -9.8764979953E+00   -9.8460993023E+00   -9.8158876998E+00   -9.7858615537E+00
   -9.7560192391E+00   -9.7263591393E+00   -9.6968796454E+00   -9.6675791569E+00
   -9.6384560849E+00   -9.6095088399E+00   -9.5807358204E+00   -9.5521354767E+00
   -9.5237063410E+00   -9.4954468510E+00   -9.4673552802E+00   -9.4394300349E+00
   -9.4116697746E+00   -9.3840731000E+00   -9.3566384286E+00   -9.3293642076E+00
   -9.3022489884E+00   -9.2752913341E+00   -9.2484897995E+00   -9.2218429585E+00
   -9.1953494050E+00   -9.1690077499E+00   -9.1428166216E+00   -9.1167746675E+00
   -9.0908805536E+00   -9.0651329653E+00   -9.0395306077E+00   -9.0140722056E+00
   -8.9887565037E+00   -8.9635822668E+00   -8.9385482794E+00   -8.9136533458E+00
   -8.8888962898E+00   -8.8642759546E+00   -8.8397912021E+00   -8.8154409127E+00
   -8.7912239847E+00   -8.7671393338E+00   -8.7431858919E+00   -8.7193626097E+00
   -8.6956684692E+00   -8.6721024047E+00   -8.6486633137E+00   -8.6253504237E+00
   -8.6021631396E+00   -8.5791000917E+00   -8.5561589283E+00   -8.5333380337E+00
   -8.5106382752E+00   -8.4880606291E+00   -8.4656041324E+00   -8.4432673262E+00
   -8.4210486829E+00   -8.3989467014E+00   -8.3769601546E+00   -8.3550882790E+00
   -8.3333303990E+00   -8.3116855717E+00   -8.2901528766E+00   -8.2687314486E+00
   -8.2474204332E+00   -8.2262189800E+00   -8.2051262458E+00   -8.1841413967E+00
   -8.1632636073E+00   -8.1424920603E+00   -8.1218259472E+00   -8.1012644673E+00
   -8.0808068281E+00   -8.0604522451E+00   -8.0401999416E+00   -8.0200491489E+00
   -7.9999991057E+00   -7.9800490584E+00   -7.9601982610E+00   -7.9404459748E+00
   -7.9207914684E+00   -7.9012340177E+00   -7.8817729055E+00   -7.8624074221E+00
   -7.8431368642E+00   -7.8239605359E+00   -7.8048777476E+00   -7.7858878168E+00
   -7.7669900674E+00   -7.7481838300E+00   -7.7294684414E+00   -7.7108432451E+00
   -7.6923075908E+00   -7.6738608344E+00   -7.6555023378E+00   -7.6372314694E+00
   -7.6190476032E+00   -7.6009501194E+00   -7.5829384040E+00   -7.5650118488E+00
   -7.5471698512E+00   -7.5294118145E+00   -7.5117371475E+00   -7.4941452645E+00
   -7.4766355853E+00   -7.4592075351E+00   -7.4418605446E+00   -7.4245940495E+00
   -7.4074074908E+00   -7.3903003149E+00   -7.3732719730E+00   -7.3563219214E+00
   -7.3394496217E+00   -7.3226545400E+00   -7.3059361474E+00   -7.2892939200E+00
   -7.2727273385E+00   -7.2562358884E+00   -7.2398190596E+00   -7.2234763470E+00
   -7.2072072498E+00   -7.1910112717E+00   -7.1748879209E+00   -7.1588367100E+00
   -7.1428571560E+00   -7.1269487801E+00   -7.1111111079E+00   -7.0953436690E+00
   -7.0796459972E+00   -7.0640176307E+00   -7.0484581114E+00   -7.0329669855E+00
   -7.0175438030E+00   -7.0021881178E+00   -6.9868994879E+00   -6.9716774751E+00
   -6.9565216449E+00   -6.9414315666E+00   -6.9264068132E+00   -6.9114469616E+00
   -6.8965515921E+00   -6.8817202886E+00   -6.8669526389E+00   -6.8522482339E+00
   -6.8376066682E+00   -6.8230275400E+00   -6.8085104506E+00   -6.7940550050E+00
   -6.7796608113E+00   -6.7653274810E+00   -6.7510546290E+00   -6.7368418733E+00
   -6.7226888352E+00   -6.7085951390E+00   -6.6945604123E+00   -6.6805842858E+00
   -6.6666663932E+00   -6.6528063714E+00   -6.6390038602E+00   -6.6252585023E+00
   -6.6115699435E+00   -6.5979378324E+00   -6.5843618207E+00   -6.5708415627E+00
   -6.5573767158E+00   -6.5439669398E+00   -6.5306118978E+00   -6.5173112552E+00
   -6.5040646804E+00   -6.4908718443E+00   -6.4777324207E+00   -6.4646460857E+00
   -6.4516125183E+00   -6.4386313999E+00   -6.4257024147E+00   -6.4128252492E+00
   -6.3999995924E+00   -6.3872251359E+00   -6.3745015738E+00   -6.3618286025E+00
   -6.3492059209E+00   -6.3366332302E+00   -6.3241102340E+00   -6.3116366383E+00
   -6.2992121513E+00   -6.2868364836E+00   -6.2745093481E+00   -6.2622304597E+00
   -6.2499995359E+00   -6.2378162960E+00   -6.2256804618E+00   -6.2135917572E+00
   -6.2015499081E+00   -6.1895546427E+00   -6.1776056910E+00   -6.1657027856E+00
   -6.1538456606E+00   -6.1420340525E+00   -6.1302676996E+00   -6.1185463425E+00
   -6.1068697234E+00   -6.0952375868E+00   -6.0836496788E+00   -6.0721057479E+00
   -6.0606055440E+00   -6.0491488192E+00   -6.0377353274E+00   -6.0263648244E+00
   -6.0150370676E+00   -6.0037518166E+00   -5.9925088325E+00   -5.9813078783E+00
   -5.9701487188E+00   -5.9590311204E+00   -5.9479548515E+00   -5.9369196819E+00
   -5.9259253834E+00   -5.9149717294E+00   -5.9040584947E+00   -5.8931854562E+00
   -5.8823523922E+00   -5.8715590825E+00   -5.8608053089E+00   -5.8500908544E+00
   -5.8394155038E+00   -5.8287790434E+00   -5.8181812611E+00   -5.8076219463E+00
   -5.7971008899E+00   -5.7866178844E+00   -5.7761727237E+00   -5.7657652033E+00
   -5.7553951201E+00   -5.7450622724E+00   -5.7347664600E+00   -5.7245074843E+00
   -5.7142851477E+00   -5.7040992545E+00   -5.6939496100E+00   -5.6838360212E+00
   -5.6737582962E+00   -5.6637162446E+00   -5.6537096773E+00   -5.6437384066E+00
   -5.6338022460E+00   -5.6239010105E+00   -5.6140345162E+00   -5.6042025805E+00
   -5.5944050223E+00   -5.5846416616E+00   -5.5749123195E+00   -5.5652168187E+00
   -5.5555549829E+00   -5.5459266370E+00   -5.5363316072E+00   -5.5267697209E+00
   -5.5172408066E+00   -5.5077446942E+00   -5.4982812145E+00   -5.4888501996E+00
   -5.4794514827E+00   -5.4700848982E+00   -5.4607502816E+00   -5.4514474695E+00
   -5.4421762997E+00   -5.4329366109E+00   -5.4237282432E+00   -5.4145510375E+00
   -5.4054048359E+00   -5.3962894816E+00   -5.3872048187E+00   -5.3781506925E+00
   -5.3691269494E+00   -5.3601334365E+00   -5.3511700024E+00   -5.3422364962E+00
   -5.3333327684E+00   -5.3244586704E+00   -5.3156140545E+00   -5.3067987740E+00
   -5.2980126831E+00   -5.2892556373E+00   -5.2805274926E+00   -5.2718281062E+00
   -5.2631573363E+00   -5.2545150418E+00   -5.2459010827E+00   -5.2373153200E+00
   -5.2287576153E+00   -5.2202278314E+00   -5.2117258318E+00   -5.2032514810E+00
   -5.1948046444E+00   -5.1863851882E+00   -5.1779929794E+00   -5.1696278860E+00
   -5.1612897768E+00   -5.1529785214E+00   -5.1446939904E+00   -5.1364360550E+00
   -5.1282045874E+00   -5.1199994605E+00   -5.1118205481E+00   -5.1036677247E+00
   -5.0955408658E+00   -5.0874398475E+00   -5.0793645467E+00   -5.0713148412E+00
   -5.0632906094E+00   -5.0552917307E+00   -5.0473180851E+00   -5.0393695534E+00
   -5.0314460171E+00   -5.0235473584E+00   -5.0156734605E+00   -5.0078242070E+00
   -4.9999994824E+00   -4.9921991717E+00   -4.9844231610E+00   -4.9766713374E+00
   -4.9689435883E+00   -4.9612398029E+00   -4.9535598682E+00   -4.9459036717E+00
   -4.9382711027E+00   -4.9306620480E+00   -4.9230764047E+00   -4.9155140693E+00
   -4.9079749377E+00   -4.9004589128E+00   -4.8929658762E+00   -4.8854957158E+00
   -4.8780483210E+00   -4.8706235724E+00   -4.8632213854E+00   -4.8558416657E+00
   -4.8484843203E+00   -4.8411492648E+00   -4.8338363792E+00   -4.8265455550E+00
   -4.8192766827E+00   -4.8120296476E+00   -4.8048043650E+00   -4.7976007423E+00
   -4.7904186891E+00   -4.7832581193E+00   -4.7761189298E+00   -4.7690010234E+00
   -4.7619043022E+00   -4.7548286670E+00   -4.7477740266E+00   -4.7407402880E+00
   -4.7337273589E+00   -4.7267351484E+00   -4.7197635641E+00   -4.7128125147E+00
   -4.7058819096E+00   -4.6989716586E+00   -4.6920816723E+00   -4.6852118617E+00
   -4.6783621382E+00   -4.6715324140E+00   -4.6647226015E+00   -4.6579326138E+00
   -4.6511623644E+00   -4.6444117674E+00   -4.6376807374E+00   -4.6309691894E+00
   -4.6242770389E+00   -4.6176042020E+00   -4.6109505953E+00   -4.6043161355E+00
   -4.5977007404E+00   -4.5911043277E+00   -4.5845268159E+00   -4.5779681239E+00
   -4.5714281711E+00   -4.5649068771E+00   -4.5584041624E+00   -4.5519199476E+00
   -4.5454541538E+00   -4.5390067027E+00   -4.5325775164E+00   -4.5261665173E+00
   -4.5197736284E+00   -4.5133987730E+00   -4.5070418749E+00   -4.5007028585E+00
   -4.4943816483E+00   -4.4880781693E+00   -4.4817923472E+00   -4.4755241079E+00
   -4.4692733775E+00   -4.4630400830E+00   -4.4568241514E+00   -4.4506255103E+00
   -4.4444440876E+00   -4.4382798118E+00   -4.4321326115E+00   -4.4260024160E+00
   -4.4198891546E+00   -4.4137927575E+00   -4.4077131548E+00   -4.4016502773E+00
   -4.3956040561E+00   -4.3895744226E+00   -4.3835613086E+00   -4.3775646464E+00
   -4.3715843685E+00   -4.3656204079E+00   -4.3596726979E+00   -4.3537411721E+00
   -4.3478257645E+00   -4.3419264097E+00   -4.3360430423E+00   -4.3301755973E+00
   -4.3243240104E+00   -4.3184882172E+00   -4.3126681539E+00   -4.3068637569E+00
   -4.3010749632E+00   -4.2953017099E+00   -4.2895439345E+00   -4.2838015748E+00
   -4.2780745690E+00   -4.2723628556E+00   -4.2666663735E+00   -4.2609850618E+00
   -4.2553188599E+00   -4.2496677077E+00   -4.2440315452E+00   -4.2384103131E+00
   -4.2328039519E+00   -4.2272124027E+00   -4.2216356070E+00   -4.2160735064E+00
   -4.2105260429E+00   -4.2049931588E+00   -4.1994747967E+00   -4.1939708995E+00
   -4.1884814104E+00   -4.1830062729E+00   -4.1775454308E+00   -4.1720988282E+00
   -4.1666664095E+00   -4.1612481193E+00   -4.1558439025E+00   -4.1504537045E+00
   -4.1450774707E+00   -4.1397151470E+00   -4.1343666794E+00   -4.1290320143E+00
   -4.1237110983E+00   -4.1184038784E+00   -4.1131103017E+00   -4.1078303157E+00
   -4.1025638681E+00   -4.0973109070E+00   -4.0920713805E+00   -4.0868452373E+00
   -4.0816324260E+00   -4.0764328958E+00   -4.0712465959E+00   -4.0660734759E+00
   -4.0609134857E+00   -4.0557665754E+00   -4.0506326951E+00   -4.0455117956E+00
   -4.0404038277E+00   -4.0353087424E+00   -4.0302264910E+00   -4.0251570252E+00
   -4.0201002967E+00   -4.0150562577E+00   -4.0100248603E+00   -4.0050060572E+00
   -3.9999998011E+00   -3.9950060450E+00   -3.9900247421E+00   -3.9850558460E+00
   -3.9800993103E+00   -3.9751550890E+00   -3.9702231362E+00   -3.9653034063E+00
   -3.9603958540E+00   -3.9555004341E+00   -3.9506171016E+00   -3.9457458118E+00
   -3.9408865203E+00   -3.9360391828E+00   -3.9312037552E+00   -3.9263801937E+00
   -3.9215684546E+00   -3.9167684946E+00   -3.9119802704E+00   -3.9072037390E+00
   -3.9024388577E+00   -3.8976855840E+00   -3.8929438753E+00   -3.8882136897E+00
   -3.8834949850E+00   -3.8787877197E+00   -3.8740918521E+00   -3.8694073408E+00
   -3.8647341448E+00   -3.8600722231E+00   -3.8554215350E+00   -3.8507820398E+00
   -3.8461536973E+00   -3.8415364672E+00   -3.8369303096E+00   -3.8323351847E+00
   -3.8277510530E+00   -3.8231778749E+00   -3.8186156114E+00   -3.8140642233E+00
   -3.8095236718E+00   -3.8049939184E+00   -3.8004749244E+00   -3.7959666517E+00
   -3.7914690620E+00   -3.7869821176E+00   -3.7825057805E+00   -3.7780400134E+00
   -3.7735847786E+00   -3.7691400392E+00   -3.7647057579E+00   -3.7602818980E+00
   -3.7558684227E+00   -3.7514652956E+00   -3.7470724802E+00   -3.7426899404E+00
   -3.7383176402E+00   -3.7339555437E+00   -3.7296036152E+00   -3.7252618193E+00
   -3.7209301206E+00   -3.7166084839E+00   -3.7122968742E+00   -3.7079952566E+00
   -3.7037035965E+00   -3.6994218593E+00   -3.6951500106E+00   -3.6908880163E+00
   -3.6866358422E+00   -3.6823934544E+00   -3.6781608193E+00   -3.6739379032E+00
   -3.6697246726E+00   -3.6655210944E+00   -3.6613271353E+00   -3.6571427625E+00
   -3.6529679429E+00   -3.6488026441E+00   -3.6446468334E+00   -3.6405004785E+00
   -3.6363635471E+00   -3.6322360071E+00   -3.6281178266E+00   -3.6240089739E+00
   -3.6199094172E+00   -3.6158191250E+00   -3.6117380659E+00   -3.6076662088E+00
   -3.6036035226E+00   -3.5995499762E+00   -3.5955055389E+00   -3.5914701801E+00
   -3.5874438691E+00   -3.5834265756E+00   -3.5794182694E+00   -3.5754189202E+00
   -3.5714284982E+00   -3.5674469734E+00   -3.5634743162E+00   -3.5595104969E+00
   -3.5555554860E+00   -3.5516092544E+00   -3.5476717727E+00   -3.5437430119E+00
   -3.5398229430E+00   -3.5359115372E+00   -3.5320087659E+00   -3.5281146005E+00
   -3.5242290125E+00   -3.5203519737E+00   -3.5164834559E+00   -3.5126234309E+00
   -3.5087718709E+00   -3.5049287481E+00   -3.5010940347E+00   -3.4972677031E+00
   -3.4934497261E+00   -3.4896400761E+00   -3.4858387260E+00   -3.4820456487E+00
   -3.4782608172E+00   -3.4744842047E+00   -3.4707157844E+00   -3.4669555296E+00
   -3.4632034140E+00   -3.4594594110E+00   -3.4557234944E+00   -3.4519956381E+00
   -3.4482758159E+00   -3.4445640019E+00   -3.4408601703E+00   -3.4371642954E+00
   -3.4334763516E+00   -3.4297963133E+00   -3.4261241552E+00   -3.4224598519E+00
   -3.4188033784E+00   -3.4151547095E+00   -3.4115138203E+00   -3.4078806859E+00
   -3.4042552815E+00   -3.4006375826E+00   -3.3970275646E+00   -3.3934252030E+00
   -3.3898304735E+00   -3.3862433520E+00   -3.3826638141E+00   -3.3790918361E+00
   -3.3755273938E+00   -3.3719704635E+00   -3.3684210215E+00   -3.3648790442E+00
   -3.3613445080E+00   -3.3578173895E+00   -3.3542976653E+00   -3.3507853123E+00
   -3.3472803073E+00   -3.3437826273E+00   -3.3402922494E+00   -3.3368091506E+00
   -3.3333333083E+00   -3.3298646998E+00   -3.3264033025E+00   -3.3229490940E+00
   -3.3195020519E+00   -3.3160621540E+00   -3.3126293779E+00   -3.3092037017E+00
   -3.3057851034E+00   -3.3023735610E+00   -3.2989690527E+00   -3.2955715567E+00
   -3.2921810515E+00   -3.2887975155E+00   -3.2854209272E+00   -3.2820512652E+00
   -3.2786885082E+00   -3.2753326351E+00   -3.2719836247E+00   -3.2686414560E+00
   -3.2653061081E+00   -3.2619775600E+00   -3.2586557911E+00   -3.2553407805E+00
   -3.2520325079E+00   -3.2487309525E+00   -3.2454360939E+00   -3.2421479119E+00
   -3.2388663861E+00   -3.2355914964E+00   -3.2323232226E+00   -3.2290615447E+00
   -3.2258064428E+00   -3.2225578969E+00   -3.2193158874E+00   -3.2160803945E+00
   -3.2128513985E+00   -3.2096288800E+00   -3.2064128194E+00   -3.2032031974E+00
   -3.1999999946E+00   -3.1968031918E+00   -3.1936127698E+00   -3.1904287096E+00
   -3.1872509922E+00   -3.1840795986E+00   -3.1809145099E+00   -3.1777557074E+00
   -3.1746031723E+00   -3.1714568861E+00   -3.1683168302E+00   -3.1651829860E+00
   -3.1620553352E+00   -3.1589338594E+00   -3.1558185404E+00   -3.1527093599E+00
   -3.1496062999E+00   -3.1465093422E+00   -3.1434184689E+00   -3.1403336621E+00
   -3.1372549040E+00   -3.1341821767E+00   -3.1311154626E+00   -3.1280547440E+00
   -3.1250000034E+00   -3.1219512232E+00   -3.1189083861E+00   -3.1158714746E+00
   -3.1128404716E+00   -3.1098153597E+00   -3.1067961218E+00   -3.1037827408E+00
   -3.1007751997E+00   -3.0977734815E+00   -3.0947775693E+00   -3.0917874464E+00
   -3.0888030958E+00   -3.0858245011E+00   -3.0828516454E+00   -3.0798845122E+00
   -3.0769230851E+00   -3.0739673476E+00   -3.0710172832E+00   -3.0680728757E+00
   -3.0651341089E+00   -3.0622009665E+00   -3.0592734324E+00   -3.0563514905E+00
   -3.0534351248E+00   -3.0505243194E+00   -3.0476190584E+00   -3.0447193260E+00
   -3.0418251064E+00   -3.0389363838E+00   -3.0360531427E+00   -3.0331753675E+00
   -3.0303030426E+00   -3.0274361525E+00   -3.0245746819E+00   -3.0217186154E+00
   -3.0188679377E+00   -3.0160226336E+00   -3.0131826878E+00   -3.0103480854E+00
   -3.0075188111E+00   -3.0046948500E+00   -3.0018761871E+00   -2.9990628076E+00
   -2.9962546966E+00   -2.9934518393E+00   -2.9906542209E+00   -2.9878618269E+00
   -2.9850746426E+00   -2.9822926534E+00   -2.9795158448E+00   -2.9767442023E+00
   -2.9739777117E+00   -2.9712163584E+00   -2.9684601282E+00   -2.9657090068E+00
   -2.9629629802E+00   -2.9602220340E+00   -2.9574861544E+00   -2.9547553271E+00
   -2.9520295382E+00   -2.9493087738E+00   -2.9465930201E+00   -2.9438822631E+00
   -2.9411764892E+00   -2.9384756845E+00   -2.9357798354E+00   -2.9330889283E+00
   -2.9304029496E+00   -2.9277218858E+00   -2.9250457234E+00   -2.9223744489E+00
   -2.9197080490E+00   -2.9170465104E+00   -2.9143898198E+00   -2.9117379638E+00
   -2.9090909295E+00   -2.9064487036E+00   -2.9038112729E+00   -2.9011786246E+00
   -2.8985507456E+00   -2.8959276229E+00   -2.8933092436E+00   -2.8906955950E+00
   -2.8880866641E+00   -2.8854824382E+00   -2.8828829046E+00   -2.8802880506E+00
   -2.8776978637E+00   -2.8751123311E+00   -2.8725314405E+00   -2.8699551793E+00
   -2.8673835350E+00   -2.8648164952E+00   -2.8622540477E+00   -2.8596961800E+00
   -2.8571428800E+00   -2.8545941354E+00   -2.8520499339E+00   -2.8495102636E+00
   -2.8469751122E+00   -2.8444444678E+00   -2.8419183183E+00   -2.8393966518E+00
   -2.8368794563E+00   -2.8343667199E+00   -2.8318584309E+00   -2.8293545774E+00
   -2.8268551477E+00   -2.8243601300E+00   -2.8218695127E+00   -2.8193832842E+00
   -2.8169014328E+00   -2.8144239470E+00   -2.8119508154E+00   -2.8094820264E+00
   -2.8070175685E+00   -2.8045574305E+00   -2.8021016010E+00   -2.7996500687E+00
   -2.7972028222E+00   -2.7947598504E+00   -2.7923211421E+00   -2.7898866861E+00
   -2.7874564713E+00   -2.7850304866E+00   -2.7826087211E+00   -2.7801911636E+00
   -2.7777778033E+00   -2.7753686292E+00   -2.7729636305E+00   -2.7705627963E+00
   -2.7681661157E+00   -2.7657735781E+00   -2.7633851727E+00   -2.7610008888E+00
   -2.7586207156E+00   -2.7562446428E+00   -2.7538726595E+00   -2.7515047553E+00
   -2.7491409197E+00   -2.7467811421E+00   -2.7444254122E+00   -2.7420737196E+00
   -2.7397260538E+00   -2.7373824045E+00   -2.7350427615E+00   -2.7327071145E+00
   -2.7303754532E+00   -2.7280477674E+00   -2.7257240471E+00   -2.7234042820E+00
   -2.7210884621E+00   -2.7187765773E+00   -2.7164686176E+00   -2.7141645731E+00
   -2.7118644336E+00   -2.7095681895E+00   -2.7072758306E+00   -2.7049873473E+00
   -2.7027027297E+00   -2.7004219679E+00   -2.6981450523E+00   -2.6958719732E+00
   -2.6936027207E+00   -2.6913372853E+00   -2.6890756574E+00   -2.6868178273E+00
   -2.6845637856E+00   -2.6823135226E+00   -2.6800670289E+00   -2.6778242950E+00
   -2.6755853116E+00   -2.6733500691E+00   -2.6711185582E+00   -2.6688907696E+00
   -2.6666666940E+00   -2.6644463221E+00   -2.6622296447E+00   -2.6600166525E+00
   -2.6578073364E+00   -2.6556016872E+00   -2.6533996958E+00   -2.6512013531E+00
   -2.6490066500E+00   -2.6468155775E+00   -2.6446281267E+00   -2.6424442884E+00
   -2.6402640539E+00   -2.6380874142E+00   -2.6359143603E+00   -2.6337448835E+00
   -2.6315789749E+00   -2.6294166257E+00   -2.6272578272E+00   -2.6251025706E+00
   -2.6229508472E+00   -2.6208026484E+00   -2.6186579654E+00   -2.6165167896E+00
   -2.6143791125E+00   -2.6122449255E+00   -2.6101142201E+00   -2.6079869876E+00
   -2.6058632197E+00   -2.6037429080E+00   -2.6016260438E+00   -2.5995126189E+00
   -2.5974026250E+00   -2.5952960535E+00   -2.5931928963E+00   -2.5910931449E+00
   -2.5889967913E+00   -2.5869038270E+00   -2.5848142440E+00   -2.5827280340E+00
   -2.5806451888E+00   -2.5785657003E+00   -2.5764895605E+00   -2.5744167612E+00
   -2.5723472943E+00   -2.5702811520E+00   -2.5682183260E+00   -2.5661588085E+00
   -2.5641025915E+00   -2.5620496671E+00   -2.5600000274E+00   -2.5579536645E+00
   -2.5559105705E+00   -2.5538707377E+00   -2.5518341581E+00   -2.5498008241E+00
   -2.5477707280E+00   -2.5457438618E+00   -2.5437202181E+00   -2.5416997890E+00
   -2.5396825669E+00   -2.5376685443E+00   -2.5356577134E+00   -2.5336500668E+00
   -2.5316455968E+00   -2.5296442959E+00   -2.5276461567E+00   -2.5256511716E+00
   -2.5236593331E+00   -2.5216706339E+00   -2.5196850664E+00   -2.5177026234E+00
   -2.5157232975E+00   -2.5137470812E+00   -2.5117739673E+00   -2.5098039485E+00
   -2.5078370175E+00   -2.5058731671E+00   -2.5039123900E+00   -2.5019546789E+00
   -2.5000000268E+00   -2.4980484265E+00   -2.4960998708E+00   -2.4941543526E+00
   -2.4922118648E+00   -2.4902724003E+00   -2.4883359520E+00   -2.4864025131E+00
   -2.4844720763E+00   -2.4825446348E+00   -2.4806201816E+00   -2.4786987098E+00
   -2.4767802123E+00   -2.4748646824E+00   -2.4729521130E+00   -2.4710424975E+00
   -2.4691358289E+00   -2.4672321004E+00   -2.4653313053E+00   -2.4634334367E+00
   -2.4615384879E+00   -2.4596464521E+00   -2.4577573227E+00   -2.4558710930E+00
   -2.4539877563E+00   -2.4521073059E+00   -2.4502297352E+00   -2.4483550376E+00
   -2.4464832065E+00   -2.4446142354E+00   -2.4427481176E+00   -2.4408848467E+00
   -2.4390244162E+00   -2.4371668195E+00   -2.4353120502E+00   -2.4334601019E+00
   -2.4316109681E+00   -2.4297646424E+00   -2.4279211183E+00   -2.4260803896E+00
   -2.4242424499E+00   -2.4224072929E+00   -2.4205749122E+00   -2.4187453015E+00
   -2.4169184546E+00   -2.4150943652E+00   -2.4132730270E+00   -2.4114544339E+00
   -2.4096385797E+00   -2.4078254581E+00   -2.4060150630E+00   -2.4042073882E+00
   -2.4024024277E+00   -2.4006001753E+00   -2.3988006249E+00   -2.3970037705E+00
   -2.3952096060E+00   -2.3934181254E+00
  </PP_LOCAL>
 <PP_NONLOCAL>
   <PP_BETA.1
       type="real"
       size="1338"
       columns="4"
       index="1"
       angular_momentum="0"
       cutoff_radius_index=" 276"
       cutoff_radius="    2.7500000000E+00" >
   -2.4813484600E-14    2.7074136358E-02    5.4131969847E-02    8.1157211271E-02
    1.0813359876E-01    1.3504491143E-01    1.6187498293E-01    1.8860771507E-01
    2.1522709125E-01    2.4171718992E-01    2.6806219792E-01    2.9424642371E-01
    3.2025431053E-01    3.4607044942E-01    3.7167959212E-01    3.9706666381E-01
    4.2221677573E-01    4.4711523763E-01    4.7174757001E-01    4.9609951622E-01
    5.2015705434E-01    5.4390640886E-01    5.6733406211E-01    5.9042676555E-01
    6.1317155066E-01    6.3555573977E-01    6.5756695647E-01    6.7919313584E-01
    7.0042253433E-01    7.2124373942E-01    7.4164567896E-01    7.6161763009E-01
    7.8114922803E-01    8.0023047435E-01    8.1885174505E-01    8.3700379817E-01
    8.5467778112E-01    8.7186523764E-01    8.8855811431E-01    9.0474876678E-01
    9.2042996555E-01    9.3559490133E-01    9.5023719008E-01    9.6435087758E-01
    9.7793044355E-01    9.9097080543E-01    1.0034673217E+00    1.0154157947E+00
    1.0268124732E+00    1.0376540541E+00    1.0479376846E+00    1.0576609624E+00
    1.0668219373E+00    1.0754191107E+00    1.0834514356E+00    1.0909183162E+00
    1.0978196060E+00    1.1041556069E+00    1.1099270669E+00    1.1151351771E+00
    1.1197815696E+00    1.1238683132E+00    1.1273979100E+00    1.1303732909E+00
    1.1327978109E+00    1.1346752438E+00    1.1360097767E+00    1.1368060035E+00
    1.1370689191E+00    1.1368039118E+00    1.1360167563E+00    1.1347136061E+00
    1.1329009851E+00    1.1305857793E+00    1.1277752279E+00    1.1244769140E+00
    1.1206987552E+00    1.1164489934E+00    1.1117361849E+00    1.1065691896E+00
    1.1009571601E+00    1.0949095310E+00    1.0884360069E+00    1.0815465510E+00
    1.0742513732E+00    1.0665609180E+00    1.0584858519E+00    1.0500370511E+00
    1.0412255886E+00    1.0320627212E+00    1.0225598767E+00    1.0127286406E+00
    1.0025807428E+00    9.9212804402E-01    9.8138252268E-01    9.7035626110E-01
    9.5906143202E-01    9.4751028504E-01    9.3571513294E-01    9.2368833817E-01
    9.1144229927E-01    8.9898943735E-01    8.8634218272E-01    8.7351296150E-01
    8.6051418240E-01    8.4735822362E-01    8.3405741987E-01    8.2062404957E-01
    8.0707032221E-01    7.9340836593E-01    7.7965021527E-01    7.6580779920E-01
    7.5189292932E-01    7.3791728840E-01    7.2389241917E-01    7.0982971330E-01
    6.9574040087E-01    6.8163553998E-01    6.6752600678E-01    6.5342248583E-01
    6.3933546080E-01    6.2527520553E-01    6.1125177548E-01    5.9727499955E-01
    5.8335447232E-01    5.6949954665E-01    5.5571932675E-01    5.4202266157E-01
    5.2841813874E-01    5.1491407886E-01    5.0151853020E-01    4.8823926391E-01
    4.7508376966E-01    4.6205925162E-01    4.4917262507E-01    4.3643051328E-01
    4.2383924493E-01    4.1140485197E-01    3.9913306789E-01    3.8702932646E-01
    3.7509876091E-01    3.6334620350E-01    3.5177618563E-01    3.4039293822E-01
    3.2920039264E-01    3.1820218200E-01    3.0740164286E-01    2.9680181729E-01
    2.8640545541E-01    2.7621501822E-01    2.6623268088E-01    2.5646033627E-01
    2.4689959893E-01    2.3755180942E-01    2.2841803882E-01    2.1949909376E-01
    2.1079552157E-01    2.0230761582E-01    1.9403542209E-01    1.8597874404E-01
    1.7813714964E-01    1.7050997777E-01    1.6309634486E-01    1.5589515188E-01
    1.4890509143E-01    1.4212465505E-01    1.3555214061E-01    1.2918565995E-01
    1.2302314652E-01    1.1706236320E-01    1.1130091022E-01    1.0573623310E-01
    1.0036563069E-01    9.5186263229E-02    9.0195160477E-02    8.5389229798E-02
    8.0765264289E-02    7.6319950871E-02    7.2049878359E-02    6.7951545479E-02
    6.4021368835E-02    6.0255690795E-02    5.6650787299E-02    5.3202875568E-02
    4.9908121696E-02    4.6762648132E-02    4.3762541014E-02    4.0903857375E-02
    3.8182632179E-02    3.5594885201E-02    3.3136627733E-02    3.0803869102E-02
    2.8592623003E-02    2.6498913628E-02    2.4518781593E-02    2.2648289650E-02
    2.0883528180E-02    1.9220620464E-02    1.7655727727E-02    1.6185053943E-02
    1.4804850409E-02    1.3511420077E-02    1.2301121647E-02    1.1170373409E-02
    1.0115656852E-02    9.1335200158E-03    8.2205806020E-03    7.3735288418E-03
    6.5891301159E-03    5.8642273338E-03    5.1957430719E-03    4.5806814741E-03
    4.0161299169E-03    3.4992604443E-03    3.0273309744E-03    2.5976862842E-03
    2.2077587761E-03    1.8550690322E-03    1.5372261624E-03    1.2519279507E-03
    9.9696080882E-04    7.7019954169E-04    5.6960693267E-04    3.9323315620E-04
    2.3921502507E-04    1.0577508022E-04   -8.7794687009E-06   -1.0605794393E-04
   -1.8758753275E-04   -2.5481474486E-04   -3.0910698511E-04   -3.5175423291E-04
   -3.8397081953E-04   -4.0689729433E-04   -4.2160237115E-04   -4.2908494587E-04
   -4.3027617635E-04   -4.2604161602E-04   -4.1718339219E-04   -4.0444242078E-04
   -3.8850064863E-04   -3.6998331526E-04   -3.4946122586E-04   -3.2745302727E-04
   -3.0442747948E-04   -2.8080571476E-04   -2.5696347720E-04   -2.3323333546E-04
   -2.0990686207E-04   -1.8723677246E-04   -1.6543901766E-04   -1.4469469887E-04
   -1.2515276366E-04   -1.0693065951E-04   -9.0116255362E-05   -7.4771788635E-05
   -6.0954935143E-05   -4.8759044145E-05   -3.8191463766E-05   -2.9170042886E-05
   -2.1615506653E-05   -1.5433063313E-05   -1.0514341522E-05   -6.7389431647E-06
   -3.9751352217E-06   -2.0802084454E-06   -9.0255989206E-07   -2.7917118948E-07
   -3.9138175970E-08    1.1784473565E-09   -1.2147141352E-10   -7.3369721737E-10
   -3.4989587171E-10    3.9830193328E-10   -6.7257890718E-13   -2.4094251283E-12
 0. 0. 0. 0.
 0. 0. 0. 0.
 0. 0. 0. 0.
 0. 0. 0. 0.
 0. 0. 0. 0.
 0. 0. 0. 0.
 0. 0. 0. 0.
 0. 0. 0. 0.
 0. 0. 0. 0.
 0. 0. 0. 0.
 0. 0. 0. 0.
 0. 0. 0. 0.
 0. 0. 0. 0.
 0. 0. 0. 0.
 0. 0. 0. 0.
 0. 0. 0. 0.
 0. 0. 0. 0.
 0. 0. 0. 0.
 0. 0. 0. 0.
 0. 0. 0. 0.
 0. 0. 0. 0.
 0. 0. 0. 0.
 0. 0. 0. 0.
 0. 0. 0. 0.
 0. 0. 0. 0.
 0. 0. 0. 0.
 0. 0. 0. 0.
 0. 0. 0. 0.
 0. 0. 0. 0.
 0. 0. 0. 0.
 0. 0. 0. 0.
 0. 0. 0. 0.
 0. 0. 0. 0.
 0. 0. 0. 0.
 0. 0. 0. 0.
 0. 0. 0. 0.
 0. 0. 0. 0.
 0. 0. 0. 0.
 0. 0. 0. 0.
 0. 0. 0. 0.
 0. 0. 0. 0.
 0. 0. 0. 0.
 0. 0. 0. 0.
 0. 0. 0. 0.
 0. 0. 0. 0.
 0. 0. 0. 0.
 0. 0. 0. 0.
 0. 0. 0. 0.
 0. 0. 0. 0.
 0. 0. 0. 0.
 0. 0. 0. 0.
 0. 0. 0. 0.
 0. 0. 0. 0.
 0. 0. 0. 0.
 0. 0. 0. 0.
 0. 0. 0. 0.
 0. 0. 0. 0.
 0. 0. 0. 0.
 0. 0. 0. 0.
 0. 0. 0. 0.
 0. 0. 0. 0.
 0. 0. 0. 0.
 0. 0. 0. 0.
 0. 0. 0. 0.
 0. 0. 0. 0.
 0. 0. 0. 0.
 0. 0. 0. 0.
 0. 0. 0. 0.
 0. 0. 0. 0.
 0. 0. 0. 0.
 0. 0. 0. 0.
 0. 0. 0. 0.
 0. 0. 0. 0.
 0. 0. 0. 0.
 0. 0. 0. 0.
 0. 0. 0. 0.
 0. 0. 0. 0.
 0. 0. 0. 0.
 0. 0. 0. 0.
 0. 0. 0. 0.
 0. 0. 0. 0.
 0. 0. 0. 0.
 0. 0. 0. 0.
 0. 0. 0. 0.
 0. 0. 0. 0.
 0. 0. 0. 0.
 0. 0. 0. 0.
 0. 0. 0. 0.
 0. 0. 0. 0.
 0. 0. 0. 0.
 0. 0. 0. 0.
 0. 0. 0. 0.
 0. 0. 0. 0.
 0. 0. 0. 0.
 0. 0. 0. 0.
 0. 0. 0. 0.
 0. 0. 0. 0.
 0. 0. 0. 0.
 0. 0. 0. 0.
 0. 0. 0. 0.
 0. 0. 0. 0.
 0. 0. 0. 0.
 0. 0. 0. 0.
 0. 0. 0. 0.
 0. 0. 0. 0.
 0. 0. 0. 0.
 0. 0. 0. 0.
 0. 0. 0. 0.
 0. 0. 0. 0.
 0. 0. 0. 0.
 0. 0. 0. 0.
 0. 0. 0. 0.
 0. 0. 0. 0.
 0. 0. 0. 0.
 0. 0. 0. 0.
 0. 0. 0. 0.
 0. 0. 0. 0.
 0. 0. 0. 0.
 0. 0. 0. 0.
 0. 0. 0. 0.
 0. 0. 0. 0.
 0. 0. 0. 0.
 0. 0. 0. 0.
 0. 0. 0. 0.
 0. 0. 0. 0.
 0. 0. 0. 0.
 0. 0. 0. 0.
 0. 0. 0. 0.
 0. 0. 0. 0.
 0. 0. 0. 0.
 0. 0. 0. 0.
 0. 0. 0. 0.
 0. 0. 0. 0.
 0. 0. 0. 0.
 0. 0. 0. 0.
 0. 0. 0. 0.
 0. 0. 0. 0.
 0. 0. 0. 0.
 0. 0. 0. 0.
 0. 0. 0. 0.
 0. 0. 0. 0.
 0. 0. 0. 0.
 0. 0. 0. 0.
 0. 0. 0. 0.
 0. 0. 0. 0.
 0. 0. 0. 0.
 0. 0. 0. 0.
 0. 0. 0. 0.
 0. 0. 0. 0.
 0. 0. 0. 0.
 0. 0. 0. 0.
 0. 0. 0. 0.
 0. 0. 0. 0.
 0. 0. 0. 0.
 0. 0. 0. 0.
 0. 0. 0. 0.
 0. 0. 0. 0.
 0. 0. 0. 0.
 0. 0. 0. 0.
 0. 0. 0. 0.
 0. 0. 0. 0.
 0. 0. 0. 0.
 0. 0. 0. 0.
 0. 0. 0. 0.
 0. 0. 0. 0.
 0. 0. 0. 0.
 0. 0. 0. 0.
 0. 0. 0. 0.
 0. 0. 0. 0.
 0. 0. 0. 0.
 0. 0. 0. 0.
 0. 0. 0. 0.
 0. 0. 0. 0.
 0. 0. 0. 0.
 0. 0. 0. 0.
 0. 0. 0. 0.
 0. 0. 0. 0.
 0. 0. 0. 0.
 0. 0. 0. 0.
 0. 0. 0. 0.
 0. 0. 0. 0.
 0. 0. 0. 0.
 0. 0. 0. 0.
 0. 0. 0. 0.
 0. 0. 0. 0.
 0. 0. 0. 0.
 0. 0. 0. 0.
 0. 0. 0. 0.
 0. 0. 0. 0.
 0. 0. 0. 0.
 0. 0. 0. 0.
 0. 0. 0. 0.
 0. 0. 0. 0.
 0. 0. 0. 0.
 0. 0. 0. 0.
 0. 0. 0. 0.
 0. 0. 0. 0.
 0. 0. 0. 0.
 0. 0. 0. 0.
 0. 0. 0. 0.
 0. 0. 0. 0.
 0. 0. 0. 0.
 0. 0. 0. 0.
 0. 0. 0. 0.
 0. 0. 0. 0.
 0. 0. 0. 0.
 0. 0. 0. 0.
 0. 0. 0. 0.
 0. 0. 0. 0.
 0. 0. 0. 0.
 0. 0. 0. 0.
 0. 0. 0. 0.
 0. 0. 0. 0.
 0. 0. 0. 0.
 0. 0. 0. 0.
 0. 0. 0. 0.
 0. 0. 0. 0.
 0. 0. 0. 0.
 0. 0. 0. 0.
 0. 0. 0. 0.
 0. 0. 0. 0.
 0. 0. 0. 0.
 0. 0. 0. 0.
 0. 0. 0. 0.
 0. 0. 0. 0.
 0. 0. 0. 0.
 0. 0. 0. 0.
 0. 0. 0. 0.
 0. 0. 0. 0.
 0. 0. 0. 0.
 0. 0. 0. 0.
 0. 0. 0. 0.
 0. 0. 0. 0.
 0. 0. 0. 0.
 0. 0. 0. 0.
 0. 0. 0. 0.
 0. 0. 0. 0.
 0. 0. 0. 0.
 0. 0. 0. 0.
 0. 0. 0. 0.
 0. 0. 0. 0.
 0. 0. 0. 0.
 0. 0. 0. 0.
 0. 0. 0. 0.
 0. 0. 0. 0.
 0. 0. 0. 0.
 0. 0. 0. 0.
 0. 0. 0. 0.
 0. 0. 0. 0.
 0. 0. 0. 0.
 0. 0. 0. 0.
 0. 0. 0. 0.
 0. 0. 0. 0.
 0. 0. 0. 0.
 0. 0. 0. 0.
 0. 0. 0. 0.
 0. 0. 0. 0.
 0. 0. 0. 0.
 0. 0. 0. 0.
 0. 0. 0. 0.
 0. 0. 0. 0.
 0. 0. 0. 0.
 0. 0. 0. 0.
 0. 0. 0. 0.
 0. 0. 0. 0.
 0. 0.
   </PP_BETA.1>
   <PP_BETA.2
       type="real"
       size="1338"
       columns="4"
       index="2"
       angular_momentum="0"
       cutoff_radius_index=" 276"
       cutoff_radius="    2.7500000000E+00" >
   -7.6327832943E-12    3.4452015330E-02    6.8811365970E-02    1.0298563434E-01
    1.3688289639E-01    1.7041196669E-01    2.0348264149E-01    2.3600593912E-01
    2.6789433699E-01    2.9906200469E-01    3.2942503240E-01    3.5890165411E-01
    3.8741246493E-01    4.1488063202E-01    4.4123209850E-01    4.6639577974E-01
    4.9030375162E-01    5.1289143014E-01    5.3409774200E-01    5.5386528557E-01
    5.7214048194E-01    5.8887371558E-01    6.0401946424E-01    6.1753641776E-01
    6.2938758551E-01    6.3954039212E-01    6.4796676133E-01    6.5464318761E-01
    6.5955079560E-01    6.6267538698E-01    6.6400747485E-01    6.6354230544E-01
    6.6127986712E-01    6.5722488684E-01    6.5138681379E-01    6.4377979057E-01
    6.3442261188E-01    6.2333867091E-01    6.1055589344E-01    5.9610666019E-01
    5.8002771725E-01    5.6236007525E-01    5.4314889722E-01    5.2244337579E-01
    5.0029659982E-01    4.7676541107E-01    4.5191025116E-01    4.2579499934E-01
    3.9848680160E-01    3.7005589141E-01    3.4057540287E-01    3.1012117651E-01
    2.7877155859E-01    2.4660719422E-01    2.1371081496E-01    1.8016702161E-01
    1.4606206259E-01    1.1148360873E-01    7.6520524874E-02    4.1262639206E-02
    5.8005106350E-03   -2.9774804894E-02   -6.5371988645E-02   -1.0089969322E-01
   -1.3626677593E-01   -1.7138253083E-01   -2.0615691868E-01   -2.4050079439E-01
   -2.7432613116E-01   -3.0754624088E-01   -3.4007599013E-01   -3.7183201118E-01
   -4.0273290757E-01   -4.3269945358E-01   -4.6165478726E-01   -4.8952459635E-01
   -5.1623729675E-01   -5.4172420304E-01   -5.6591969065E-01   -5.8876134928E-01
   -6.1019012724E-01   -6.3015046623E-01   -6.4859042651E-01   -6.6546180187E-01
   -6.8072022440E-01   -6.9432525871E-01   -7.0624048542E-01   -7.1643357378E-01
   -7.2487634333E-01   -7.3154481439E-01   -7.3641924742E-01   -7.3948417120E-01
   -7.4072839977E-01   -7.4014503821E-01   -7.3773147732E-01   -7.3348937722E-01
   -7.2742464013E-01   -7.1954737232E-01   -7.0987183554E-01   -6.9841638802E-01
   -6.8520341540E-01   -6.7025925175E-01   -6.5361409101E-01   -6.3530188917E-01
   -6.1536025746E-01   -5.9383034707E-01   -5.7075672550E-01   -5.4618724527E-01
   -5.2017290514E-01   -4.9276770439E-01   -4.6402849064E-01   -4.3401480158E-01
   -4.0278870115E-01   -3.7041461067E-01   -3.3695913538E-01   -3.0249088688E-01
   -2.6708030209E-01   -2.3079945909E-01   -1.9372189052E-01   -1.5592239493E-01
   -1.1747684674E-01   -7.8462005198E-02   -3.8955322956E-02    9.6524523963E-04
    4.1221433266E-02    8.1734853197E-02    1.2242718326E-01    1.6322035369E-01
    2.0403672995E-01    2.4479929301E-01    2.8543181593E-01    3.2585903674E-01
    3.6600682670E-01    4.0580235402E-01    4.4517424225E-01    4.8405272325E-01
    5.2236978423E-01    5.6005930863E-01    5.9705721046E-01    6.3330156184E-01
    6.6873271353E-01    7.0329340811E-01    7.3692888570E-01    7.6958698191E-01
    8.0121821800E-01    8.3177588294E-01    8.6121610740E-01    8.8949792946E-01
    9.1658335205E-01    9.4243739202E-01    9.6702812087E-01    9.9032669704E-01
    1.0123073900E+00    1.0329475957E+00    1.0522278445E+00    1.0701317999E+00
    1.0866462507E+00    1.1017610934E+00    1.1154693088E+00    1.1277669300E+00
    1.1386530029E+00    1.1481295402E+00    1.1562014684E+00    1.1628765674E+00
    1.1681654049E+00    1.1720812636E+00    1.1746400635E+00    1.1758602777E+00
    1.1757628439E+00    1.1743710708E+00    1.1717105394E+00    1.1678090010E+00
    1.1626962704E+00    1.1564041165E+00    1.1489661492E+00    1.1404177039E+00
    1.1307957230E+00    1.1201386362E+00    1.1084862384E+00    1.0958795667E+00
    1.0823607765E+00    1.0679730167E+00    1.0527603049E+00    1.0367674029E+00
    1.0200396920E+00    1.0026230503E+00    9.8456372983E-01    9.6590823619E-01
    9.4670320930E-01    9.2699530660E-01    9.0683108850E-01    8.8625690654E-01
    8.6531879439E-01    8.4406236212E-01    8.2253269384E-01    8.0077424896E-01
    7.7883076740E-01    7.5674517873E-01    7.3455951565E-01    7.1231483180E-01
    6.9005112414E-01    6.6780726004E-01    6.4562090916E-01    6.2352848017E-01
    6.0156506257E-01    5.7976437348E-01    5.5815870957E-01    5.3677890413E-01
    5.1565428933E-01    4.9481266360E-01    4.7428026422E-01    4.5408174501E-01
    4.3424015915E-01    4.1477694696E-01    3.9571192874E-01    3.7706330243E-01
    3.5884764608E-01    3.4107992496E-01    3.2377350325E-01    3.0694016016E-01
    2.9059011029E-01    2.7473202812E-01    2.5937307644E-01    2.4451893857E-01
    2.3017385415E-01    2.1634065835E-01    2.0302082426E-01    1.9021450830E-01
    1.7792059836E-01    1.6613676459E-01    1.5485951244E-01    1.4408423788E-01
    1.3380528451E-01    1.2401600231E-01    1.1470880784E-01    1.0587524561E-01
    9.7506050495E-02    8.9591210761E-02    8.2120031722E-02    7.5081199595E-02
    6.8462845441E-02    6.2252608924E-02    5.6437701690E-02    5.1004970136E-02
    4.5940957372E-02    4.1231964174E-02    3.6864108715E-02    3.2823384908E-02
    2.9095719156E-02    2.5667025354E-02    2.2523257951E-02    1.9650463437E-02
    1.7034826264E-02    1.4662720208E-02    1.2520753737E-02    1.0595794640E-02
    8.8749451083E-03    7.3454487740E-03    5.9951969067E-03    4.8127590165E-03
    3.7870189750E-03    2.9072891218E-03    2.1633336674E-03    1.5453861038E-03
    1.0441681078E-03    6.5110549381E-04    3.5697028838E-04    1.5466337565E-04
    4.2205324379E-05    4.3860231392E-07   -3.6377561225E-06    1.0358683234E-06
    5.9776527590E-07   -2.5393871308E-07    1.2994612424E-12    4.6551483212E-12
 0. 0. 0. 0.
 0. 0. 0. 0.
 0. 0. 0. 0.
 0. 0. 0. 0.
 0. 0. 0. 0.
 0. 0. 0. 0.
 0. 0. 0. 0.
 0. 0. 0. 0.
 0. 0. 0. 0.
 0. 0. 0. 0.
 0. 0. 0. 0.
 0. 0. 0. 0.
 0. 0. 0. 0.
 0. 0. 0. 0.
 0. 0. 0. 0.
 0. 0. 0. 0.
 0. 0. 0. 0.
 0. 0. 0. 0.
 0. 0. 0. 0.
 0. 0. 0. 0.
 0. 0. 0. 0.
 0. 0. 0. 0.
 0. 0. 0. 0.
 0. 0. 0. 0.
 0. 0. 0. 0.
 0. 0. 0. 0.
 0. 0. 0. 0.
 0. 0. 0. 0.
 0. 0. 0. 0.
 0. 0. 0. 0.
 0. 0. 0. 0.
 0. 0. 0. 0.
 0. 0. 0. 0.
 0. 0. 0. 0.
 0. 0. 0. 0.
 0. 0. 0. 0.
 0. 0. 0. 0.
 0. 0. 0. 0.
 0. 0. 0. 0.
 0. 0. 0. 0.
 0. 0. 0. 0.
 0. 0. 0. 0.
 0. 0. 0. 0.
 0. 0. 0. 0.
 0. 0. 0. 0.
 0. 0. 0. 0.
 0. 0. 0. 0.
 0. 0. 0. 0.
 0. 0. 0. 0.
 0. 0. 0. 0.
 0. 0. 0. 0.
 0. 0. 0. 0.
 0. 0. 0. 0.
 0. 0. 0. 0.
 0. 0. 0. 0.
 0. 0. 0. 0.
 0. 0. 0. 0.
 0. 0. 0. 0.
 0. 0. 0. 0.
 0. 0. 0. 0.
 0. 0. 0. 0.
 0. 0. 0. 0.
 0. 0. 0. 0.
 0. 0. 0. 0.
 0. 0. 0. 0.
 0. 0. 0. 0.
 0. 0. 0. 0.
 0. 0. 0. 0.
 0. 0. 0. 0.
 0. 0. 0. 0.
 0. 0. 0. 0.
 0. 0. 0. 0.
 0. 0. 0. 0.
 0. 0. 0. 0.
 0. 0. 0. 0.
 0. 0. 0. 0.
 0. 0. 0. 0.
 0. 0. 0. 0.
 0. 0. 0. 0.
 0. 0. 0. 0.
 0. 0. 0. 0.
 0. 0. 0. 0.
 0. 0. 0. 0.
 0. 0. 0. 0.
 0. 0. 0. 0.
 0. 0. 0. 0.
 0. 0. 0. 0.
 0. 0. 0. 0.
 0. 0. 0. 0.
 0. 0. 0. 0.
 0. 0. 0. 0.
 0. 0. 0. 0.
 0. 0. 0. 0.
 0. 0. 0. 0.
 0. 0. 0. 0.
 0. 0. 0. 0.
 0. 0. 0. 0.
 0. 0. 0. 0.
 0. 0. 0. 0.
 0. 0. 0. 0.
 0. 0. 0. 0.
 0. 0. 0. 0.
 0. 0. 0. 0.
 0. 0. 0. 0.
 0. 0. 0. 0.
 0. 0. 0. 0.
 0. 0. 0. 0.
 0. 0. 0. 0.
 0. 0. 0. 0.
 0. 0. 0. 0.
 0. 0. 0. 0.
 0. 0. 0. 0.
 0. 0. 0. 0.
 0. 0. 0. 0.
 0. 0. 0. 0.
 0. 0. 0. 0.
 0. 0. 0. 0.
 0. 0. 0. 0.
 0. 0. 0. 0.
 0. 0. 0. 0.
 0. 0. 0. 0.
 0. 0. 0. 0.
 0. 0. 0. 0.
 0. 0. 0. 0.
 0. 0. 0. 0.
 0. 0. 0. 0.
 0. 0. 0. 0.
 0. 0. 0. 0.
 0. 0. 0. 0.
 0. 0. 0. 0.
 0. 0. 0. 0.
 0. 0. 0. 0.
 0. 0. 0. 0.
 0. 0. 0. 0.
 0. 0. 0. 0.
 0. 0. 0. 0.
 0. 0. 0. 0.
 0. 0. 0. 0.
 0. 0. 0. 0.
 0. 0. 0. 0.
 0. 0. 0. 0.
 0. 0. 0. 0.
 0. 0. 0. 0.
 0. 0. 0. 0.
 0. 0. 0. 0.
 0. 0. 0. 0.
 0. 0. 0. 0.
 0. 0. 0. 0.
 0. 0. 0. 0.
 0. 0. 0. 0.
 0. 0. 0. 0.
 0. 0. 0. 0.
 0. 0. 0. 0.
 0. 0. 0. 0.
 0. 0. 0. 0.
 0. 0. 0. 0.
 0. 0. 0. 0.
 0. 0. 0. 0.
 0. 0. 0. 0.
 0. 0. 0. 0.
 0. 0. 0. 0.
 0. 0. 0. 0.
 0. 0. 0. 0.
 0. 0. 0. 0.
 0. 0. 0. 0.
 0. 0. 0. 0.
 0. 0. 0. 0.
 0. 0. 0. 0.
 0. 0. 0. 0.
 0. 0. 0. 0.
 0. 0. 0. 0.
 0. 0. 0. 0.
 0. 0. 0. 0.
 0. 0. 0. 0.
 0. 0. 0. 0.
 0. 0. 0. 0.
 0. 0. 0. 0.
 0. 0. 0. 0.
 0. 0. 0. 0.
 0. 0. 0. 0.
 0. 0. 0. 0.
 0. 0. 0. 0.
 0. 0. 0. 0.
 0. 0. 0. 0.
 0. 0. 0. 0.
 0. 0. 0. 0.
 0. 0. 0. 0.
 0. 0. 0. 0.
 0. 0. 0. 0.
 0. 0. 0. 0.
 0. 0. 0. 0.
 0. 0. 0. 0.
 0. 0. 0. 0.
 0. 0. 0. 0.
 0. 0. 0. 0.
 0. 0. 0. 0.
 0. 0. 0. 0.
 0. 0. 0. 0.
 0. 0. 0. 0.
 0. 0. 0. 0.
 0. 0. 0. 0.
 0. 0. 0. 0.
 0. 0. 0. 0.
 0. 0. 0. 0.
 0. 0. 0. 0.
 0. 0. 0. 0.
 0. 0. 0. 0.
 0. 0. 0. 0.
 0. 0. 0. 0.
 0. 0. 0. 0.
 0. 0. 0. 0.
 0. 0. 0. 0.
 0. 0. 0. 0.
 0. 0. 0. 0.
 0. 0. 0. 0.
 0. 0. 0. 0.
 0. 0. 0. 0.
 0. 0. 0. 0.
 0. 0. 0. 0.
 0. 0. 0. 0.
 0. 0. 0. 0.
 0. 0. 0. 0.
 0. 0. 0. 0.
 0. 0. 0. 0.
 0. 0. 0. 0.
 0. 0. 0. 0.
 0. 0. 0. 0.
 0. 0. 0. 0.
 0. 0. 0. 0.
 0. 0. 0. 0.
 0. 0. 0. 0.
 0. 0. 0. 0.
 0. 0. 0. 0.
 0. 0. 0. 0.
 0. 0. 0. 0.
 0. 0. 0. 0.
 0. 0. 0. 0.
 0. 0. 0. 0.
 0. 0. 0. 0.
 0. 0. 0. 0.
 0. 0. 0. 0.
 0. 0. 0. 0.
 0. 0. 0. 0.
 0. 0. 0. 0.
 0. 0. 0. 0.
 0. 0. 0. 0.
 0. 0. 0. 0.
 0. 0. 0. 0.
 0. 0. 0. 0.
 0. 0. 0. 0.
 0. 0. 0. 0.
 0. 0. 0. 0.
 0. 0. 0. 0.
 0. 0. 0. 0.
 0. 0. 0. 0.
 0. 0. 0. 0.
 0. 0. 0. 0.
 0. 0. 0. 0.
 0. 0. 0. 0.
 0. 0. 0. 0.
 0. 0. 0. 0.
 0. 0. 0. 0.
 0. 0. 0. 0.
 0. 0. 0. 0.
 0. 0. 0. 0.
 0. 0.
   </PP_BETA.2>
   <PP_BETA.3
       type="real"
       size="1338"
       columns="4"
       index="3"
       angular_momentum="1"
       cutoff_radius_index=" 276"
       cutoff_radius="    2.7500000000E+00" >
    5.5517916653E-12    4.5025510567E-04    1.8003321621E-03    4.0481675989E-03
    7.1903261682E-03    1.1222006988E-02    1.6137051982E-02    2.1927956701E-02
    2.8585883488E-02    3.6100676972E-02    4.4460881844E-02    5.3653762870E-02
    6.3665327106E-02    7.4480348258E-02    8.6082393125E-02    9.8453850074E-02
    1.1157595948E-01    1.2542884604E-01    1.3999155296E-01    1.5524207782E-01
    1.7115741015E-01    1.8771357061E-01    2.0488565160E-01    2.2264785935E-01
    2.4097355731E-01    2.5983531080E-01    2.7920493274E-01    2.9905353053E-01
    3.1935155380E-01    3.4006884303E-01    3.6117467906E-01    3.8263783308E-01
    4.0442661737E-01    4.2650893641E-01    4.4885233849E-01    4.7142406752E-01
    4.9419111511E-01    5.1712027275E-01    5.4017818404E-01    5.6333139684E-01
    5.8654641528E-01    6.0978975157E-01    6.3302797746E-01    6.5622777539E-01
    6.7935598906E-01    7.0237967357E-01    7.2526614487E-01    7.4798302855E-01
    7.7049830788E-01    7.9278037104E-01    8.1479805738E-01    8.3652070284E-01
    8.5791818427E-01    8.7896096269E-01    8.9962012548E-01    9.1986742730E-01
    9.3967532981E-01    9.5901704011E-01    9.7786654781E-01    9.9619866071E-01
    1.0139890391E+00    1.0312142285E+00    1.0478516910E+00    1.0638798347E+00
    1.0792780423E+00    1.0940266971E+00    1.1081072079E+00    1.1215020321E+00
    1.1341946974E+00    1.1461698206E+00    1.1574131261E+00    1.1679114616E+00
    1.1776528120E+00    1.1866263121E+00    1.1948222564E+00    1.2022321081E+00
    1.2088485053E+00    1.2146652657E+00    1.2196773893E+00    1.2238810589E+00
    1.2272736394E+00    1.2298536738E+00    1.2316208790E+00    1.2325761379E+00
    1.2327214909E+00    1.2320601247E+00    1.2305963595E+00    1.2283356346E+00
    1.2252844912E+00    1.2214505544E+00    1.2168425129E+00    1.2114700969E+00
    1.2053440543E+00    1.1984761255E+00    1.1908790162E+00    1.1825663688E+00
    1.1735527320E+00    1.1638535294E+00    1.1534850265E+00    1.1424642960E+00
    1.1308091822E+00    1.1185382644E+00    1.1056708187E+00    1.0922267790E+00
    1.0782266969E+00    1.0636917012E+00    1.0486434563E+00    1.0331041194E+00
    1.0170962984E+00    1.0006430080E+00    9.8376762628E-01    9.6649385053E-01
    9.4884565320E-01    9.3084723757E-01    9.1252299350E-01    8.9389745329E-01
    8.7499524780E-01    8.5584106281E-01    8.3645959590E-01    8.1687551376E-01
    7.9711341017E-01    7.7719776461E-01    7.5715290179E-01    7.3700295191E-01
    7.1677181200E-01    6.9648310827E-01    6.7616015953E-01    6.5582594191E-01
    6.3550305474E-01    6.1521368782E-01    5.9497959001E-01    5.7482203935E-01
    5.5476181456E-01    5.3481916814E-01    5.1501380100E-01    4.9536483868E-01
    4.7589080923E-01    4.5660962268E-01    4.3753855221E-01    4.1869421697E-01
    4.0009256655E-01    3.8174886717E-01    3.6367768950E-01    3.4589289812E-01
    3.2840764266E-01    3.1123435050E-01    2.9438472113E-01    2.7786972202E-01
    2.6169958602E-01    2.4588381030E-01    2.3043115665E-01    2.1534965331E-01
    2.0064659807E-01    1.8632856270E-01    1.7240139869E-01    1.5887024415E-01
    1.4573953188E-01    1.3301299857E-01    1.2069369503E-01    1.0878399737E-01
    9.7285619215E-02    8.6199624679E-02    7.5526442262E-02    6.5265879446E-02
    5.5417138037E-02    4.5978830156E-02    3.6948994830E-02    2.8325115148E-02
    2.0104135913E-02    1.2282481756E-02    4.8560756581E-03   -2.1796421546E-03
   -8.8296949997E-03   -1.5099550236E-02   -2.0995099515E-02   -2.6522638826E-02
   -3.1688848360E-02   -3.6500772231E-02   -4.0965798080E-02   -4.5091636602E-02
   -4.8886301003E-02   -5.2358086430E-02   -5.5515549386E-02   -5.8367487165E-02
   -6.0922917312E-02   -6.3191057137E-02   -6.5181303312E-02   -6.6903211547E-02
   -6.8366476386E-02   -6.9580911123E-02   -7.0556427873E-02   -7.1303017799E-02
   -7.1830731527E-02   -7.2149659756E-02   -7.2269914092E-02   -7.2201608120E-02
   -7.1954838732E-02   -7.1539667740E-02   -7.0966103785E-02   -7.0244084577E-02
   -6.9383459482E-02   -6.8393972475E-02   -6.7285245507E-02   -6.6066762280E-02
   -6.4747852494E-02   -6.3337676562E-02   -6.1845210841E-02   -6.0279233409E-02
   -5.8648310405E-02   -5.6960782981E-02   -5.5224754880E-02   -5.3448080684E-02
   -5.1638354755E-02   -4.9802900903E-02   -4.7948762808E-02   -4.6082695233E-02
   -4.4211156041E-02   -4.2340299062E-02   -4.0475967810E-02   -3.8623690104E-02
   -3.6788673585E-02   -3.4975802163E-02   -3.3189633410E-02   -3.1434396905E-02
   -2.9713993547E-02   -2.8031995838E-02   -2.6391649145E-02   -2.4795873934E-02
   -2.3247268977E-02   -2.1748115522E-02   -2.0300382412E-02   -1.8905732135E-02
   -1.7565527798E-02   -1.6280840973E-02   -1.5052460416E-02   -1.3880901606E-02
   -1.2766417070E-02   -1.1709007456E-02   -1.0708433310E-02   -9.7642274980E-03
   -8.8757082288E-03   -8.0419926183E-03   -7.2620107344E-03   -6.5345200607E-03
   -5.8581203138E-03   -5.2312685446E-03   -4.6522944576E-03   -4.1194158725E-03
   -3.6307542581E-03   -3.1843502640E-03   -2.7781791762E-03   -2.4101662223E-03
   -2.0782016607E-03   -1.7801555552E-03   -1.5138919692E-03   -1.2772838654E-03
   -1.0682251477E-03   -8.8464329595E-04   -7.2449819369E-04   -5.8580384881E-04
   -4.6667463204E-04   -3.6530708224E-04   -2.7997953122E-04   -2.0906619020E-04
   -1.5104324413E-04   -1.0449570981E-04   -6.8128322991E-05   -4.0756904154E-05
   -2.1193422047E-05   -8.8376889026E-06   -3.0518608912E-06   -9.2755472181E-07
   -1.0113383699E-07    5.3723009973E-08   -4.0432819542E-09   -1.2013734554E-08
 0. 0. 0. 0.
 0. 0. 0. 0.
 0. 0. 0. 0.
 0. 0. 0. 0.
 0. 0. 0. 0.
 0. 0. 0. 0.
 0. 0. 0. 0.
 0. 0. 0. 0.
 0. 0. 0. 0.
 0. 0. 0. 0.
 0. 0. 0. 0.
 0. 0. 0. 0.
 0. 0. 0. 0.
 0. 0. 0. 0.
 0. 0. 0. 0.
 0. 0. 0. 0.
 0. 0. 0. 0.
 0. 0. 0. 0.
 0. 0. 0. 0.
 0. 0. 0. 0.
 0. 0. 0. 0.
 0. 0. 0. 0.
 0. 0. 0. 0.
 0. 0. 0. 0.
 0. 0. 0. 0.
 0. 0. 0. 0.
 0. 0. 0. 0.
 0. 0. 0. 0.
 0. 0. 0. 0.
 0. 0. 0. 0.
 0. 0. 0. 0.
 0. 0. 0. 0.
 0. 0. 0. 0.
 0. 0. 0. 0.
 0. 0. 0. 0.
 0. 0. 0. 0.
 0. 0. 0. 0.
 0. 0. 0. 0.
 0. 0. 0. 0.
 0. 0. 0. 0.
 0. 0. 0. 0.
 0. 0. 0. 0.
 0. 0. 0. 0.
 0. 0. 0. 0.
 0. 0. 0. 0.
 0. 0. 0. 0.
 0. 0. 0. 0.
 0. 0. 0. 0.
 0. 0. 0. 0.
 0. 0. 0. 0.
 0. 0. 0. 0.
 0. 0. 0. 0.
 0. 0. 0. 0.
 0. 0. 0. 0.
 0. 0. 0. 0.
 0. 0. 0. 0.
 0. 0. 0. 0.
 0. 0. 0. 0.
 0. 0. 0. 0.
 0. 0. 0. 0.
 0. 0. 0. 0.
 0. 0. 0. 0.
 0. 0. 0. 0.
 0. 0. 0. 0.
 0. 0. 0. 0.
 0. 0. 0. 0.
 0. 0. 0. 0.
 0. 0. 0. 0.
 0. 0. 0. 0.
 0. 0. 0. 0.
 0. 0. 0. 0.
 0. 0. 0. 0.
 0. 0. 0. 0.
 0. 0. 0. 0.
 0. 0. 0. 0.
 0. 0. 0. 0.
 0. 0. 0. 0.
 0. 0. 0. 0.
 0. 0. 0. 0.
 0. 0. 0. 0.
 0. 0. 0. 0.
 0. 0. 0. 0.
 0. 0. 0. 0.
 0. 0. 0. 0.
 0. 0. 0. 0.
 0. 0. 0. 0.
 0. 0. 0. 0.
 0. 0. 0. 0.
 0. 0. 0. 0.
 0. 0. 0. 0.
 0. 0. 0. 0.
 0. 0. 0. 0.
 0. 0. 0. 0.
 0. 0. 0. 0.
 0. 0. 0. 0.
 0. 0. 0. 0.
 0. 0. 0. 0.
 0. 0. 0. 0.
 0. 0. 0. 0.
 0. 0. 0. 0.
 0. 0. 0. 0.
 0. 0. 0. 0.
 0. 0. 0. 0.
 0. 0. 0. 0.
 0. 0. 0. 0.
 0. 0. 0. 0.
 0. 0. 0. 0.
 0. 0. 0. 0.
 0. 0. 0. 0.
 0. 0. 0. 0.
 0. 0. 0. 0.
 0. 0. 0. 0.
 0. 0. 0. 0.
 0. 0. 0. 0.
 0. 0. 0. 0.
 0. 0. 0. 0.
 0. 0. 0. 0.
 0. 0. 0. 0.
 0. 0. 0. 0.
 0. 0. 0. 0.
 0. 0. 0. 0.
 0. 0. 0. 0.
 0. 0. 0. 0.
 0. 0. 0. 0.
 0. 0. 0. 0.
 0. 0. 0. 0.
 0. 0. 0. 0.
 0. 0. 0. 0.
 0. 0. 0. 0.
 0. 0. 0. 0.
 0. 0. 0. 0.
 0. 0. 0. 0.
 0. 0. 0. 0.
 0. 0. 0. 0.
 0. 0. 0. 0.
 0. 0. 0. 0.
 0. 0. 0. 0.
 0. 0. 0. 0.
 0. 0. 0. 0.
 0. 0. 0. 0.
 0. 0. 0. 0.
 0. 0. 0. 0.
 0. 0. 0. 0.
 0. 0. 0. 0.
 0. 0. 0. 0.
 0. 0. 0. 0.
 0. 0. 0. 0.
 0. 0. 0. 0.
 0. 0. 0. 0.
 0. 0. 0. 0.
 0. 0. 0. 0.
 0. 0. 0. 0.
 0. 0. 0. 0.
 0. 0. 0. 0.
 0. 0. 0. 0.
 0. 0. 0. 0.
 0. 0. 0. 0.
 0. 0. 0. 0.
 0. 0. 0. 0.
 0. 0. 0. 0.
 0. 0. 0. 0.
 0. 0. 0. 0.
 0. 0. 0. 0.
 0. 0. 0. 0.
 0. 0. 0. 0.
 0. 0. 0. 0.
 0. 0. 0. 0.
 0. 0. 0. 0.
 0. 0. 0. 0.
 0. 0. 0. 0.
 0. 0. 0. 0.
 0. 0. 0. 0.
 0. 0. 0. 0.
 0. 0. 0. 0.
 0. 0. 0. 0.
 0. 0. 0. 0.
 0. 0. 0. 0.
 0. 0. 0. 0.
 0. 0. 0. 0.
 0. 0. 0. 0.
 0. 0. 0. 0.
 0. 0. 0. 0.
 0. 0. 0. 0.
 0. 0. 0. 0.
 0. 0. 0. 0.
 0. 0. 0. 0.
 0. 0. 0. 0.
 0. 0. 0. 0.
 0. 0. 0. 0.
 0. 0. 0. 0.
 0. 0. 0. 0.
 0. 0. 0. 0.
 0. 0. 0. 0.
 0. 0. 0. 0.
 0. 0. 0. 0.
 0. 0. 0. 0.
 0. 0. 0. 0.
 0. 0. 0. 0.
 0. 0. 0. 0.
 0. 0. 0. 0.
 0. 0. 0. 0.
 0. 0. 0. 0.
 0. 0. 0. 0.
 0. 0. 0. 0.
 0. 0. 0. 0.
 0. 0. 0. 0.
 0. 0. 0. 0.
 0. 0. 0. 0.
 0. 0. 0. 0.
 0. 0. 0. 0.
 0. 0. 0. 0.
 0. 0. 0. 0.
 0. 0. 0. 0.
 0. 0. 0. 0.
 0. 0. 0. 0.
 0. 0. 0. 0.
 0. 0. 0. 0.
 0. 0. 0. 0.
 0. 0. 0. 0.
 0. 0. 0. 0.
 0. 0. 0. 0.
 0. 0. 0. 0.
 0. 0. 0. 0.
 0. 0. 0. 0.
 0. 0. 0. 0.
 0. 0. 0. 0.
 0. 0. 0. 0.
 0. 0. 0. 0.
 0. 0. 0. 0.
 0. 0. 0. 0.
 0. 0. 0. 0.
 0. 0. 0. 0.
 0. 0. 0. 0.
 0. 0. 0. 0.
 0. 0. 0. 0.
 0. 0. 0. 0.
 0. 0. 0. 0.
 0. 0. 0. 0.
 0. 0. 0. 0.
 0. 0. 0. 0.
 0. 0. 0. 0.
 0. 0. 0. 0.
 0. 0. 0. 0.
 0. 0. 0. 0.
 0. 0. 0. 0.
 0. 0. 0. 0.
 0. 0. 0. 0.
 0. 0. 0. 0.
 0. 0. 0. 0.
 0. 0. 0. 0.
 0. 0. 0. 0.
 0. 0. 0. 0.
 0. 0. 0. 0.
 0. 0. 0. 0.
 0. 0. 0. 0.
 0. 0. 0. 0.
 0. 0. 0. 0.
 0. 0. 0. 0.
 0. 0. 0. 0.
 0. 0. 0. 0.
 0. 0. 0. 0.
 0. 0. 0. 0.
 0. 0. 0. 0.
 0. 0. 0. 0.
 0. 0. 0. 0.
 0. 0.
   </PP_BETA.3>
   <PP_BETA.4
       type="real"
       size="1338"
       columns="4"
       index="4"
       angular_momentum="1"
       cutoff_radius_index=" 276"
       cutoff_radius="    2.7500000000E+00" >
    4.0298389625E-12    4.2141897673E-04    1.6850638621E-03    3.7890995279E-03
    6.7304707802E-03    1.0504907380E-02    1.5106931062E-02    2.0529864528E-02
    2.6765842403E-02    3.3805824138E-02    4.1639608812E-02    5.0255851828E-02
    5.9642083452E-02    6.9784729167E-02    8.0669131792E-02    9.2279575332E-02
    1.0459931050E-01    1.1761058189E-01    1.3129465667E-01    1.4563185486E-01
    1.6060158103E-01    1.7618235740E-01    1.9235185825E-01    2.0908694567E-01
    2.2636370644E-01    2.4415749005E-01    2.6244294783E-01    2.8119407299E-01
    3.0038424164E-01    3.1998625462E-01    3.3997238008E-01    3.6031439681E-01
    3.8098363807E-01    4.0195103605E-01    4.2318716679E-01    4.4466229536E-01
    4.6634642153E-01    4.8820932547E-01    5.1022061375E-01    5.3234976534E-01
    5.5456617762E-01    5.7683921231E-01    5.9913824128E-01    6.2143269208E-01
    6.4369209326E-01    6.6588611924E-01    6.8798463478E-01    7.0995773899E-01
    7.3177580867E-01    7.5340954116E-01    7.7482999635E-01    7.9600863801E-01
    8.1691737432E-01    8.3752859744E-01    8.5781522221E-01    8.7775072385E-01
    8.9730917460E-01    9.1646527927E-01    9.3519440963E-01    9.5347263764E-01
    9.7127676740E-01    9.8858436584E-01    1.0053737920E+00    1.0216242253E+00
    1.0373156916E+00    1.0524290887E+00    1.0669462100E+00    1.0808497666E+00
    1.0941234076E+00    1.1067517396E+00    1.1187203437E+00    1.1300157917E+00
    1.1406256600E+00    1.1505385421E+00    1.1597440597E+00    1.1682328715E+00
    1.1759966810E+00    1.1830282419E+00    1.1893213625E+00    1.1948709075E+00
    1.1996727991E+00    1.2037240156E+00    1.2070225886E+00    1.2095675984E+00
    1.2113591680E+00    1.2123984549E+00    1.2126876416E+00    1.2122299247E+00
    1.2110295014E+00    1.2090915558E+00    1.2064222425E+00    1.2030286693E+00
    1.1989188780E+00    1.1941018240E+00    1.1885873544E+00    1.1823861851E+00
    1.1755098757E+00    1.1679708039E+00    1.1597821387E+00    1.1509578118E+00
    1.1415124883E+00    1.1314615367E+00    1.1208209972E+00    1.1096075496E+00
    1.0978384802E+00    1.0855316477E+00    1.0727054489E+00    1.0593787833E+00
    1.0455710173E+00    1.0313019482E+00    1.0165917670E+00    1.0014610218E+00
    9.8593058026E-01    9.7002159249E-01    9.5375545312E-01    9.3715376391E-01
    9.2023829623E-01    9.0303095361E-01    8.8555373465E-01    8.6782869603E-01
    8.4987791606E-01    8.3172345854E-01    8.1338733718E-01    7.9489148053E-01
    7.7625769768E-01    7.5750764447E-01    7.3866279067E-01    7.1974438782E-01
    7.0077343808E-01    6.8177066392E-01    6.6275647884E-01    6.4375095918E-01
    6.2477381688E-01    6.0584437350E-01    5.8698153531E-01    5.6820376962E-01
    5.4952908231E-01    5.3097499661E-01    5.1255853319E-01    4.9429619148E-01
    4.7620393238E-01    4.5829716223E-01    4.4059071810E-01    4.2309885451E-01
    4.0583523135E-01    3.8881290326E-01    3.7204431028E-01    3.5554126980E-01
    3.3931496985E-01    3.2337596374E-01    3.0773416584E-01    2.9239884875E-01
    2.7737864165E-01    2.6268152985E-01    2.4831485557E-01    2.3428531980E-01
    2.2059898535E-01    2.0726128100E-01    1.9427700662E-01    1.8165033939E-01
    1.6938484100E-01    1.5748346575E-01    1.4594856960E-01    1.3478192006E-01
    1.2398470694E-01    1.1355755383E-01    1.0350053044E-01    9.3813165479E-02
    8.4494460367E-02    7.5542903457E-02    6.6956484896E-02    5.8732712011E-02
    5.0868625198E-02    4.3360814287E-02    3.6205435317E-02    2.9398227704E-02
    2.2934531763E-02    1.6809306533E-02    1.1017147876E-02    5.5523068268E-03
    4.0870813041E-04   -4.4200310390E-03   -8.9405822301E-03   -1.3159886762E-02
   -1.7085136702E-02   -2.0723755809E-02   -2.4083380460E-02   -2.7171840617E-02
   -2.9997140828E-02   -3.2567441329E-02   -3.4891039246E-02   -3.6976349941E-02
   -3.8831888530E-02   -4.0466251595E-02   -4.1888099113E-02   -4.3106136647E-02
   -4.4129097803E-02   -4.4965726998E-02   -4.5624762547E-02   -4.6114920110E-02
   -4.6444876519E-02   -4.6623254002E-02   -4.6658604839E-02   -4.6559396469E-02
   -4.6333997066E-02   -4.5990661623E-02   -4.5537518545E-02   -4.4982556792E-02
   -4.4333613573E-02   -4.3598362639E-02   -4.2784303159E-02   -4.1898749233E-02
   -4.0948820036E-02   -3.9941430610E-02   -3.8883283340E-02   -3.7780860102E-02
   -3.6640415109E-02   -3.5467968472E-02   -3.4269300471E-02   -3.3049946551E-02
   -3.1815193052E-02   -3.0570073674E-02   -2.9319366679E-02   -2.8067592834E-02
   -2.6819014083E-02   -2.5577632963E-02   -2.4347192738E-02   -2.3131178253E-02
   -2.1932817499E-02   -2.0755083870E-02   -1.9600699098E-02   -1.8472136854E-02
   -1.7371626985E-02   -1.6301160377E-02   -1.5262494408E-02   -1.4257158968E-02
   -1.3286463022E-02   -1.2351501679E-02   -1.1453163735E-02   -1.0592139651E-02
   -9.7689299463E-03   -8.9838539409E-03   -8.2370588330E-03   -7.5285290544E-03
   -6.8580958677E-03   -6.2254471600E-03   -5.6301373901E-03   -5.0715976422E-03
   -4.5491457425E-03   -4.0619963933E-03   -3.6092712770E-03   -3.1900090873E-03
   -2.8031754687E-03   -2.4476727376E-03   -2.1223487261E-03   -1.8260089796E-03
   -1.5574212866E-03   -1.3153239779E-03   -1.0983881929E-03   -9.0525858930E-04
   -7.3467703263E-04   -5.8540059595E-04   -4.5617811830E-04   -3.4577381808E-04
   -2.5296868882E-04   -1.7656670250E-04   -1.1540643562E-04   -6.8347566606E-05
   -3.4131477827E-05   -1.2095855344E-05   -1.3496344719E-06    1.3653029250E-06
    3.5303826758E-07   -2.9365437436E-07    1.3704631297E-08    4.7329417761E-08
 0. 0. 0. 0.
 0. 0. 0. 0.
 0. 0. 0. 0.
 0. 0. 0. 0.
 0. 0. 0. 0.
 0. 0. 0. 0.
 0. 0. 0. 0.
 0. 0. 0. 0.
 0. 0. 0. 0.
 0. 0. 0. 0.
 0. 0. 0. 0.
 0. 0. 0. 0.
 0. 0. 0. 0.
 0. 0. 0. 0.
 0. 0. 0. 0.
 0. 0. 0. 0.
 0. 0. 0. 0.
 0. 0. 0. 0.
 0. 0. 0. 0.
 0. 0. 0. 0.
 0. 0. 0. 0.
 0. 0. 0. 0.
 0. 0. 0. 0.
 0. 0. 0. 0.
 0. 0. 0. 0.
 0. 0. 0. 0.
 0. 0. 0. 0.
 0. 0. 0. 0.
 0. 0. 0. 0.
 0. 0. 0. 0.
 0. 0. 0. 0.
 0. 0. 0. 0.
 0. 0. 0. 0.
 0. 0. 0. 0.
 0. 0. 0. 0.
 0. 0. 0. 0.
 0. 0. 0. 0.
 0. 0. 0. 0.
 0. 0. 0. 0.
 0. 0. 0. 0.
 0. 0. 0. 0.
 0. 0. 0. 0.
 0. 0. 0. 0.
 0. 0. 0. 0.
 0. 0. 0. 0.
 0. 0. 0. 0.
 0. 0. 0. 0.
 0. 0. 0. 0.
 0. 0. 0. 0.
 0. 0. 0. 0.
 0. 0. 0. 0.
 0. 0. 0. 0.
 0. 0. 0. 0.
 0. 0. 0. 0.
 0. 0. 0. 0.
 0. 0. 0. 0.
 0. 0. 0. 0.
 0. 0. 0. 0.
 0. 0. 0. 0.
 0. 0. 0. 0.
 0. 0. 0. 0.
 0. 0. 0. 0.
 0. 0. 0. 0.
 0. 0. 0. 0.
 0. 0. 0. 0.
 0. 0. 0. 0.
 0. 0. 0. 0.
 0. 0. 0. 0.
 0. 0. 0. 0.
 0. 0. 0. 0.
 0. 0. 0. 0.
 0. 0. 0. 0.
 0. 0. 0. 0.
 0. 0. 0. 0.
 0. 0. 0. 0.
 0. 0. 0. 0.
 0. 0. 0. 0.
 0. 0. 0. 0.
 0. 0. 0. 0.
 0. 0. 0. 0.
 0. 0. 0. 0.
 0. 0. 0. 0.
 0. 0. 0. 0.
 0. 0. 0. 0.
 0. 0. 0. 0.
 0. 0. 0. 0.
 0. 0. 0. 0.
 0. 0. 0. 0.
 0. 0. 0. 0.
 0. 0. 0. 0.
 0. 0. 0. 0.
 0. 0. 0. 0.
 0. 0. 0. 0.
 0. 0. 0. 0.
 0. 0. 0. 0.
 0. 0. 0. 0.
 0. 0. 0. 0.
 0. 0. 0. 0.
 0. 0. 0. 0.
 0. 0. 0. 0.
 0. 0. 0. 0.
 0. 0. 0. 0.
 0. 0. 0. 0.
 0. 0. 0. 0.
 0. 0. 0. 0.
 0. 0. 0. 0.
 0. 0. 0. 0.
 0. 0. 0. 0.
 0. 0. 0. 0.
 0. 0. 0. 0.
 0. 0. 0. 0.
 0. 0. 0. 0.
 0. 0. 0. 0.
 0. 0. 0. 0.
 0. 0. 0. 0.
 0. 0. 0. 0.
 0. 0. 0. 0.
 0. 0. 0. 0.
 0. 0. 0. 0.
 0. 0. 0. 0.
 0. 0. 0. 0.
 0. 0. 0. 0.
 0. 0. 0. 0.
 0. 0. 0. 0.
 0. 0. 0. 0.
 0. 0. 0. 0.
 0. 0. 0. 0.
 0. 0. 0. 0.
 0. 0. 0. 0.
 0. 0. 0. 0.
 0. 0. 0. 0.
 0. 0. 0. 0.
 0. 0. 0. 0.
 0. 0. 0. 0.
 0. 0. 0. 0.
 0. 0. 0. 0.
 0. 0. 0. 0.
 0. 0. 0. 0.
 0. 0. 0. 0.
 0. 0. 0. 0.
 0. 0. 0. 0.
 0. 0. 0. 0.
 0. 0. 0. 0.
 0. 0. 0. 0.
 0. 0. 0. 0.
 0. 0. 0. 0.
 0. 0. 0. 0.
 0. 0. 0. 0.
 0. 0. 0. 0.
 0. 0. 0. 0.
 0. 0. 0. 0.
 0. 0. 0. 0.
 0. 0. 0. 0.
 0. 0. 0. 0.
 0. 0. 0. 0.
 0. 0. 0. 0.
 0. 0. 0. 0.
 0. 0. 0. 0.
 0. 0. 0. 0.
 0. 0. 0. 0.
 0. 0. 0. 0.
 0. 0. 0. 0.
 0. 0. 0. 0.
 0. 0. 0. 0.
 0. 0. 0. 0.
 0. 0. 0. 0.
 0. 0. 0. 0.
 0. 0. 0. 0.
 0. 0. 0. 0.
 0. 0. 0. 0.
 0. 0. 0. 0.
 0. 0. 0. 0.
 0. 0. 0. 0.
 0. 0. 0. 0.
 0. 0. 0. 0.
 0. 0. 0. 0.
 0. 0. 0. 0.
 0. 0. 0. 0.
 0. 0. 0. 0.
 0. 0. 0. 0.
 0. 0. 0. 0.
 0. 0. 0. 0.
 0. 0. 0. 0.
 0. 0. 0. 0.
 0. 0. 0. 0.
 0. 0. 0. 0.
 0. 0. 0. 0.
 0. 0. 0. 0.
 0. 0. 0. 0.
 0. 0. 0. 0.
 0. 0. 0. 0.
 0. 0. 0. 0.
 0. 0. 0. 0.
 0. 0. 0. 0.
 0. 0. 0. 0.
 0. 0. 0. 0.
 0. 0. 0. 0.
 0. 0. 0. 0.
 0. 0. 0. 0.
 0. 0. 0. 0.
 0. 0. 0. 0.
 0. 0. 0. 0.
 0. 0. 0. 0.
 0. 0. 0. 0.
 0. 0. 0. 0.
 0. 0. 0. 0.
 0. 0. 0. 0.
 0. 0. 0. 0.
 0. 0. 0. 0.
 0. 0. 0. 0.
 0. 0. 0. 0.
 0. 0. 0. 0.
 0. 0. 0. 0.
 0. 0. 0. 0.
 0. 0. 0. 0.
 0. 0. 0. 0.
 0. 0. 0. 0.
 0. 0. 0. 0.
 0. 0. 0. 0.
 0. 0. 0. 0.
 0. 0. 0. 0.
 0. 0. 0. 0.
 0. 0. 0. 0.
 0. 0. 0. 0.
 0. 0. 0. 0.
 0. 0. 0. 0.
 0. 0. 0. 0.
 0. 0. 0. 0.
 0. 0. 0. 0.
 0. 0. 0. 0.
 0. 0. 0. 0.
 0. 0. 0. 0.
 0. 0. 0. 0.
 0. 0. 0. 0.
 0. 0. 0. 0.
 0. 0. 0. 0.
 0. 0. 0. 0.
 0. 0. 0. 0.
 0. 0. 0. 0.
 0. 0. 0. 0.
 0. 0. 0. 0.
 0. 0. 0. 0.
 0. 0. 0. 0.
 0. 0. 0. 0.
 0. 0. 0. 0.
 0. 0. 0. 0.
 0. 0. 0. 0.
 0. 0. 0. 0.
 0. 0. 0. 0.
 0. 0. 0. 0.
 0. 0. 0. 0.
 0. 0. 0. 0.
 0. 0. 0. 0.
 0. 0. 0. 0.
 0. 0. 0. 0.
 0. 0. 0. 0.
 0. 0. 0. 0.
 0. 0. 0. 0.
 0. 0. 0. 0.
 0. 0. 0. 0.
 0. 0. 0. 0.
 0. 0. 0. 0.
 0. 0. 0. 0.
 0. 0. 0. 0.
 0. 0. 0. 0.
 0. 0.
   </PP_BETA.4>
   <PP_BETA.5
       type="real"
       size="1338"
       columns="4"
       index="5"
       angular_momentum="1"
       cutoff_radius_index=" 276"
       cutoff_radius="    2.7500000000E+00" >
   -2.2447290554E-11   -4.3187879904E-04   -1.7263747987E-03   -3.8800698222E-03
   -6.8872769483E-03   -1.0740055530E-02   -1.5428232138E-02   -2.0939427349E-02
   -2.7259088276E-02   -3.4370526706E-02   -4.2254962713E-02   -5.0891573567E-02
   -6.0257547766E-02   -7.0328143965E-02   -8.1076754618E-02   -9.2474974060E-02
   -1.0449267080E-01   -1.1709806379E-01   -1.3025780229E-01   -1.4393704925E-01
   -1.5809956768E-01   -1.7270780992E-01   -1.8772300933E-01   -2.0310527433E-01
   -2.1881368420E-01   -2.3480638661E-01   -2.5104069641E-01   -2.6747319541E-01
   -2.8405983299E-01   -3.0075602704E-01   -3.1751676516E-01   -3.3429670570E-01
   -3.5105027852E-01   -3.6773178514E-01   -3.8429549799E-01   -4.0069575874E-01
   -4.1688707527E-01   -4.3282421731E-01   -4.4846231031E-01   -4.6375692768E-01
   -4.7866418099E-01   -4.9314080814E-01   -5.0714425931E-01   -5.2063278063E-01
   -5.3356549545E-01   -5.4590248311E-01   -5.5760485515E-01   -5.6863482895E-01
   -5.7895579866E-01   -5.8853240345E-01   -5.9733059303E-01   -6.0531769040E-01
   -6.1246245183E-01   -6.1873512407E-01   -6.2410749873E-01   -6.2855296393E-01
   -6.3204655309E-01   -6.3456499093E-01   -6.3608673675E-01   -6.3659202480E-01
   -6.3606290196E-01   -6.3448326255E-01   -6.3183888037E-01   -6.2811743792E-01
   -6.2330855277E-01   -6.1740380111E-01   -6.1039673841E-01   -6.0228291720E-01
   -5.9305990187E-01   -5.8272728056E-01   -5.7128667396E-01   -5.5874174111E-01
   -5.4509818202E-01   -5.3036373714E-01   -5.1454818360E-01   -4.9766332806E-01
   -4.7972299632E-01   -4.6074301937E-01   -4.4074121599E-01   -4.1973737172E-01
   -3.9775321429E-01   -3.7481238522E-01   -3.5094040773E-01   -3.2616465085E-01
   -3.0051428960E-01   -2.7402026135E-01   -2.4671521822E-01   -2.1863347552E-01
   -1.8981095629E-01   -1.6028513186E-01   -1.3009495853E-01   -9.9280810338E-02
   -6.7884408001E-02   -3.5948744136E-02   -3.5180047688E-03    2.9362512710E-02
    6.2646485030E-02    9.6286651829E-02    1.3023490758E-01    1.6444239649E-01
    1.9885961012E-01    2.3343648763E-01    2.6812251822E-01    3.0286684574E-01
    3.3761837497E-01    3.7232587951E-01    4.0693811079E-01    4.4140390796E-01
    4.7567230839E-01    5.0969265836E-01    5.4341472355E-01    5.7678879920E-01
    6.0976581925E-01    6.4229746440E-01    6.7433626852E-01    7.0583572312E-01
    7.3675037958E-01    7.6703594864E-01    7.9664939686E-01    8.2554903980E-01
    8.5369463144E-01    8.8104744954E-01    9.0757037678E-01    9.3322797717E-01
    9.5798656766E-01    9.8181428456E-01    1.0046811445E+00    1.0265591002E+00
    1.0474220898E+00    1.0672460807E+00    1.0860091079E+00    1.1036913047E+00
    1.1202749287E+00    1.1357443809E+00    1.1500862181E+00    1.1632891600E+00
    1.1753440892E+00    1.1862440454E+00    1.1959842140E+00    1.2045619075E+00
    1.2119765427E+00    1.2182296114E+00    1.2233246455E+00    1.2272671781E+00
    1.2300646980E+00    1.2317266015E+00    1.2322641382E+00    1.2316903537E+00
    1.2300200283E+00    1.2272696124E+00    1.2234571588E+00    1.2186022521E+00
    1.2127259364E+00    1.2058506400E+00    1.1980000995E+00    1.1891992818E+00
    1.1794743057E+00    1.1688523627E+00    1.1573616373E+00    1.1450312280E+00
    1.1318910679E+00    1.1179718464E+00    1.1033049318E+00    1.0879222951E+00
    1.0718564351E+00    1.0551403052E+00    1.0378072424E+00    1.0198908975E+00
    1.0014251684E+00    9.8244413514E-01    9.6298199771E-01    9.4307301590E-01
    9.2275145218E-01    9.0205151685E-01    8.8100731591E-01    8.5965280152E-01
    8.3802172494E-01    8.1614759206E-01    7.9406362126E-01    7.7180270371E-01
    7.4939736583E-01    7.2687973390E-01    7.0428150065E-01    6.8163389372E-01
    6.5896764578E-01    6.3631296625E-01    6.1369951434E-01    5.9115637334E-01
    5.6871202603E-01    5.4639433094E-01    5.2423049932E-01    5.0224707285E-01
    4.8046990165E-01    4.5892412276E-01    4.3763413879E-01    4.1662359660E-01
    3.9591536616E-01    3.7553151921E-01    3.5549330788E-01    3.3582114317E-01
    3.1653457320E-01    2.9765226131E-01    2.7919196406E-01    2.6117050904E-01
    2.4360377263E-01    2.2650665781E-01    2.0989307208E-01    1.9377590557E-01
    1.7816700955E-01    1.6307717541E-01    1.4851611436E-01    1.3449243793E-01
    1.2101363955E-01    1.0808607732E-01    9.5714958232E-02    8.3904324099E-02
    7.2657039295E-02    6.1974780621E-02    5.1858029485E-02    4.2306066605E-02
    3.3316969463E-02    2.4887612716E-02    1.7013671741E-02    9.6896295203E-03
    2.9087870323E-03   -3.3367227071E-03   -9.0559168039E-03   -1.4258940736E-02
   -1.8957042594E-02   -2.3162543249E-02   -2.6888802384E-02   -3.0150180392E-02
   -3.2961996122E-02   -3.5340480525E-02   -3.7302726246E-02   -3.8866633279E-02
   -4.0050850771E-02   -4.0874715157E-02   -4.1358184783E-02   -4.1521771235E-02
   -4.1386467607E-02   -4.0973673960E-02   -4.0305120273E-02   -3.9402787186E-02
   -3.8288824864E-02   -3.6985470351E-02   -3.5514963762E-02   -3.3899463718E-02
   -3.2160962415E-02   -3.0321200746E-02   -2.8401583880E-02   -2.6423097749E-02
   -2.4406226651E-02   -2.2370872996E-02   -2.0336283891E-02   -1.8320955385E-02
   -1.6342590768E-02   -1.4418032892E-02   -1.2563526331E-02   -1.0794427051E-02
   -9.1243299793E-03   -7.5656338503E-03   -6.1297017716E-03   -4.8266997418E-03
   -3.6655895448E-03   -2.6540904589E-03   -1.7988033372E-03   -1.1048359271E-03
   -5.7301491040E-04   -2.1372544689E-04   -3.0863520760E-05    1.9658872630E-05
    5.5915212356E-06   -4.6305182838E-06    2.0609812020E-07    7.1680221696E-07
 0. 0. 0. 0.
 0. 0. 0. 0.
 0. 0. 0. 0.
 0. 0. 0. 0.
 0. 0. 0. 0.
 0. 0. 0. 0.
 0. 0. 0. 0.
 0. 0. 0. 0.
 0. 0. 0. 0.
 0. 0. 0. 0.
 0. 0. 0. 0.
 0. 0. 0. 0.
 0. 0. 0. 0.
 0. 0. 0. 0.
 0. 0. 0. 0.
 0. 0. 0. 0.
 0. 0. 0. 0.
 0. 0. 0. 0.
 0. 0. 0. 0.
 0. 0. 0. 0.
 0. 0. 0. 0.
 0. 0. 0. 0.
 0. 0. 0. 0.
 0. 0. 0. 0.
 0. 0. 0. 0.
 0. 0. 0. 0.
 0. 0. 0. 0.
 0. 0. 0. 0.
 0. 0. 0. 0.
 0. 0. 0. 0.
 0. 0. 0. 0.
 0. 0. 0. 0.
 0. 0. 0. 0.
 0. 0. 0. 0.
 0. 0. 0. 0.
 0. 0. 0. 0.
 0. 0. 0. 0.
 0. 0. 0. 0.
 0. 0. 0. 0.
 0. 0. 0. 0.
 0. 0. 0. 0.
 0. 0. 0. 0.
 0. 0. 0. 0.
 0. 0. 0. 0.
 0. 0. 0. 0.
 0. 0. 0. 0.
 0. 0. 0. 0.
 0. 0. 0. 0.
 0. 0. 0. 0.
 0. 0. 0. 0.
 0. 0. 0. 0.
 0. 0. 0. 0.
 0. 0. 0. 0.
 0. 0. 0. 0.
 0. 0. 0. 0.
 0. 0. 0. 0.
 0. 0. 0. 0.
 0. 0. 0. 0.
 0. 0. 0. 0.
 0. 0. 0. 0.
 0. 0. 0. 0.
 0. 0. 0. 0.
 0. 0. 0. 0.
 0. 0. 0. 0.
 0. 0. 0. 0.
 0. 0. 0. 0.
 0. 0. 0. 0.
 0. 0. 0. 0.
 0. 0. 0. 0.
 0. 0. 0. 0.
 0. 0. 0. 0.
 0. 0. 0. 0.
 0. 0. 0. 0.
 0. 0. 0. 0.
 0. 0. 0. 0.
 0. 0. 0. 0.
 0. 0. 0. 0.
 0. 0. 0. 0.
 0. 0. 0. 0.
 0. 0. 0. 0.
 0. 0. 0. 0.
 0. 0. 0. 0.
 0. 0. 0. 0.
 0. 0. 0. 0.
 0. 0. 0. 0.
 0. 0. 0. 0.
 0. 0. 0. 0.
 0. 0. 0. 0.
 0. 0. 0. 0.
 0. 0. 0. 0.
 0. 0. 0. 0.
 0. 0. 0. 0.
 0. 0. 0. 0.
 0. 0. 0. 0.
 0. 0. 0. 0.
 0. 0. 0. 0.
 0. 0. 0. 0.
 0. 0. 0. 0.
 0. 0. 0. 0.
 0. 0. 0. 0.
 0. 0. 0. 0.
 0. 0. 0. 0.
 0. 0. 0. 0.
 0. 0. 0. 0.
 0. 0. 0. 0.
 0. 0. 0. 0.
 0. 0. 0. 0.
 0. 0. 0. 0.
 0. 0. 0. 0.
 0. 0. 0. 0.
 0. 0. 0. 0.
 0. 0. 0. 0.
 0. 0. 0. 0.
 0. 0. 0. 0.
 0. 0. 0. 0.
 0. 0. 0. 0.
 0. 0. 0. 0.
 0. 0. 0. 0.
 0. 0. 0. 0.
 0. 0. 0. 0.
 0. 0. 0. 0.
 0. 0. 0. 0.
 0. 0. 0. 0.
 0. 0. 0. 0.
 0. 0. 0. 0.
 0. 0. 0. 0.
 0. 0. 0. 0.
 0. 0. 0. 0.
 0. 0. 0. 0.
 0. 0. 0. 0.
 0. 0. 0. 0.
 0. 0. 0. 0.
 0. 0. 0. 0.
 0. 0. 0. 0.
 0. 0. 0. 0.
 0. 0. 0. 0.
 0. 0. 0. 0.
 0. 0. 0. 0.
 0. 0. 0. 0.
 0. 0. 0. 0.
 0. 0. 0. 0.
 0. 0. 0. 0.
 0. 0. 0. 0.
 0. 0. 0. 0.
 0. 0. 0. 0.
 0. 0. 0. 0.
 0. 0. 0. 0.
 0. 0. 0. 0.
 0. 0. 0. 0.
 0. 0. 0. 0.
 0. 0. 0. 0.
 0. 0. 0. 0.
 0. 0. 0. 0.
 0. 0. 0. 0.
 0. 0. 0. 0.
 0. 0. 0. 0.
 0. 0. 0. 0.
 0. 0. 0. 0.
 0. 0. 0. 0.
 0. 0. 0. 0.
 0. 0. 0. 0.
 0. 0. 0. 0.
 0. 0. 0. 0.
 0. 0. 0. 0.
 0. 0. 0. 0.
 0. 0. 0. 0.
 0. 0. 0. 0.
 0. 0. 0. 0.
 0. 0. 0. 0.
 0. 0. 0. 0.
 0. 0. 0. 0.
 0. 0. 0. 0.
 0. 0. 0. 0.
 0. 0. 0. 0.
 0. 0. 0. 0.
 0. 0. 0. 0.
 0. 0. 0. 0.
 0. 0. 0. 0.
 0. 0. 0. 0.
 0. 0. 0. 0.
 0. 0. 0. 0.
 0. 0. 0. 0.
 0. 0. 0. 0.
 0. 0. 0. 0.
 0. 0. 0. 0.
 0. 0. 0. 0.
 0. 0. 0. 0.
 0. 0. 0. 0.
 0. 0. 0. 0.
 0. 0. 0. 0.
 0. 0. 0. 0.
 0. 0. 0. 0.
 0. 0. 0. 0.
 0. 0. 0. 0.
 0. 0. 0. 0.
 0. 0. 0. 0.
 0. 0. 0. 0.
 0. 0. 0. 0.
 0. 0. 0. 0.
 0. 0. 0. 0.
 0. 0. 0. 0.
 0. 0. 0. 0.
 0. 0. 0. 0.
 0. 0. 0. 0.
 0. 0. 0. 0.
 0. 0. 0. 0.
 0. 0. 0. 0.
 0. 0. 0. 0.
 0. 0. 0. 0.
 0. 0. 0. 0.
 0. 0. 0. 0.
 0. 0. 0. 0.
 0. 0. 0. 0.
 0. 0. 0. 0.
 0. 0. 0. 0.
 0. 0. 0. 0.
 0. 0. 0. 0.
 0. 0. 0. 0.
 0. 0. 0. 0.
 0. 0. 0. 0.
 0. 0. 0. 0.
 0. 0. 0. 0.
 0. 0. 0. 0.
 0. 0. 0. 0.
 0. 0. 0. 0.
 0. 0. 0. 0.
 0. 0. 0. 0.
 0. 0. 0. 0.
 0. 0. 0. 0.
 0. 0. 0. 0.
 0. 0. 0. 0.
 0. 0. 0. 0.
 0. 0. 0. 0.
 0. 0. 0. 0.
 0. 0. 0. 0.
 0. 0. 0. 0.
 0. 0. 0. 0.
 0. 0. 0. 0.
 0. 0. 0. 0.
 0. 0. 0. 0.
 0. 0. 0. 0.
 0. 0. 0. 0.
 0. 0. 0. 0.
 0. 0. 0. 0.
 0. 0. 0. 0.
 0. 0. 0. 0.
 0. 0. 0. 0.
 0. 0. 0. 0.
 0. 0. 0. 0.
 0. 0. 0. 0.
 0. 0. 0. 0.
 0. 0. 0. 0.
 0. 0. 0. 0.
 0. 0. 0. 0.
 0. 0. 0. 0.
 0. 0. 0. 0.
 0. 0. 0. 0.
 0. 0. 0. 0.
 0. 0. 0. 0.
 0. 0. 0. 0.
 0. 0. 0. 0.
 0. 0. 0. 0.
 0. 0. 0. 0.
 0. 0. 0. 0.
 0. 0. 0. 0.
 0. 0.
   </PP_BETA.5>
   <PP_BETA.6
       type="real"
       size="1338"
       columns="4"
       index="6"
       angular_momentum="1"
       cutoff_radius_index=" 276"
       cutoff_radius="    2.7500000000E+00" >
   -1.5069657328E-11   -4.1700256131E-04   -1.6669843391E-03   -3.7468700382E-03
   -6.6515422365E-03   -1.0373853461E-02   -1.4904643043E-02   -2.0232758686E-02
   -2.6345082695E-02   -3.3226562760E-02   -4.0860247219E-02   -4.9227324658E-02
   -5.8307167760E-02   -6.8077381219E-02   -7.8513853617E-02   -8.9590813060E-02
   -1.0128088643E-01   -1.1355516206E-01   -1.2638325567E-01   -1.3973337927E-01
   -1.5357241301E-01   -1.6786597960E-01   -1.8257852113E-01   -1.9767337816E-01
   -2.1311287073E-01   -2.2885838120E-01   -2.4487043861E-01   -2.6110880435E-01
   -2.7753255902E-01   -2.9410019008E-01   -3.1076968030E-01   -3.2749859663E-01
   -3.4424417932E-01   -3.6096343123E-01   -3.7761320689E-01   -3.9415030137E-01
   -4.1053153863E-01   -4.2671385920E-01   -4.4265440709E-01   -4.5831061570E-01
   -4.7364029260E-01   -4.8860170313E-01   -5.0315365246E-01   -5.1725556624E-01
   -5.3086756961E-01   -5.4395056437E-01   -5.5646630441E-01   -5.6837746908E-01
   -5.7964773462E-01   -5.9024184336E-01   -6.0012567085E-01   -6.0926629057E-01
   -6.1763203639E-01   -6.2519256261E-01   -6.3191890154E-01   -6.3778351851E-01
   -6.4276036438E-01   -6.4682492537E-01   -6.4995427029E-01   -6.5212709496E-01
   -6.5332376396E-01   -6.5352634954E-01   -6.5271866766E-01   -6.5088631123E-01
   -6.4801668032E-01   -6.4409900943E-01   -6.3912439182E-01   -6.3308580069E-01
   -6.2597810731E-01   -6.1779809599E-01   -6.0854447592E-01   -5.9821788970E-01
   -5.8682091869E-01   -5.7435808500E-01   -5.6083585017E-01   -5.4626261042E-01
   -5.3064868853E-01   -5.1400632226E-01   -4.9634964922E-01   -4.7769468832E-01
   -4.5805931765E-01   -4.3746324875E-01   -4.1592799743E-01   -3.9347685090E-01
   -3.7013483142E-01   -3.4592865634E-01   -3.2088669459E-01   -2.9503891968E-01
   -2.6841685919E-01   -2.4105354079E-01   -2.1298343496E-01   -1.8424239427E-01
   -1.5486758948E-01   -1.2489744250E-01   -9.4371556232E-02   -6.3330641512E-02
   -3.1816441205E-02    1.2834836328E-04    3.2460158519E-02    6.5134631722E-02
    9.8106707243E-02    1.3133070885E-01    1.6476043433E-01    1.9834924655E-01
    2.3205016603E-01    2.6581596450E-01    2.9959925958E-01    3.3335260994E-01
    3.6702861105E-01    4.0057999097E-01    4.3395970611E-01    4.6712103663E-01
    5.0001768114E-01    5.3260385055E-01    5.6483436073E-01    5.9666472366E-01
    6.2805123697E-01    6.5895107132E-01    6.8932235572E-01    7.1912426020E-01
    7.4831707575E-01    7.7686229135E-01    8.0472266768E-01    8.3186230741E-01
    8.5824672188E-01    8.8384289394E-01    9.0861933669E-01    9.3254614819E-01
    9.5559506169E-01    9.7773949153E-01    9.9895457439E-01    1.0192172060E+00
    1.0385060729E+00    1.0568016798E+00    1.0740863715E+00    1.0903443510E+00
    1.1055616913E+00    1.1197263439E+00    1.1328281417E+00    1.1448587972E+00
    1.1558118962E+00    1.1656828876E+00    1.1744690672E+00    1.1821695592E+00
    1.1887852918E+00    1.1943189701E+00    1.1987750444E+00    1.2021596753E+00
    1.2044806950E+00    1.2057475659E+00    1.2059713357E+00    1.2051645899E+00
    1.2033414018E+00    1.2005172799E+00    1.1967091137E+00    1.1919351169E+00
    1.1862147697E+00    1.1795687591E+00    1.1720189184E+00    1.1635881656E+00
    1.1543004410E+00    1.1441806443E+00    1.1332545715E+00    1.1215488514E+00
    1.1090908827E+00    1.0959087706E+00    1.0820312641E+00    1.0674876943E+00
    1.0523079127E+00    1.0365222306E+00    1.0201613597E+00    1.0032563531E+00
    9.8583854818E-01    9.6793950996E-01    9.4959097626E-01    9.3082480394E-01
    9.1167291643E-01    8.9216725283E-01    8.7233971817E-01    8.5222213527E-01
    8.3184619788E-01    8.1124342517E-01    7.9044511769E-01    7.6948231454E-01
    7.4838575188E-01    7.2718582272E-01    7.0591253784E-01    6.8459548797E-01
    6.6326380702E-01    6.4194613638E-01    6.2067059029E-01    5.9946472215E-01
    5.7835549175E-01    5.5736923344E-01    5.3653162511E-01    5.1586765806E-01
    4.9540160762E-01    4.7515700460E-01    4.5515660752E-01    4.3542237561E-01
    4.1597544260E-01    3.9683609135E-01    3.7802372928E-01    3.5955686466E-01
    3.4145308390E-01    3.2372902964E-01    3.0640038006E-01    2.8948182910E-01
    2.7298706800E-01    2.5692876800E-01    2.4131856444E-01    2.2616704223E-01
    2.1148372295E-01    1.9727705355E-01    1.8355439679E-01    1.7032202355E-01
    1.5758510714E-01    1.4534771968E-01    1.3361283062E-01    1.2238230761E-01
    1.1165691974E-01    1.0143634329E-01    9.1719170005E-02    8.2502918048E-02
    7.3784045705E-02    6.5557967840E-02    5.7819075190E-02    5.0560756539E-02
    4.3775423775E-02    3.7454539860E-02    3.1588649680E-02    2.6167413785E-02
    2.1179644954E-02    1.6613347549E-02    1.2455759576E-02    8.6933973695E-03
    5.3121027983E-03    2.2970928647E-03   -3.6698843869E-04   -2.6960161679E-03
   -4.7063285339E-03   -6.4146692637E-03   -7.8381284144E-03   -8.9940818526E-03
   -9.9001296274E-03   -1.0574033475E-02   -1.1033653695E-02   -1.1296885666E-02
   -1.1381596256E-02   -1.1305560390E-02   -1.1086398068E-02   -1.0741512087E-02
   -1.0288026353E-02   -9.7427262715E-03   -9.1220104999E-03   -8.4417921031E-03
   -7.7175090381E-03   -6.9640736527E-03   -6.1965257970E-03   -5.4295014857E-03
   -4.6754569504E-03   -3.9459259860E-03   -3.2519187371E-03   -2.6036382067E-03
   -2.0105114475E-03   -1.4811470133E-03   -1.0234181352E-03   -6.4419342703E-04
   -3.4729764877E-04   -1.4359005218E-04   -3.9779901559E-05   -4.1818512296E-06
    5.4551500457E-07   -6.9989574051E-07    1.0886466389E-08    5.8683173755E-08
 0. 0. 0. 0.
 0. 0. 0. 0.
 0. 0. 0. 0.
 0. 0. 0. 0.
 0. 0. 0. 0.
 0. 0. 0. 0.
 0. 0. 0. 0.
 0. 0. 0. 0.
 0. 0. 0. 0.
 0. 0. 0. 0.
 0. 0. 0. 0.
 0. 0. 0. 0.
 0. 0. 0. 0.
 0. 0. 0. 0.
 0. 0. 0. 0.
 0. 0. 0. 0.
 0. 0. 0. 0.
 0. 0. 0. 0.
 0. 0. 0. 0.
 0. 0. 0. 0.
 0. 0. 0. 0.
 0. 0. 0. 0.
 0. 0. 0. 0.
 0. 0. 0. 0.
 0. 0. 0. 0.
 0. 0. 0. 0.
 0. 0. 0. 0.
 0. 0. 0. 0.
 0. 0. 0. 0.
 0. 0. 0. 0.
 0. 0. 0. 0.
 0. 0. 0. 0.
 0. 0. 0. 0.
 0. 0. 0. 0.
 0. 0. 0. 0.
 0. 0. 0. 0.
 0. 0. 0. 0.
 0. 0. 0. 0.
 0. 0. 0. 0.
 0. 0. 0. 0.
 0. 0. 0. 0.
 0. 0. 0. 0.
 0. 0. 0. 0.
 0. 0. 0. 0.
 0. 0. 0. 0.
 0. 0. 0. 0.
 0. 0. 0. 0.
 0. 0. 0. 0.
 0. 0. 0. 0.
 0. 0. 0. 0.
 0. 0. 0. 0.
 0. 0. 0. 0.
 0. 0. 0. 0.
 0. 0. 0. 0.
 0. 0. 0. 0.
 0. 0. 0. 0.
 0. 0. 0. 0.
 0. 0. 0. 0.
 0. 0. 0. 0.
 0. 0. 0. 0.
 0. 0. 0. 0.
 0. 0. 0. 0.
 0. 0. 0. 0.
 0. 0. 0. 0.
 0. 0. 0. 0.
 0. 0. 0. 0.
 0. 0. 0. 0.
 0. 0. 0. 0.
 0. 0. 0. 0.
 0. 0. 0. 0.
 0. 0. 0. 0.
 0. 0. 0. 0.
 0. 0. 0. 0.
 0. 0. 0. 0.
 0. 0. 0. 0.
 0. 0. 0. 0.
 0. 0. 0. 0.
 0. 0. 0. 0.
 0. 0. 0. 0.
 0. 0. 0. 0.
 0. 0. 0. 0.
 0. 0. 0. 0.
 0. 0. 0. 0.
 0. 0. 0. 0.
 0. 0. 0. 0.
 0. 0. 0. 0.
 0. 0. 0. 0.
 0. 0. 0. 0.
 0. 0. 0. 0.
 0. 0. 0. 0.
 0. 0. 0. 0.
 0. 0. 0. 0.
 0. 0. 0. 0.
 0. 0. 0. 0.
 0. 0. 0. 0.
 0. 0. 0. 0.
 0. 0. 0. 0.
 0. 0. 0. 0.
 0. 0. 0. 0.
 0. 0. 0. 0.
 0. 0. 0. 0.
 0. 0. 0. 0.
 0. 0. 0. 0.
 0. 0. 0. 0.
 0. 0. 0. 0.
 0. 0. 0. 0.
 0. 0. 0. 0.
 0. 0. 0. 0.
 0. 0. 0. 0.
 0. 0. 0. 0.
 0. 0. 0. 0.
 0. 0. 0. 0.
 0. 0. 0. 0.
 0. 0. 0. 0.
 0. 0. 0. 0.
 0. 0. 0. 0.
 0. 0. 0. 0.
 0. 0. 0. 0.
 0. 0. 0. 0.
 0. 0. 0. 0.
 0. 0. 0. 0.
 0. 0. 0. 0.
 0. 0. 0. 0.
 0. 0. 0. 0.
 0. 0. 0. 0.
 0. 0. 0. 0.
 0. 0. 0. 0.
 0. 0. 0. 0.
 0. 0. 0. 0.
 0. 0. 0. 0.
 0. 0. 0. 0.
 0. 0. 0. 0.
 0. 0. 0. 0.
 0. 0. 0. 0.
 0. 0. 0. 0.
 0. 0. 0. 0.
 0. 0. 0. 0.
 0. 0. 0. 0.
 0. 0. 0. 0.
 0. 0. 0. 0.
 0. 0. 0. 0.
 0. 0. 0. 0.
 0. 0. 0. 0.
 0. 0. 0. 0.
 0. 0. 0. 0.
 0. 0. 0. 0.
 0. 0. 0. 0.
 0. 0. 0. 0.
 0. 0. 0. 0.
 0. 0. 0. 0.
 0. 0. 0. 0.
 0. 0. 0. 0.
 0. 0. 0. 0.
 0. 0. 0. 0.
 0. 0. 0. 0.
 0. 0. 0. 0.
 0. 0. 0. 0.
 0. 0. 0. 0.
 0. 0. 0. 0.
 0. 0. 0. 0.
 0. 0. 0. 0.
 0. 0. 0. 0.
 0. 0. 0. 0.
 0. 0. 0. 0.
 0. 0. 0. 0.
 0. 0. 0. 0.
 0. 0. 0. 0.
 0. 0. 0. 0.
 0. 0. 0. 0.
 0. 0. 0. 0.
 0. 0. 0. 0.
 0. 0. 0. 0.
 0. 0. 0. 0.
 0. 0. 0. 0.
 0. 0. 0. 0.
 0. 0. 0. 0.
 0. 0. 0. 0.
 0. 0. 0. 0.
 0. 0. 0. 0.
 0. 0. 0. 0.
 0. 0. 0. 0.
 0. 0. 0. 0.
 0. 0. 0. 0.
 0. 0. 0. 0.
 0. 0. 0. 0.
 0. 0. 0. 0.
 0. 0. 0. 0.
 0. 0. 0. 0.
 0. 0. 0. 0.
 0. 0. 0. 0.
 0. 0. 0. 0.
 0. 0. 0. 0.
 0. 0. 0. 0.
 0. 0. 0. 0.
 0. 0. 0. 0.
 0. 0. 0. 0.
 0. 0. 0. 0.
 0. 0. 0. 0.
 0. 0. 0. 0.
 0. 0. 0. 0.
 0. 0. 0. 0.
 0. 0. 0. 0.
 0. 0. 0. 0.
 0. 0. 0. 0.
 0. 0. 0. 0.
 0. 0. 0. 0.
 0. 0. 0. 0.
 0. 0. 0. 0.
 0. 0. 0. 0.
 0. 0. 0. 0.
 0. 0. 0. 0.
 0. 0. 0. 0.
 0. 0. 0. 0.
 0. 0. 0. 0.
 0. 0. 0. 0.
 0. 0. 0. 0.
 0. 0. 0. 0.
 0. 0. 0. 0.
 0. 0. 0. 0.
 0. 0. 0. 0.
 0. 0. 0. 0.
 0. 0. 0. 0.
 0. 0. 0. 0.
 0. 0. 0. 0.
 0. 0. 0. 0.
 0. 0. 0. 0.
 0. 0. 0. 0.
 0. 0. 0. 0.
 0. 0. 0. 0.
 0. 0. 0. 0.
 0. 0. 0. 0.
 0. 0. 0. 0.
 0. 0. 0. 0.
 0. 0. 0. 0.
 0. 0. 0. 0.
 0. 0. 0. 0.
 0. 0. 0. 0.
 0. 0. 0. 0.
 0. 0. 0. 0.
 0. 0. 0. 0.
 0. 0. 0. 0.
 0. 0. 0. 0.
 0. 0. 0. 0.
 0. 0. 0. 0.
 0. 0. 0. 0.
 0. 0. 0. 0.
 0. 0. 0. 0.
 0. 0. 0. 0.
 0. 0. 0. 0.
 0. 0. 0. 0.
 0. 0. 0. 0.
 0. 0. 0. 0.
 0. 0. 0. 0.
 0. 0. 0. 0.
 0. 0. 0. 0.
 0. 0. 0. 0.
 0. 0. 0. 0.
 0. 0. 0. 0.
 0. 0. 0. 0.
 0. 0. 0. 0.
 0. 0. 0. 0.
 0. 0. 0. 0.
 0. 0. 0. 0.
 0. 0. 0. 0.
 0. 0. 0. 0.
 0. 0.
   </PP_BETA.6>
   <PP_BETA.7
       type="real"
       size="1338"
       columns="4"
       index="7"
       angular_momentum="2"
       cutoff_radius_index=" 276"
       cutoff_radius="    2.7500000000E+00" >
    1.2792951594E-11    5.1523303252E-06    4.1199907944E-05    1.3894439714E-04
    3.2900071675E-04    6.4170471562E-04    1.1070220967E-03    1.7544589907E-03
    2.6129745681E-03    3.7108960612E-03    5.0758365509E-03    6.7346158505E-03
    8.7131847960E-03    1.1036553226E-02    1.3728721907E-02    1.6812618630E-02
    2.0310038675E-02    2.4241589805E-02    2.8626641926E-02    3.3483281496E-02
    3.8828270775E-02    4.4677011918E-02    5.1043515926E-02    5.7940376430E-02
    6.5378748220E-02    7.3368330459E-02    8.1917354427E-02    9.1032575686E-02
    1.0071927047E-01    1.1098123611E-01    1.2182079534E-01    1.3323880411E-01
    1.4523466293E-01    1.5780633118E-01    1.7095034440E-01    1.8466183417E-01
    1.9893455027E-01    2.1376088505E-01    2.2913189954E-01    2.4503735121E-01
    2.6146572307E-01    2.7840425388E-01    2.9583896931E-01    3.1375471383E-01
    3.3213518316E-01    3.5096295710E-01    3.7021953266E-01    3.8988535734E-01
    4.0993986256E-01    4.3036149701E-01    4.5112776009E-01    4.7221523527E-01
    4.9359962350E-01    5.1525577661E-01    5.3715773079E-01    5.5927874036E-01
    5.8159131164E-01    6.0406723735E-01    6.2667763148E-01    6.4939296482E-01
    6.7218310130E-01    6.9501733537E-01    7.1786443049E-01    7.4069265890E-01
    7.6346984298E-01    7.8616339816E-01    8.0874037772E-01    8.3116751943E-01
    8.5341129445E-01    8.7543795824E-01    8.9721360391E-01    9.1870421790E-01
    9.3987573807E-01    9.6069411433E-01    9.8112537158E-01    1.0011356753E+00
    1.0206913992E+00    1.0397591957E+00    1.0583060678E+00    1.0762994435E+00
    1.0937072521E+00    1.1104980017E+00    1.1266408584E+00    1.1421057264E+00
    1.1568633286E+00    1.1708852885E+00    1.1841442111E+00    1.1966137643E+00
    1.2082687590E+00    1.2190852285E+00    1.2290405064E+00    1.2381133017E+00
    1.2462837726E+00    1.2535335966E+00    1.2598460376E+00    1.2652060089E+00
    1.2696001327E+00    1.2730167939E+00    1.2754461898E+00    1.2768803740E+00
    1.2773132946E+00    1.2767408262E+00    1.2751607957E+00    1.2725730013E+00
    1.2689792248E+00    1.2643832366E+00    1.2587907938E+00    1.2522096309E+00
    1.2446494432E+00    1.2361218628E+00    1.2266404276E+00    1.2162205425E+00
    1.2048794346E+00    1.1926361004E+00    1.1795112475E+00    1.1655272291E+00
    1.1507079729E+00    1.1350789048E+00    1.1186668666E+00    1.1015000293E+00
    1.0836078025E+00    1.0650207396E+00    1.0457704396E+00    1.0258894469E+00
    1.0054111482E+00    9.8436966822E-01    9.6279976487E-01    9.4073672323E-01
    9.1821625035E-01    8.9527437068E-01    8.7194732286E-01    8.4827145845E-01
    8.2428314310E-01    8.0001866071E-01    7.7551412099E-01    7.5080537087E-01
    7.2592791029E-01    7.0091681250E-01    6.7580664942E-01    6.5063142219E-01
    6.2542449720E-01    6.0021854779E-01    5.7504550166E-01    5.4993649420E-01
    5.2492182767E-01    5.0003093620E-01    4.7529235663E-01    4.5073370493E-01
    4.2638165818E-01    4.0226194174E-01    3.7839932146E-01    3.5481760064E-01
    3.3153962123E-01    3.0858726922E-01    2.8598148346E-01    2.6374226780E-01
    2.4188870591E-01    2.2043897842E-01    1.9941038188E-01    1.7881934912E-01
    1.5868147044E-01    1.3901151532E-01    1.1982345400E-01    1.0113047868E-01
    8.2945023862E-02    6.5278785300E-02    4.8142737441E-02    3.1547148819E-02
    1.5501595201E-02    1.4970211445E-05   -1.4904506795E-02   -2.9249285765E-02
   -4.3012484010E-02   -5.6187887388E-02   -6.8769954602E-02   -8.0753824619E-02
   -9.2135327110E-02   -1.0291099581E-01   -1.1307808457E-01   -1.2263458600E-01
   -1.3157925227E-01   -1.3991161786E-01   -1.4763202400E-01   -1.5474164414E-01
   -1.6124251040E-01   -1.6713754018E-01   -1.7243056282E-01   -1.7712634555E-01
   -1.8123061833E-01   -1.8475009717E-01   -1.8769250522E-01   -1.9006659137E-01
   -1.9188214557E-01   -1.9315001073E-01   -1.9388209038E-01   -1.9409135200E-01
   -1.9379182532E-01   -1.9299859541E-01   -1.9172779017E-01   -1.8999656192E-01
   -1.8782306284E-01   -1.8522641418E-01   -1.8222666892E-01   -1.7884476807E-01
   -1.7510249031E-01   -1.7102239530E-01   -1.6662776049E-01   -1.6194251192E-01
   -1.5699114893E-01   -1.5179866336E-01   -1.4639045343E-01   -1.4079223274E-01
   -1.3502993491E-01   -1.2912961443E-01   -1.2311734417E-01   -1.1701911023E-01
   -1.1086070490E-01   -1.0466761820E-01   -9.8464928957E-02   -9.2277196024E-02
   -8.6128350425E-02   -8.0041589260E-02   -7.4039272097E-02   -6.8142820643E-02
   -6.2372622466E-02   -5.6747939511E-02   -5.1286822144E-02   -4.6006029416E-02
   -4.0920956210E-02   -3.6045567888E-02   -3.1392343010E-02   -2.6972224634E-02
   -2.2794580660E-02   -1.8867173603E-02   -1.5196140128E-02   -1.1785980575E-02
   -8.6395586877E-03   -5.7581116129E-03   -3.1412701970E-03   -7.8708953057E-04
    1.3079104064E-03    3.1486942274E-03    4.7416510480E-03    6.0945251858E-03
    7.2163381244E-03    8.1173022715E-03    8.8087270777E-03    9.3029182064E-03
    9.6130704716E-03    9.7531552956E-03    9.7378035321E-03    9.5821845164E-03
    9.3018817718E-03    8.9127676897E-03    8.4308879871E-03    7.8722889064E-03
    7.2529623698E-03    6.5887188833E-03    5.8958785991E-03    5.1906152456E-03
    4.4868961279E-03    3.7977966192E-03    3.1358754882E-03    2.5128163806E-03
    1.9394113467E-03    1.4254690121E-03    9.7983906903E-04    6.1014339804E-04
    3.2108421482E-04    1.2260225874E-04    2.0392621842E-05   -9.0853041692E-06
   -2.8272114160E-06    2.3614290183E-06   -1.0169027084E-07   -3.5637837201E-07
 0. 0. 0. 0.
 0. 0. 0. 0.
 0. 0. 0. 0.
 0. 0. 0. 0.
 0. 0. 0. 0.
 0. 0. 0. 0.
 0. 0. 0. 0.
 0. 0. 0. 0.
 0. 0. 0. 0.
 0. 0. 0. 0.
 0. 0. 0. 0.
 0. 0. 0. 0.
 0. 0. 0. 0.
 0. 0. 0. 0.
 0. 0. 0. 0.
 0. 0. 0. 0.
 0. 0. 0. 0.
 0. 0. 0. 0.
 0. 0. 0. 0.
 0. 0. 0. 0.
 0. 0. 0. 0.
 0. 0. 0. 0.
 0. 0. 0. 0.
 0. 0. 0. 0.
 0. 0. 0. 0.
 0. 0. 0. 0.
 0. 0. 0. 0.
 0. 0. 0. 0.
 0. 0. 0. 0.
 0. 0. 0. 0.
 0. 0. 0. 0.
 0. 0. 0. 0.
 0. 0. 0. 0.
 0. 0. 0. 0.
 0. 0. 0. 0.
 0. 0. 0. 0.
 0. 0. 0. 0.
 0. 0. 0. 0.
 0. 0. 0. 0.
 0. 0. 0. 0.
 0. 0. 0. 0.
 0. 0. 0. 0.
 0. 0. 0. 0.
 0. 0. 0. 0.
 0. 0. 0. 0.
 0. 0. 0. 0.
 0. 0. 0. 0.
 0. 0. 0. 0.
 0. 0. 0. 0.
 0. 0. 0. 0.
 0. 0. 0. 0.
 0. 0. 0. 0.
 0. 0. 0. 0.
 0. 0. 0. 0.
 0. 0. 0. 0.
 0. 0. 0. 0.
 0. 0. 0. 0.
 0. 0. 0. 0.
 0. 0. 0. 0.
 0. 0. 0. 0.
 0. 0. 0. 0.
 0. 0. 0. 0.
 0. 0. 0. 0.
 0. 0. 0. 0.
 0. 0. 0. 0.
 0. 0. 0. 0.
 0. 0. 0. 0.
 0. 0. 0. 0.
 0. 0. 0. 0.
 0. 0. 0. 0.
 0. 0. 0. 0.
 0. 0. 0. 0.
 0. 0. 0. 0.
 0. 0. 0. 0.
 0. 0. 0. 0.
 0. 0. 0. 0.
 0. 0. 0. 0.
 0. 0. 0. 0.
 0. 0. 0. 0.
 0. 0. 0. 0.
 0. 0. 0. 0.
 0. 0. 0. 0.
 0. 0. 0. 0.
 0. 0. 0. 0.
 0. 0. 0. 0.
 0. 0. 0. 0.
 0. 0. 0. 0.
 0. 0. 0. 0.
 0. 0. 0. 0.
 0. 0. 0. 0.
 0. 0. 0. 0.
 0. 0. 0. 0.
 0. 0. 0. 0.
 0. 0. 0. 0.
 0. 0. 0. 0.
 0. 0. 0. 0.
 0. 0. 0. 0.
 0. 0. 0. 0.
 0. 0. 0. 0.
 0. 0. 0. 0.
 0. 0. 0. 0.
 0. 0. 0. 0.
 0. 0. 0. 0.
 0. 0. 0. 0.
 0. 0. 0. 0.
 0. 0. 0. 0.
 0. 0. 0. 0.
 0. 0. 0. 0.
 0. 0. 0. 0.
 0. 0. 0. 0.
 0. 0. 0. 0.
 0. 0. 0. 0.
 0. 0. 0. 0.
 0. 0. 0. 0.
 0. 0. 0. 0.
 0. 0. 0. 0.
 0. 0. 0. 0.
 0. 0. 0. 0.
 0. 0. 0. 0.
 0. 0. 0. 0.
 0. 0. 0. 0.
 0. 0. 0. 0.
 0. 0. 0. 0.
 0. 0. 0. 0.
 0. 0. 0. 0.
 0. 0. 0. 0.
 0. 0. 0. 0.
 0. 0. 0. 0.
 0. 0. 0. 0.
 0. 0. 0. 0.
 0. 0. 0. 0.
 0. 0. 0. 0.
 0. 0. 0. 0.
 0. 0. 0. 0.
 0. 0. 0. 0.
 0. 0. 0. 0.
 0. 0. 0. 0.
 0. 0. 0. 0.
 0. 0. 0. 0.
 0. 0. 0. 0.
 0. 0. 0. 0.
 0. 0. 0. 0.
 0. 0. 0. 0.
 0. 0. 0. 0.
 0. 0. 0. 0.
 0. 0. 0. 0.
 0. 0. 0. 0.
 0. 0. 0. 0.
 0. 0. 0. 0.
 0. 0. 0. 0.
 0. 0. 0. 0.
 0. 0. 0. 0.
 0. 0. 0. 0.
 0. 0. 0. 0.
 0. 0. 0. 0.
 0. 0. 0. 0.
 0. 0. 0. 0.
 0. 0. 0. 0.
 0. 0. 0. 0.
 0. 0. 0. 0.
 0. 0. 0. 0.
 0. 0. 0. 0.
 0. 0. 0. 0.
 0. 0. 0. 0.
 0. 0. 0. 0.
 0. 0. 0. 0.
 0. 0. 0. 0.
 0. 0. 0. 0.
 0. 0. 0. 0.
 0. 0. 0. 0.
 0. 0. 0. 0.
 0. 0. 0. 0.
 0. 0. 0. 0.
 0. 0. 0. 0.
 0. 0. 0. 0.
 0. 0. 0. 0.
 0. 0. 0. 0.
 0. 0. 0. 0.
 0. 0. 0. 0.
 0. 0. 0. 0.
 0. 0. 0. 0.
 0. 0. 0. 0.
 0. 0. 0. 0.
 0. 0. 0. 0.
 0. 0. 0. 0.
 0. 0. 0. 0.
 0. 0. 0. 0.
 0. 0. 0. 0.
 0. 0. 0. 0.
 0. 0. 0. 0.
 0. 0. 0. 0.
 0. 0. 0. 0.
 0. 0. 0. 0.
 0. 0. 0. 0.
 0. 0. 0. 0.
 0. 0. 0. 0.
 0. 0. 0. 0.
 0. 0. 0. 0.
 0. 0. 0. 0.
 0. 0. 0. 0.
 0. 0. 0. 0.
 0. 0. 0. 0.
 0. 0. 0. 0.
 0. 0. 0. 0.
 0. 0. 0. 0.
 0. 0. 0. 0.
 0. 0. 0. 0.
 0. 0. 0. 0.
 0. 0. 0. 0.
 0. 0. 0. 0.
 0. 0. 0. 0.
 0. 0. 0. 0.
 0. 0. 0. 0.
 0. 0. 0. 0.
 0. 0. 0. 0.
 0. 0. 0. 0.
 0. 0. 0. 0.
 0. 0. 0. 0.
 0. 0. 0. 0.
 0. 0. 0. 0.
 0. 0. 0. 0.
 0. 0. 0. 0.
 0. 0. 0. 0.
 0. 0. 0. 0.
 0. 0. 0. 0.
 0. 0. 0. 0.
 0. 0. 0. 0.
 0. 0. 0. 0.
 0. 0. 0. 0.
 0. 0. 0. 0.
 0. 0. 0. 0.
 0. 0. 0. 0.
 0. 0. 0. 0.
 0. 0. 0. 0.
 0. 0. 0. 0.
 0. 0. 0. 0.
 0. 0. 0. 0.
 0. 0. 0. 0.
 0. 0. 0. 0.
 0. 0. 0. 0.
 0. 0. 0. 0.
 0. 0. 0. 0.
 0. 0. 0. 0.
 0. 0. 0. 0.
 0. 0. 0. 0.
 0. 0. 0. 0.
 0. 0. 0. 0.
 0. 0. 0. 0.
 0. 0. 0. 0.
 0. 0. 0. 0.
 0. 0. 0. 0.
 0. 0. 0. 0.
 0. 0. 0. 0.
 0. 0. 0. 0.
 0. 0. 0. 0.
 0. 0. 0. 0.
 0. 0. 0. 0.
 0. 0. 0. 0.
 0. 0. 0. 0.
 0. 0. 0. 0.
 0. 0. 0. 0.
 0. 0. 0. 0.
 0. 0. 0. 0.
 0. 0. 0. 0.
 0. 0. 0. 0.
 0. 0.
   </PP_BETA.7>
   <PP_BETA.8
       type="real"
       size="1338"
       columns="4"
       index="8"
       angular_momentum="2"
       cutoff_radius_index=" 276"
       cutoff_radius="    2.7500000000E+00" >
    1.2053329255E-11    5.0730308981E-06    4.0566060374E-05    1.3680823892E-04
    3.2394742135E-04    6.3186051718E-04    1.0900650302E-03    1.7276321691E-03
    2.5731019004E-03    3.6544002965E-03    4.9987595199E-03    6.6326407582E-03
    8.5816604075E-03    1.0870519775E-02    1.3522938545E-02    1.6561592228E-02
    2.0008053778E-02    2.3882739537E-02    2.8204859645E-02    3.2992372987E-02
    3.8261946773E-02    4.4028920759E-02    5.0307276133E-02    5.7109609021E-02
    6.4447108572E-02    7.2329539535E-02    8.0765229208E-02    8.9761058645E-02
    9.9322457954E-02    1.0945340550E-01    1.2015643086E-01    1.3143262125E-01
    1.4328163129E-01    1.5570169577E-01    1.6868964537E-01    1.8224092477E-01
    1.9634961328E-01    2.1100844746E-01    2.2620884564E-01    2.4194093406E-01
    2.5819357443E-01    2.7495439264E-01    2.9220980855E-01    3.0994506649E-01
    3.2814426653E-01    3.4679039619E-01    3.6586536255E-01    3.8535002463E-01
    4.0522422604E-01    4.2546682769E-01    4.4605574067E-01    4.6696795923E-01
    4.8817959384E-01    5.0966590439E-01    5.3140133366E-01    5.5335954093E-01
    5.7551343607E-01    5.9783521404E-01    6.2029638991E-01    6.4286783472E-01
    6.6551981209E-01    6.8822201586E-01    7.1094360890E-01    7.3365326320E-01
    7.5631920143E-01    7.7890924013E-01    8.0139083457E-01    8.2373112560E-01
    8.4589698839E-01    8.6785508335E-01    8.8957190922E-01    9.1101385835E-01
    9.3214727442E-01    9.5293851229E-01    9.7335400038E-01    9.9336030511E-01
    1.0129241978E+00    1.0320127234E+00    1.0505932715E+00    1.0686336491E+00
    1.0861021552E+00    1.1029676562E+00    1.1191996637E+00    1.1347684120E+00
    1.1496449373E+00    1.1638011563E+00    1.1772099460E+00    1.1898452216E+00
    1.2016820152E+00    1.2126965520E+00    1.2228663262E+00    1.2321701737E+00
    1.2405883436E+00    1.2481025659E+00    1.2546961166E+00    1.2603538787E+00
    1.2650623995E+00    1.2688099431E+00    1.2715865386E+00    1.2733840223E+00
    1.2741960748E+00    1.2740182528E+00    1.2728480134E+00    1.2706847336E+00
    1.2675297218E+00    1.2633862239E+00    1.2582594211E+00    1.2521564221E+00
    1.2450862474E+00    1.2370598067E+00    1.2280898698E+00    1.2181910300E+00
    1.2073796612E+00    1.1956738685E+00    1.1830934320E+00    1.1696597450E+00
    1.1553957463E+00    1.1403258470E+00    1.1244758524E+00    1.1078728795E+00
    1.0905452700E+00    1.0725224998E+00    1.0538350854E+00    1.0345144877E+00
    1.0145930134E+00    9.9410371553E-01    9.7308029201E-01    9.5155698472E-01
    9.2956847812E-01    9.0714979877E-01    8.8433621598E-01    8.6116314426E-01
    8.3766604801E-01    8.1388034883E-01    7.8984133617E-01    7.6558408142E-01
    7.4114335610E-01    7.1655355427E-01    6.9184861970E-01    6.6706197785E-01
    6.4222647299E-01    6.1737431067E-01    5.9253700556E-01    5.6774533480E-01
    5.4302929694E-01    5.1841807633E-01    4.9394001298E-01    4.6962257782E-01
    4.4549235305E-01    4.2157501759E-01    3.9789533715E-01    3.7447715895E-01
    3.5134341040E-01    3.2851610181E-01    3.0601633240E-01    2.8386429947E-01
    2.6207931021E-01    2.4067979575E-01    2.1968332696E-01    1.9910663173E-01
    1.7896561308E-01    1.5927536781E-01    1.4005020523E-01    1.2130366552E-01
    1.0304853740E-01    8.5296874680E-02    6.8060011372E-02    5.1348575051E-02
    3.5172498185E-02    1.9541027194E-02    4.4627290257E-03   -1.0054504895E-02
   -2.4003457474E-02   -3.7377587573E-02   -5.0171034488E-02   -6.2378625242E-02
   -7.3995884637E-02   -8.5019047941E-02   -9.5445076056E-02   -1.0527167294E-01
   -1.1449730509E-01   -1.2312122268E-01   -1.3114348222E-01   -1.3856497018E-01
   -1.4538742728E-01   -1.5161347311E-01   -1.5724663045E-01   -1.6229134906E-01
   -1.6675302826E-01   -1.7063803802E-01   -1.7395373795E-01   -1.7670849375E-01
   -1.7891169075E-01   -1.8057374389E-01   -1.8170610395E-01   -1.8232125940E-01
   -1.8243273370E-01   -1.8205507745E-01   -1.8120385542E-01   -1.7989562781E-01
   -1.7814792586E-01   -1.7597922142E-01   -1.7340889047E-01   -1.7045717046E-01
   -1.6714511153E-01   -1.6349452157E-01   -1.5952790536E-01   -1.5526839782E-01
   -1.5073969165E-01   -1.4596595974E-01   -1.4097177248E-01   -1.3578201062E-01
   -1.3042177388E-01   -1.2491628605E-01   -1.1929079691E-01   -1.1357048173E-01
   -1.0778033883E-01   -1.0194508597E-01   -9.6089056201E-02   -9.0236093897E-02
   -8.4409451671E-02   -7.8631688934E-02   -7.2924572826E-02   -6.7308982245E-02
   -6.1804815702E-02   -5.6430903718E-02   -5.1204926440E-02   -4.6143337142E-02
   -4.1261292238E-02   -3.6572588377E-02   -3.2089607186E-02   -2.7823268116E-02
   -2.3782989853E-02   -1.9976660643E-02   -1.6410617857E-02   -1.3089637015E-02
   -1.0016930464E-02   -7.1941557805E-03   -4.6214339349E-03   -2.2973771567E-03
   -2.1912637880E-04    1.6176019590E-03    3.2184600228E-03    4.5904039565E-03
    5.7416209562E-03    6.6814485434E-03    7.4202865705E-03    7.9695026074E-03
    8.3413313819E-03    8.5487689835E-03    8.6054626258E-03    8.5255967791E-03
    8.3237760034E-03    8.0149068895E-03    7.6140908649E-03    7.1364538476E-03
    6.5971056339E-03    6.0110188543E-03    5.3938134536E-03    4.7610512541E-03
    4.1259786372E-03    3.5009917259E-03    2.8980652942E-03    2.3283726066E-03
    1.8022803628E-03    1.3292592708E-03    9.1791266444E-04    5.7570969718E-04
    3.0724573175E-04    1.2264747732E-04    2.8020466341E-05   -1.9949156809E-06
   -1.5059167879E-06    1.3745647688E-06   -4.9913664380E-08   -1.8475570489E-07
 0. 0. 0. 0.
 0. 0. 0. 0.
 0. 0. 0. 0.
 0. 0. 0. 0.
 0. 0. 0. 0.
 0. 0. 0. 0.
 0. 0. 0. 0.
 0. 0. 0. 0.
 0. 0. 0. 0.
 0. 0. 0. 0.
 0. 0. 0. 0.
 0. 0. 0. 0.
 0. 0. 0. 0.
 0. 0. 0. 0.
 0. 0. 0. 0.
 0. 0. 0. 0.
 0. 0. 0. 0.
 0. 0. 0. 0.
 0. 0. 0. 0.
 0. 0. 0. 0.
 0. 0. 0. 0.
 0. 0. 0. 0.
 0. 0. 0. 0.
 0. 0. 0. 0.
 0. 0. 0. 0.
 0. 0. 0. 0.
 0. 0. 0. 0.
 0. 0. 0. 0.
 0. 0. 0. 0.
 0. 0. 0. 0.
 0. 0. 0. 0.
 0. 0. 0. 0.
 0. 0. 0. 0.
 0. 0. 0. 0.
 0. 0. 0. 0.
 0. 0. 0. 0.
 0. 0. 0. 0.
 0. 0. 0. 0.
 0. 0. 0. 0.
 0. 0. 0. 0.
 0. 0. 0. 0.
 0. 0. 0. 0.
 0. 0. 0. 0.
 0. 0. 0. 0.
 0. 0. 0. 0.
 0. 0. 0. 0.
 0. 0. 0. 0.
 0. 0. 0. 0.
 0. 0. 0. 0.
 0. 0. 0. 0.
 0. 0. 0. 0.
 0. 0. 0. 0.
 0. 0. 0. 0.
 0. 0. 0. 0.
 0. 0. 0. 0.
 0. 0. 0. 0.
 0. 0. 0. 0.
 0. 0. 0. 0.
 0. 0. 0. 0.
 0. 0. 0. 0.
 0. 0. 0. 0.
 0. 0. 0. 0.
 0. 0. 0. 0.
 0. 0. 0. 0.
 0. 0. 0. 0.
 0. 0. 0. 0.
 0. 0. 0. 0.
 0. 0. 0. 0.
 0. 0. 0. 0.
 0. 0. 0. 0.
 0. 0. 0. 0.
 0. 0. 0. 0.
 0. 0. 0. 0.
 0. 0. 0. 0.
 0. 0. 0. 0.
 0. 0. 0. 0.
 0. 0. 0. 0.
 0. 0. 0. 0.
 0. 0. 0. 0.
 0. 0. 0. 0.
 0. 0. 0. 0.
 0. 0. 0. 0.
 0. 0. 0. 0.
 0. 0. 0. 0.
 0. 0. 0. 0.
 0. 0. 0. 0.
 0. 0. 0. 0.
 0. 0. 0. 0.
 0. 0. 0. 0.
 0. 0. 0. 0.
 0. 0. 0. 0.
 0. 0. 0. 0.
 0. 0. 0. 0.
 0. 0. 0. 0.
 0. 0. 0. 0.
 0. 0. 0. 0.
 0. 0. 0. 0.
 0. 0. 0. 0.
 0. 0. 0. 0.
 0. 0. 0. 0.
 0. 0. 0. 0.
 0. 0. 0. 0.
 0. 0. 0. 0.
 0. 0. 0. 0.
 0. 0. 0. 0.
 0. 0. 0. 0.
 0. 0. 0. 0.
 0. 0. 0. 0.
 0. 0. 0. 0.
 0. 0. 0. 0.
 0. 0. 0. 0.
 0. 0. 0. 0.
 0. 0. 0. 0.
 0. 0. 0. 0.
 0. 0. 0. 0.
 0. 0. 0. 0.
 0. 0. 0. 0.
 0. 0. 0. 0.
 0. 0. 0. 0.
 0. 0. 0. 0.
 0. 0. 0. 0.
 0. 0. 0. 0.
 0. 0. 0. 0.
 0. 0. 0. 0.
 0. 0. 0. 0.
 0. 0. 0. 0.
 0. 0. 0. 0.
 0. 0. 0. 0.
 0. 0. 0. 0.
 0. 0. 0. 0.
 0. 0. 0. 0.
 0. 0. 0. 0.
 0. 0. 0. 0.
 0. 0. 0. 0.
 0. 0. 0. 0.
 0. 0. 0. 0.
 0. 0. 0. 0.
 0. 0. 0. 0.
 0. 0. 0. 0.
 0. 0. 0. 0.
 0. 0. 0. 0.
 0. 0. 0. 0.
 0. 0. 0. 0.
 0. 0. 0. 0.
 0. 0. 0. 0.
 0. 0. 0. 0.
 0. 0. 0. 0.
 0. 0. 0. 0.
 0. 0. 0. 0.
 0. 0. 0. 0.
 0. 0. 0. 0.
 0. 0. 0. 0.
 0. 0. 0. 0.
 0. 0. 0. 0.
 0. 0. 0. 0.
 0. 0. 0. 0.
 0. 0. 0. 0.
 0. 0. 0. 0.
 0. 0. 0. 0.
 0. 0. 0. 0.
 0. 0. 0. 0.
 0. 0. 0. 0.
 0. 0. 0. 0.
 0. 0. 0. 0.
 0. 0. 0. 0.
 0. 0. 0. 0.
 0. 0. 0. 0.
 0. 0. 0. 0.
 0. 0. 0. 0.
 0. 0. 0. 0.
 0. 0. 0. 0.
 0. 0. 0. 0.
 0. 0. 0. 0.
 0. 0. 0. 0.
 0. 0. 0. 0.
 0. 0. 0. 0.
 0. 0. 0. 0.
 0. 0. 0. 0.
 0. 0. 0. 0.
 0. 0. 0. 0.
 0. 0. 0. 0.
 0. 0. 0. 0.
 0. 0. 0. 0.
 0. 0. 0. 0.
 0. 0. 0. 0.
 0. 0. 0. 0.
 0. 0. 0. 0.
 0. 0. 0. 0.
 0. 0. 0. 0.
 0. 0. 0. 0.
 0. 0. 0. 0.
 0. 0. 0. 0.
 0. 0. 0. 0.
 0. 0. 0. 0.
 0. 0. 0. 0.
 0. 0. 0. 0.
 0. 0. 0. 0.
 0. 0. 0. 0.
 0. 0. 0. 0.
 0. 0. 0. 0.
 0. 0. 0. 0.
 0. 0. 0. 0.
 0. 0. 0. 0.
 0. 0. 0. 0.
 0. 0. 0. 0.
 0. 0. 0. 0.
 0. 0. 0. 0.
 0. 0. 0. 0.
 0. 0. 0. 0.
 0. 0. 0. 0.
 0. 0. 0. 0.
 0. 0. 0. 0.
 0. 0. 0. 0.
 0. 0. 0. 0.
 0. 0. 0. 0.
 0. 0. 0. 0.
 0. 0. 0. 0.
 0. 0. 0. 0.
 0. 0. 0. 0.
 0. 0. 0. 0.
 0. 0. 0. 0.
 0. 0. 0. 0.
 0. 0. 0. 0.
 0. 0. 0. 0.
 0. 0. 0. 0.
 0. 0. 0. 0.
 0. 0. 0. 0.
 0. 0. 0. 0.
 0. 0. 0. 0.
 0. 0. 0. 0.
 0. 0. 0. 0.
 0. 0. 0. 0.
 0. 0. 0. 0.
 0. 0. 0. 0.
 0. 0. 0. 0.
 0. 0. 0. 0.
 0. 0. 0. 0.
 0. 0. 0. 0.
 0. 0. 0. 0.
 0. 0. 0. 0.
 0. 0. 0. 0.
 0. 0. 0. 0.
 0. 0. 0. 0.
 0. 0. 0. 0.
 0. 0. 0. 0.
 0. 0. 0. 0.
 0. 0. 0. 0.
 0. 0. 0. 0.
 0. 0. 0. 0.
 0. 0. 0. 0.
 0. 0. 0. 0.
 0. 0. 0. 0.
 0. 0. 0. 0.
 0. 0. 0. 0.
 0. 0. 0. 0.
 0. 0. 0. 0.
 0. 0. 0. 0.
 0. 0. 0. 0.
 0. 0. 0. 0.
 0. 0. 0. 0.
 0. 0. 0. 0.
 0. 0. 0. 0.
 0. 0. 0. 0.
 0. 0. 0. 0.
 0. 0. 0. 0.
 0. 0.
   </PP_BETA.8>
   <PP_BETA.9
       type="real"
       size="1338"
       columns="4"
       index="9"
       angular_momentum="2"
       cutoff_radius_index=" 276"
       cutoff_radius="    2.7500000000E+00" >
   -3.9822389743E-11   -4.5983939567E-06   -3.6756920330E-05   -1.2388478529E-04
   -2.9309041528E-04   -5.7103373889E-04   -9.8378164627E-04   -1.5566676380E-03
   -2.3141566359E-03   -3.2797158777E-03   -4.4756927631E-03   -5.9232004489E-03
   -7.6420119200E-03   -9.6504631848E-03   -1.1965366154E-02   -1.4601931674E-02
   -1.7573703093E-02   -2.0892500637E-02   -2.4568376777E-02   -2.8609582661E-02
   -3.3022545602E-02   -3.7811857485E-02   -4.2980273897E-02   -4.8528723648E-02
   -5.4456328299E-02   -6.0760431204E-02   -6.7436635506E-02   -7.4478850453E-02
   -8.1879345332E-02   -8.9628810266E-02   -9.7716423072E-02   -1.0612992134E-01
   -1.1485567886E-01   -1.2387878552E-01   -1.3318312972E-01   -1.4275148255E-01
   -1.5256558263E-01   -1.6260622094E-01   -1.7285332474E-01   -1.8328603971E-01
   -1.9388280969E-01   -2.0462145324E-01   -2.1547923647E-01   -2.2643294149E-01
   -2.3745893009E-01   -2.4853320219E-01   -2.5963144886E-01   -2.7072909953E-01
   -2.8180136340E-01   -2.9282326495E-01   -3.0376967362E-01   -3.1461532788E-01
   -3.2533485374E-01   -3.3590277830E-01   -3.4629353853E-01   -3.5648148584E-01
   -3.6644088701E-01   -3.7614592216E-01   -3.8557068029E-01   -3.9468915327E-01
   -4.0347522892E-01   -4.1190268413E-01   -4.1994517868E-01   -4.2757625068E-01
   -4.3476931440E-01   -4.4149766141E-01   -4.4773446563E-01   -4.5345279325E-01
   -4.5862561809E-01   -4.6322584314E-01   -4.6722632881E-01   -4.7059992848E-01
   -4.7331953176E-01   -4.7535811579E-01   -4.7668880493E-01   -4.7728493888E-01
   -4.7712014940E-01   -4.7616844554E-01   -4.7440430718E-01   -4.7180278666E-01
   -4.6833961813E-01   -4.6399133408E-01   -4.5873538845E-01   -4.5255028570E-01
   -4.4541571493E-01   -4.3731268817E-01   -4.2822368198E-01   -4.1813278112E-01
   -4.0702582326E-01   -3.9489054355E-01   -3.8171671779E-01   -3.6749630283E-01
   -3.5222357313E-01   -3.3589525191E-01   -3.1851063571E-01   -3.0007171110E-01
   -2.8058326210E-01   -2.6005296729E-01   -2.3849148521E-01   -2.1591252710E-01
   -1.9233291587E-01   -1.6777263032E-01   -1.4225483384E-01   -1.1580588673E-01
   -8.8455341649E-02   -6.0235921582E-02   -3.1183480048E-02   -1.3369432715E-03
    2.9261765736E-02    6.0567821111E-02    9.2533605871E-02    1.2510884108E-01
    1.5824073189E-01    1.9187412986E-01    2.2595171064E-01    2.6041416616E-01
    2.9520041014E-01    3.3024779584E-01    3.6549234461E-01    4.0086898382E-01
    4.3631179274E-01    4.7175425471E-01    5.0712951382E-01    5.4237063463E-01
    5.7741086291E-01    6.1218388574E-01    6.4662408922E-01    6.8066681184E-01
    7.1424859197E-01    7.4730740751E-01    7.7978290628E-01    8.1161662533E-01
    8.4275219783E-01    8.7313554607E-01    9.0271505922E-01    9.3144175478E-01
    9.5926942267E-01    9.8615475097E-01    1.0120574327E+00    1.0369402530E+00
    1.0607691565E+00    1.0835132941E+00    1.1051450497E+00    1.1256400474E+00
    1.1449771374E+00    1.1631383642E+00    1.1801089147E+00    1.1958770494E+00
    1.2104340159E+00    1.2237739470E+00    1.2358937437E+00    1.2467929457E+00
    1.2564735894E+00    1.2649400558E+00    1.2721989105E+00    1.2782587361E+00
    1.2831299601E+00    1.2868246792E+00    1.2893564829E+00    1.2907402765E+00
    1.2909921075E+00    1.2901289955E+00    1.2881687673E+00    1.2851299010E+00
    1.2810313770E+00    1.2758925412E+00    1.2697329791E+00    1.2625724025E+00
    1.2544305514E+00    1.2453271095E+00    1.2352816359E+00    1.2243135134E+00
    1.2124419122E+00    1.1996857717E+00    1.1860637979E+00    1.1715944778E+00
    1.1562961103E+00    1.1401868516E+00    1.1232847768E+00    1.1056079543E+00
    1.0871745334E+00    1.0680028435E+00    1.0481115035E+00    1.0275195393E+00
    1.0062465088E+00    9.8431263194E-01    9.6173892406E-01    9.3854733047E-01
    9.1476086087E-01    8.9040372110E-01    8.6550144038E-01    8.4008099210E-01
    8.1417090616E-01    7.8780137101E-01    7.6100432349E-01    7.3381352482E-01
    7.0626462102E-01    6.7839518640E-01    6.5024474861E-01    6.2185479418E-01
    5.9326875354E-01    5.6453196461E-01    5.3569161443E-01    5.0679665840E-01
    4.7789771688E-01    4.4904694929E-01    4.2029790586E-01    3.9170535757E-01
    3.6332510504E-01    3.3521376717E-01    3.0742855085E-01    2.8002700297E-01
    2.5306674645E-01    2.2660520186E-01    2.0069929678E-01    1.7540516485E-01
    1.5077783684E-01    1.2687092609E-01    1.0373631085E-01    8.1423815975E-02
    5.9980896822E-02    3.9452327810E-02    1.9879898503E-02    1.3021198319E-03
   -1.6246056854E-02   -3.2733505287E-02   -4.8133171811E-02   -6.2422302510E-02
   -7.5582647618E-02   -8.7600641054E-02   -9.8467553080E-02   -1.0817961431E-01
   -1.1673810943E-01   -1.2414943926E-01   -1.3042515007E-01   -1.3558192916E-01
   -1.3964156626E-01   -1.4263088008E-01   -1.4458161038E-01   -1.4553027530E-01
   -1.4551799477E-01   -1.4459028061E-01   -1.4279679441E-01   -1.4019107450E-01
   -1.3683023360E-01   -1.3277462901E-01   -1.2808750735E-01   -1.2283462624E-01
   -1.1708385539E-01   -1.1090475986E-01   -1.0436816820E-01   -9.7545728808E-02
   -9.0509455762E-02   -8.3331272264E-02   -7.6082587946E-02   -6.8833685436E-02
   -6.1653503832E-02   -5.4609181111E-02   -4.7768344779E-02   -4.1196883827E-02
   -3.4952012254E-02   -2.9086653303E-02   -2.3650676597E-02   -1.8689677505E-02
   -1.4244905517E-02   -1.0352942497E-02   -7.0460844046E-03   -4.3506830369E-03
   -2.2754564378E-03   -8.6882148826E-04   -1.5290184366E-04    5.4783503573E-05
    1.8083256749E-05   -1.5338602355E-05    6.5353411300E-07    2.3030419190E-06
 0. 0. 0. 0.
 0. 0. 0. 0.
 0. 0. 0. 0.
 0. 0. 0. 0.
 0. 0. 0. 0.
 0. 0. 0. 0.
 0. 0. 0. 0.
 0. 0. 0. 0.
 0. 0. 0. 0.
 0. 0. 0. 0.
 0. 0. 0. 0.
 0. 0. 0. 0.
 0. 0. 0. 0.
 0. 0. 0. 0.
 0. 0. 0. 0.
 0. 0. 0. 0.
 0. 0. 0. 0.
 0. 0. 0. 0.
 0. 0. 0. 0.
 0. 0. 0. 0.
 0. 0. 0. 0.
 0. 0. 0. 0.
 0. 0. 0. 0.
 0. 0. 0. 0.
 0. 0. 0. 0.
 0. 0. 0. 0.
 0. 0. 0. 0.
 0. 0. 0. 0.
 0. 0. 0. 0.
 0. 0. 0. 0.
 0. 0. 0. 0.
 0. 0. 0. 0.
 0. 0. 0. 0.
 0. 0. 0. 0.
 0. 0. 0. 0.
 0. 0. 0. 0.
 0. 0. 0. 0.
 0. 0. 0. 0.
 0. 0. 0. 0.
 0. 0. 0. 0.
 0. 0. 0. 0.
 0. 0. 0. 0.
 0. 0. 0. 0.
 0. 0. 0. 0.
 0. 0. 0. 0.
 0. 0. 0. 0.
 0. 0. 0. 0.
 0. 0. 0. 0.
 0. 0. 0. 0.
 0. 0. 0. 0.
 0. 0. 0. 0.
 0. 0. 0. 0.
 0. 0. 0. 0.
 0. 0. 0. 0.
 0. 0. 0. 0.
 0. 0. 0. 0.
 0. 0. 0. 0.
 0. 0. 0. 0.
 0. 0. 0. 0.
 0. 0. 0. 0.
 0. 0. 0. 0.
 0. 0. 0. 0.
 0. 0. 0. 0.
 0. 0. 0. 0.
 0. 0. 0. 0.
 0. 0. 0. 0.
 0. 0. 0. 0.
 0. 0. 0. 0.
 0. 0. 0. 0.
 0. 0. 0. 0.
 0. 0. 0. 0.
 0. 0. 0. 0.
 0. 0. 0. 0.
 0. 0. 0. 0.
 0. 0. 0. 0.
 0. 0. 0. 0.
 0. 0. 0. 0.
 0. 0. 0. 0.
 0. 0. 0. 0.
 0. 0. 0. 0.
 0. 0. 0. 0.
 0. 0. 0. 0.
 0. 0. 0. 0.
 0. 0. 0. 0.
 0. 0. 0. 0.
 0. 0. 0. 0.
 0. 0. 0. 0.
 0. 0. 0. 0.
 0. 0. 0. 0.
 0. 0. 0. 0.
 0. 0. 0. 0.
 0. 0. 0. 0.
 0. 0. 0. 0.
 0. 0. 0. 0.
 0. 0. 0. 0.
 0. 0. 0. 0.
 0. 0. 0. 0.
 0. 0. 0. 0.
 0. 0. 0. 0.
 0. 0. 0. 0.
 0. 0. 0. 0.
 0. 0. 0. 0.
 0. 0. 0. 0.
 0. 0. 0. 0.
 0. 0. 0. 0.
 0. 0. 0. 0.
 0. 0. 0. 0.
 0. 0. 0. 0.
 0. 0. 0. 0.
 0. 0. 0. 0.
 0. 0. 0. 0.
 0. 0. 0. 0.
 0. 0. 0. 0.
 0. 0. 0. 0.
 0. 0. 0. 0.
 0. 0. 0. 0.
 0. 0. 0. 0.
 0. 0. 0. 0.
 0. 0. 0. 0.
 0. 0. 0. 0.
 0. 0. 0. 0.
 0. 0. 0. 0.
 0. 0. 0. 0.
 0. 0. 0. 0.
 0. 0. 0. 0.
 0. 0. 0. 0.
 0. 0. 0. 0.
 0. 0. 0. 0.
 0. 0. 0. 0.
 0. 0. 0. 0.
 0. 0. 0. 0.
 0. 0. 0. 0.
 0. 0. 0. 0.
 0. 0. 0. 0.
 0. 0. 0. 0.
 0. 0. 0. 0.
 0. 0. 0. 0.
 0. 0. 0. 0.
 0. 0. 0. 0.
 0. 0. 0. 0.
 0. 0. 0. 0.
 0. 0. 0. 0.
 0. 0. 0. 0.
 0. 0. 0. 0.
 0. 0. 0. 0.
 0. 0. 0. 0.
 0. 0. 0. 0.
 0. 0. 0. 0.
 0. 0. 0. 0.
 0. 0. 0. 0.
 0. 0. 0. 0.
 0. 0. 0. 0.
 0. 0. 0. 0.
 0. 0. 0. 0.
 0. 0. 0. 0.
 0. 0. 0. 0.
 0. 0. 0. 0.
 0. 0. 0. 0.
 0. 0. 0. 0.
 0. 0. 0. 0.
 0. 0. 0. 0.
 0. 0. 0. 0.
 0. 0. 0. 0.
 0. 0. 0. 0.
 0. 0. 0. 0.
 0. 0. 0. 0.
 0. 0. 0. 0.
 0. 0. 0. 0.
 0. 0. 0. 0.
 0. 0. 0. 0.
 0. 0. 0. 0.
 0. 0. 0. 0.
 0. 0. 0. 0.
 0. 0. 0. 0.
 0. 0. 0. 0.
 0. 0. 0. 0.
 0. 0. 0. 0.
 0. 0. 0. 0.
 0. 0. 0. 0.
 0. 0. 0. 0.
 0. 0. 0. 0.
 0. 0. 0. 0.
 0. 0. 0. 0.
 0. 0. 0. 0.
 0. 0. 0. 0.
 0. 0. 0. 0.
 0. 0. 0. 0.
 0. 0. 0. 0.
 0. 0. 0. 0.
 0. 0. 0. 0.
 0. 0. 0. 0.
 0. 0. 0. 0.
 0. 0. 0. 0.
 0. 0. 0. 0.
 0. 0. 0. 0.
 0. 0. 0. 0.
 0. 0. 0. 0.
 0. 0. 0. 0.
 0. 0. 0. 0.
 0. 0. 0. 0.
 0. 0. 0. 0.
 0. 0. 0. 0.
 0. 0. 0. 0.
 0. 0. 0. 0.
 0. 0. 0. 0.
 0. 0. 0. 0.
 0. 0. 0. 0.
 0. 0. 0. 0.
 0. 0. 0. 0.
 0. 0. 0. 0.
 0. 0. 0. 0.
 0. 0. 0. 0.
 0. 0. 0. 0.
 0. 0. 0. 0.
 0. 0. 0. 0.
 0. 0. 0. 0.
 0. 0. 0. 0.
 0. 0. 0. 0.
 0. 0. 0. 0.
 0. 0. 0. 0.
 0. 0. 0. 0.
 0. 0. 0. 0.
 0. 0. 0. 0.
 0. 0. 0. 0.
 0. 0. 0. 0.
 0. 0. 0. 0.
 0. 0. 0. 0.
 0. 0. 0. 0.
 0. 0. 0. 0.
 0. 0. 0. 0.
 0. 0. 0. 0.
 0. 0. 0. 0.
 0. 0. 0. 0.
 0. 0. 0. 0.
 0. 0. 0. 0.
 0. 0. 0. 0.
 0. 0. 0. 0.
 0. 0. 0. 0.
 0. 0. 0. 0.
 0. 0. 0. 0.
 0. 0. 0. 0.
 0. 0. 0. 0.
 0. 0. 0. 0.
 0. 0. 0. 0.
 0. 0. 0. 0.
 0. 0. 0. 0.
 0. 0. 0. 0.
 0. 0. 0. 0.
 0. 0. 0. 0.
 0. 0. 0. 0.
 0. 0. 0. 0.
 0. 0. 0. 0.
 0. 0. 0. 0.
 0. 0. 0. 0.
 0. 0. 0. 0.
 0. 0. 0. 0.
 0. 0. 0. 0.
 0. 0. 0. 0.
 0. 0. 0. 0.
 0. 0. 0. 0.
 0. 0. 0. 0.
 0. 0. 0. 0.
 0. 0. 0. 0.
 0. 0. 0. 0.
 0. 0. 0. 0.
 0. 0.
   </PP_BETA.9>
   <PP_BETA.10
       type="real"
       size="1338"
       columns="4"
       index="10"
       angular_momentum="2"
       cutoff_radius_index=" 276"
       cutoff_radius="    2.7500000000E+00" >
   -3.8161647453E-11   -4.5838088151E-06   -3.6640918931E-05   -1.2349709550E-04
   -2.9218406427E-04   -5.6929506436E-04   -9.8084346061E-04   -1.5521253902E-03
   -2.3075873803E-03   -3.2706998252E-03   -4.4638371594E-03   -5.9081654950E-03
   -7.6235384278E-03   -9.6284016339E-03   -1.1939706802E-02   -1.4572835358E-02
   -1.7541532342E-02   -2.0857850723E-02   -2.4532106311E-02   -2.8572843362E-02
   -3.2986810858E-02   -3.7778949347E-02   -4.2952388140E-02   -4.8508452588E-02
   -5.4446681037E-02   -6.0764851017E-02   -6.7459014133E-02   -7.4523539038E-02
   -8.1951161844E-02   -8.9733043226E-02   -9.7858831486E-02   -1.0631673074E-01
   -1.1509357343E-01   -1.2417489629E-01   -1.3354501891E-01   -1.4318712407E-01
   -1.5308333897E-01   -1.6321481653E-01   -1.7356181596E-01   -1.8410378187E-01
   -1.9481942122E-01   -2.0568677732E-01   -2.1668330051E-01   -2.2778591473E-01
   -2.3897107979E-01   -2.5021484869E-01   -2.6149291993E-01   -2.7278068449E-01
   -2.8405326728E-01   -2.9528556322E-01   -3.0645226785E-01   -3.1752790264E-01
   -3.2848683526E-01   -3.3930329512E-01   -3.4995138455E-01   -3.6040508606E-01
   -3.7063826622E-01   -3.8062467688E-01   -3.9033795408E-01   -3.9975161569E-01
   -4.0883905825E-01   -4.1757355387E-01   -4.2592824797E-01   -4.3387615861E-01
   -4.4139017819E-01   -4.4844307835E-01   -4.5500751875E-01   -4.6105606040E-01
   -4.6656118441E-01   -4.7149531654E-01   -4.7583085825E-01   -4.7954022475E-01
   -4.8259589039E-01   -4.8497044176E-01   -4.8663663879E-01   -4.8756748382E-01
   -4.8773629901E-01   -4.8711681163E-01   -4.8568324742E-01   -4.8341043149E-01
   -4.8027389663E-01   -4.7624999826E-01   -4.7131603570E-01   -4.6545037894E-01
   -4.5863260011E-01   -4.5084360893E-01   -4.4206579098E-01   -4.3228314795E-01
   -4.2148143867E-01   -4.0964831979E-01   -3.9677348501E-01   -3.8284880145E-01
   -3.6786844208E-01   -3.5182901288E-01   -3.3472967338E-01   -3.1657224954E-01
   -2.9736133751E-01   -2.7710439724E-01   -2.5581183476E-01   -2.3349707202E-01
   -2.1017660335E-01   -1.8587003762E-01   -1.6060012518E-01   -1.3439276907E-01
   -1.0727701968E-01   -7.9285052592E-02   -5.0452129058E-02   -2.0816539111E-02
    9.5804729314E-03    4.0694800400E-02    7.2479583451E-02    1.0488533514E-01
    1.3786008383E-01    1.7134953142E-01    2.0529722634E-01    2.3964475075E-01
    2.7433192060E-01    3.0929699747E-01    3.4447691100E-01    3.7980749040E-01
    4.1522370367E-01    4.5065990295E-01    4.8605007432E-01    5.2132809050E-01
    5.5642796475E-01    5.9128410405E-01    6.2583156014E-01    6.6000627644E-01
    6.9374532928E-01    7.2698716176E-01    7.5967180859E-01    7.9174111042E-01
    8.2313891625E-01    8.5381127240E-01    8.8370659697E-01    9.1277583853E-01
    9.4097261815E-01    9.6825335381E-01    9.9457736650E-01    1.0199069675E+00
    1.0442075267E+00    1.0674475206E+00    1.0895985621E+00    1.1106354097E+00
    1.1305359582E+00    1.1492812106E+00    1.1668552317E+00    1.1832450850E+00
    1.1984407523E+00    1.2124350386E+00    1.2252234627E+00    1.2368041351E+00
    1.2471776240E+00    1.2563468120E+00    1.2643167440E+00    1.2710944684E+00
    1.2766888742E+00    1.2811105235E+00    1.2843714837E+00    1.2864851597E+00
    1.2874661275E+00    1.2873299726E+00    1.2860931329E+00    1.2837727491E+00
    1.2803865230E+00    1.2759525865E+00    1.2704893810E+00    1.2640155492E+00
    1.2565498405E+00    1.2481110303E+00    1.2387178544E+00    1.2283889582E+00
    1.2171428624E+00    1.2049979444E+00    1.1919724352E+00    1.1780844323E+00
    1.1633519286E+00    1.1477928549E+00    1.1314251374E+00    1.1142667685E+00
    1.0963358890E+00    1.0776508817E+00    1.0582304752E+00    1.0380938545E+00
    1.0172607797E+00    9.9575170823E-01    9.7358792115E-01    9.5079165027E-01
    9.2738620485E-01    9.0339609570E-01    8.7884715500E-01    8.5376664971E-01
    8.2818338685E-01    8.0212780877E-01    7.7563207667E-01    7.4873014073E-01
    7.2145779518E-01    6.9385271713E-01    6.6595448755E-01    6.3780459347E-01
    6.0944641048E-01    5.8092516447E-01    5.5228787239E-01    5.2358326128E-01
    4.9486166570E-01    4.6617490337E-01    4.3757612938E-01    4.0911966943E-01
    3.8086083277E-01    3.5285570575E-01    3.2516092715E-01    2.9783344646E-01
    2.7093026689E-01    2.4450817449E-01    2.1862345555E-01    1.9333160411E-01
    1.6868702181E-01    1.4474271243E-01    1.2154997342E-01    9.9158087027E-02
    7.7614013397E-02    5.6962088415E-02    3.7243728769E-02    1.8497146889E-02
    7.5707831492E-04   -1.5945475975E-02   -3.1583489830E-02   -4.6134132460E-02
   -5.9578966975E-02   -7.1904124870E-02   -8.3100454513E-02   -9.3163641916E-02
   -1.0209430221E-01   -1.0989804052E-01   -1.1658548112E-01   -1.2217226400E-01
   -1.2667900833E-01   -1.3013124223E-01   -1.3255929914E-01   -1.3399818059E-01
   -1.3448738609E-01   -1.3407071083E-01   -1.3279601206E-01   -1.3071494561E-01
   -1.2788267392E-01   -1.2435754748E-01   -1.2020076148E-01   -1.1547599014E-01
   -1.1024900102E-01   -1.0458725182E-01   -9.8559472649E-02   -9.2235236533E-02
   -8.5684519532E-02   -7.8977258774E-02   -7.2182949047E-02   -6.5370023452E-02
   -5.8605681714E-02   -5.1955443176E-02   -4.5485818382E-02   -3.9261855239E-02
   -3.3339347102E-02   -2.7769849802E-02   -2.2602136171E-02   -1.7880870227E-02
   -1.3646573792E-02   -9.9353053508E-03   -6.7790531641E-03   -4.2040734722E-03
   -2.2189158970E-03   -8.7317955054E-04   -1.9093861982E-04    2.0317743483E-05
    1.1693943488E-05   -1.0577417220E-05    4.0313251997E-07    1.4736923608E-06
 0. 0. 0. 0.
 0. 0. 0. 0.
 0. 0. 0. 0.
 0. 0. 0. 0.
 0. 0. 0. 0.
 0. 0. 0. 0.
 0. 0. 0. 0.
 0. 0. 0. 0.
 0. 0. 0. 0.
 0. 0. 0. 0.
 0. 0. 0. 0.
 0. 0. 0. 0.
 0. 0. 0. 0.
 0. 0. 0. 0.
 0. 0. 0. 0.
 0. 0. 0. 0.
 0. 0. 0. 0.
 0. 0. 0. 0.
 0. 0. 0. 0.
 0. 0. 0. 0.
 0. 0. 0. 0.
 0. 0. 0. 0.
 0. 0. 0. 0.
 0. 0. 0. 0.
 0. 0. 0. 0.
 0. 0. 0. 0.
 0. 0. 0. 0.
 0. 0. 0. 0.
 0. 0. 0. 0.
 0. 0. 0. 0.
 0. 0. 0. 0.
 0. 0. 0. 0.
 0. 0. 0. 0.
 0. 0. 0. 0.
 0. 0. 0. 0.
 0. 0. 0. 0.
 0. 0. 0. 0.
 0. 0. 0. 0.
 0. 0. 0. 0.
 0. 0. 0. 0.
 0. 0. 0. 0.
 0. 0. 0. 0.
 0. 0. 0. 0.
 0. 0. 0. 0.
 0. 0. 0. 0.
 0. 0. 0. 0.
 0. 0. 0. 0.
 0. 0. 0. 0.
 0. 0. 0. 0.
 0. 0. 0. 0.
 0. 0. 0. 0.
 0. 0. 0. 0.
 0. 0. 0. 0.
 0. 0. 0. 0.
 0. 0. 0. 0.
 0. 0. 0. 0.
 0. 0. 0. 0.
 0. 0. 0. 0.
 0. 0. 0. 0.
 0. 0. 0. 0.
 0. 0. 0. 0.
 0. 0. 0. 0.
 0. 0. 0. 0.
 0. 0. 0. 0.
 0. 0. 0. 0.
 0. 0. 0. 0.
 0. 0. 0. 0.
 0. 0. 0. 0.
 0. 0. 0. 0.
 0. 0. 0. 0.
 0. 0. 0. 0.
 0. 0. 0. 0.
 0. 0. 0. 0.
 0. 0. 0. 0.
 0. 0. 0. 0.
 0. 0. 0. 0.
 0. 0. 0. 0.
 0. 0. 0. 0.
 0. 0. 0. 0.
 0. 0. 0. 0.
 0. 0. 0. 0.
 0. 0. 0. 0.
 0. 0. 0. 0.
 0. 0. 0. 0.
 0. 0. 0. 0.
 0. 0. 0. 0.
 0. 0. 0. 0.
 0. 0. 0. 0.
 0. 0. 0. 0.
 0. 0. 0. 0.
 0. 0. 0. 0.
 0. 0. 0. 0.
 0. 0. 0. 0.
 0. 0. 0. 0.
 0. 0. 0. 0.
 0. 0. 0. 0.
 0. 0. 0. 0.
 0. 0. 0. 0.
 0. 0. 0. 0.
 0. 0. 0. 0.
 0. 0. 0. 0.
 0. 0. 0. 0.
 0. 0. 0. 0.
 0. 0. 0. 0.
 0. 0. 0. 0.
 0. 0. 0. 0.
 0. 0. 0. 0.
 0. 0. 0. 0.
 0. 0. 0. 0.
 0. 0. 0. 0.
 0. 0. 0. 0.
 0. 0. 0. 0.
 0. 0. 0. 0.
 0. 0. 0. 0.
 0. 0. 0. 0.
 0. 0. 0. 0.
 0. 0. 0. 0.
 0. 0. 0. 0.
 0. 0. 0. 0.
 0. 0. 0. 0.
 0. 0. 0. 0.
 0. 0. 0. 0.
 0. 0. 0. 0.
 0. 0. 0. 0.
 0. 0. 0. 0.
 0. 0. 0. 0.
 0. 0. 0. 0.
 0. 0. 0. 0.
 0. 0. 0. 0.
 0. 0. 0. 0.
 0. 0. 0. 0.
 0. 0. 0. 0.
 0. 0. 0. 0.
 0. 0. 0. 0.
 0. 0. 0. 0.
 0. 0. 0. 0.
 0. 0. 0. 0.
 0. 0. 0. 0.
 0. 0. 0. 0.
 0. 0. 0. 0.
 0. 0. 0. 0.
 0. 0. 0. 0.
 0. 0. 0. 0.
 0. 0. 0. 0.
 0. 0. 0. 0.
 0. 0. 0. 0.
 0. 0. 0. 0.
 0. 0. 0. 0.
 0. 0. 0. 0.
 0. 0. 0. 0.
 0. 0. 0. 0.
 0. 0. 0. 0.
 0. 0. 0. 0.
 0. 0. 0. 0.
 0. 0. 0. 0.
 0. 0. 0. 0.
 0. 0. 0. 0.
 0. 0. 0. 0.
 0. 0. 0. 0.
 0. 0. 0. 0.
 0. 0. 0. 0.
 0. 0. 0. 0.
 0. 0. 0. 0.
 0. 0. 0. 0.
 0. 0. 0. 0.
 0. 0. 0. 0.
 0. 0. 0. 0.
 0. 0. 0. 0.
 0. 0. 0. 0.
 0. 0. 0. 0.
 0. 0. 0. 0.
 0. 0. 0. 0.
 0. 0. 0. 0.
 0. 0. 0. 0.
 0. 0. 0. 0.
 0. 0. 0. 0.
 0. 0. 0. 0.
 0. 0. 0. 0.
 0. 0. 0. 0.
 0. 0. 0. 0.
 0. 0. 0. 0.
 0. 0. 0. 0.
 0. 0. 0. 0.
 0. 0. 0. 0.
 0. 0. 0. 0.
 0. 0. 0. 0.
 0. 0. 0. 0.
 0. 0. 0. 0.
 0. 0. 0. 0.
 0. 0. 0. 0.
 0. 0. 0. 0.
 0. 0. 0. 0.
 0. 0. 0. 0.
 0. 0. 0. 0.
 0. 0. 0. 0.
 0. 0. 0. 0.
 0. 0. 0. 0.
 0. 0. 0. 0.
 0. 0. 0. 0.
 0. 0. 0. 0.
 0. 0. 0. 0.
 0. 0. 0. 0.
 0. 0. 0. 0.
 0. 0. 0. 0.
 0. 0. 0. 0.
 0. 0. 0. 0.
 0. 0. 0. 0.
 0. 0. 0. 0.
 0. 0. 0. 0.
 0. 0. 0. 0.
 0. 0. 0. 0.
 0. 0. 0. 0.
 0. 0. 0. 0.
 0. 0. 0. 0.
 0. 0. 0. 0.
 0. 0. 0. 0.
 0. 0. 0. 0.
 0. 0. 0. 0.
 0. 0. 0. 0.
 0. 0. 0. 0.
 0. 0. 0. 0.
 0. 0. 0. 0.
 0. 0. 0. 0.
 0. 0. 0. 0.
 0. 0. 0. 0.
 0. 0. 0. 0.
 0. 0. 0. 0.
 0. 0. 0. 0.
 0. 0. 0. 0.
 0. 0. 0. 0.
 0. 0. 0. 0.
 0. 0. 0. 0.
 0. 0. 0. 0.
 0. 0. 0. 0.
 0. 0. 0. 0.
 0. 0. 0. 0.
 0. 0. 0. 0.
 0. 0. 0. 0.
 0. 0. 0. 0.
 0. 0. 0. 0.
 0. 0. 0. 0.
 0. 0. 0. 0.
 0. 0. 0. 0.
 0. 0. 0. 0.
 0. 0. 0. 0.
 0. 0. 0. 0.
 0. 0. 0. 0.
 0. 0. 0. 0.
 0. 0. 0. 0.
 0. 0. 0. 0.
 0. 0. 0. 0.
 0. 0. 0. 0.
 0. 0. 0. 0.
 0. 0. 0. 0.
 0. 0. 0. 0.
 0. 0. 0. 0.
 0. 0. 0. 0.
 0. 0. 0. 0.
 0. 0. 0. 0.
 0. 0. 0. 0.
 0. 0. 0. 0.
 0. 0. 0. 0.
 0. 0. 0. 0.
 0. 0. 0. 0.
 0. 0. 0. 0.
 0. 0.
   </PP_BETA.10>
   <PP_BETA.11
       type="real"
       size="1338"
       columns="4"
       index="11"
       angular_momentum="3"
       cutoff_radius_index=" 276"
       cutoff_radius="    2.7500000000E+00" >
   -4.2287308719E-11    5.9857270192E-08    9.5719714174E-07    4.8414335236E-06
    1.5281977638E-05    3.7248897946E-05    7.7085999243E-05    1.4247647494E-04
    2.4240132879E-04    3.8709080343E-04    5.8796909243E-04    8.5759265048E-04
    1.2095824517E-03    1.6585505800E-03    2.2200215653E-03    2.9103489098E-03
    3.7466272706E-03    4.7466007914E-03    5.9285680919E-03    7.3112844414E-03
    8.9138616561E-03    1.0755666267E-02    1.2856216510E-02    1.5235078708E-02
    1.7911763569E-02    2.0905622996E-02    2.4235747903E-02    2.7920867609E-02
    3.1979251292E-02    3.6428612034E-02    4.1286013906E-02    4.6567782563E-02
    5.2289419775E-02    5.8465522285E-02    6.5109705373E-02    7.2234531448E-02
    7.9851443975E-02    8.7970707003E-02    9.6601350500E-02    1.0575112171E-01
    1.1542644266E-01    1.2563237389E-01    1.3637258458E-01    1.4764932896E-01
    1.5946342906E-01    1.7181426377E-01    1.8469976410E-01    1.9811641442E-01
    2.1205925967E-01    2.2652191824E-01    2.4149660031E-01    2.5697413134E-01
    2.7294398060E-01    2.8939429413E-01    3.0631193210E-01    3.2368250998E-01
    3.4149044329E-01    3.5971899550E-01    3.7835032859E-01    3.9736555609E-01
    4.1674479791E-01    4.3646723681E-01    4.5651117594E-01    4.7685409707E-01
    4.9747271918E-01    5.1834305700E-01    5.3944047915E-01    5.6073976540E-01
    5.8221516302E-01    6.0384044156E-01    6.2558894604E-01    6.4743364825E-01
    6.6934719576E-01    6.9130195876E-01    7.1327007426E-01    7.3522348771E-01
    7.5713399193E-01    7.7897326323E-01    8.0071289471E-01    8.2232442678E-01
    8.4377937498E-01    8.6504925507E-01    8.8610560559E-01    9.0692000804E-01
    9.2746410481E-01    9.4770961507E-01    9.6762834887E-01    9.8719221971E-01
    1.0063732559E+00    1.0251436107E+00    1.0434755724E+00    1.0613415731E+00
    1.0787141987E+00    1.0955661982E+00    1.1118704942E+00    1.1276001946E+00
    1.1427286053E+00    1.1572292449E+00    1.1710758615E+00    1.1842424516E+00
    1.1967032821E+00    1.2084329148E+00    1.2194062349E+00    1.2295984818E+00
    1.2389852847E+00    1.2475427013E+00    1.2552472608E+00    1.2620760105E+00
    1.2680065675E+00    1.2730171732E+00    1.2770867530E+00    1.2801949796E+00
    1.2823223400E+00    1.2834502067E+00    1.2835609122E+00    1.2826378270E+00
    1.2806654402E+00    1.2776294437E+00    1.2735168173E+00    1.2683159172E+00
    1.2620165649E+00    1.2546101374E+00    1.2460896578E+00    1.2364498861E+00
    1.2256874084E+00    1.2138007257E+00    1.2007903401E+00    1.1866588389E+00
    1.1714109748E+00    1.1550537431E+00    1.1375964528E+00    1.1190507941E+00
    1.0994308990E+00    1.0787533952E+00    1.0570374530E+00    1.0343048249E+00
    1.0105798753E+00    9.8588960304E-01    9.6026365249E-01    9.3373431608E-01
    9.0633652549E-01    8.7810783228E-01    8.4908837711E-01    8.1932084751E-01
    7.8885042380E-01    7.5772471313E-01    7.2599367130E-01    6.9370951265E-01
    6.6092660766E-01    6.2770136874E-01    5.9409212405E-01    5.6015897976E-01
    5.2596367109E-01    4.9156940236E-01    4.5704067666E-01    4.2244311559E-01
    3.8784326968E-01    3.5330842010E-01    3.1890637258E-01    2.8470524404E-01
    2.5077324302E-01    2.1717844471E-01    1.8398856154E-01    1.5127071035E-01
    1.1909117715E-01    8.7515180617E-02    5.6606635360E-02    2.6427916095E-02
   -2.9603760562E-03   -3.1499644047E-02   -5.9133520969E-02   -8.5808090539E-02
   -1.1147210084E-01   -1.3607717020E-01   -1.5957798402E-01   -1.8193248156E-01
   -2.0310203150E-01   -2.2305159541E-01   -2.4174987793E-01   -2.5916946304E-01
   -2.7528693529E-01   -2.9008298539E-01   -3.0354249930E-01   -3.1565463030E-01
   -3.2641285339E-01   -3.3581500161E-01   -3.4386328382E-01   -3.5056428371E-01
   -3.5592893980E-01   -3.5997250636E-01   -3.6271449524E-01   -3.6417859868E-01
   -3.6439259329E-01   -3.6338822563E-01   -3.6120107959E-01   -3.5787042623E-01
   -3.5343905660E-01   -3.4795309828E-01   -3.4146181636E-01   -3.3401739987E-01
   -3.2567473439E-01   -3.1649116218E-01   -3.0652623063E-01   -2.9584143053E-01
   -2.8449992514E-01   -2.7256627150E-01   -2.6010613537E-01   -2.4718600109E-01
   -2.3387287791E-01   -2.2023400410E-01   -2.0633655056E-01   -1.9224732515E-01
   -1.7803247946E-01   -1.6375721941E-01   -1.4948552114E-01   -1.3527985374E-01
   -1.2120091012E-01   -1.0730734757E-01   -9.3655539170E-02   -8.0299337485E-02
   -6.7289851693E-02   -5.4675239322E-02   -4.2500513678E-02   -3.0807367952E-02
   -1.9634016917E-02   -9.0150570374E-03    1.0186543141E-03    1.0440099910E-02
    1.9226183500E-02    2.7357790011E-02    3.4819824876E-02    4.1601232299E-02
    4.7694992428E-02    5.3098097517E-02    5.7811507255E-02    6.1840083605E-02
    6.5192505539E-02    6.7881164246E-02    6.9922039457E-02    7.1334557647E-02
    7.2141432970E-02    7.2368491909E-02    7.2044482706E-02    7.1200870679E-02
    6.9871620706E-02    6.8092968156E-02    6.5903179623E-02    6.3342304928E-02
    6.0451921851E-02    5.7274875123E-02    5.3855011235E-02    5.0236898389E-02
    4.6465627034E-02    4.2586418590E-02    3.8644376609E-02    3.4684388493E-02
    3.0752827166E-02    2.6901193184E-02    2.3173813737E-02    1.9607018750E-02
    1.6237586572E-02    1.3100705368E-02    1.0229893422E-02    7.6568826048E-03
    5.4114535836E-03    3.5226240522E-03    2.0095463290E-03    8.9952277380E-04
    2.4536749249E-04   -1.0894880842E-05   -2.8925707967E-05    7.6246215194E-06
    4.3344898787E-06   -1.8358754891E-06    8.2769400702E-09    2.9651044922E-08
 0. 0. 0. 0.
 0. 0. 0. 0.
 0. 0. 0. 0.
 0. 0. 0. 0.
 0. 0. 0. 0.
 0. 0. 0. 0.
 0. 0. 0. 0.
 0. 0. 0. 0.
 0. 0. 0. 0.
 0. 0. 0. 0.
 0. 0. 0. 0.
 0. 0. 0. 0.
 0. 0. 0. 0.
 0. 0. 0. 0.
 0. 0. 0. 0.
 0. 0. 0. 0.
 0. 0. 0. 0.
 0. 0. 0. 0.
 0. 0. 0. 0.
 0. 0. 0. 0.
 0. 0. 0. 0.
 0. 0. 0. 0.
 0. 0. 0. 0.
 0. 0. 0. 0.
 0. 0. 0. 0.
 0. 0. 0. 0.
 0. 0. 0. 0.
 0. 0. 0. 0.
 0. 0. 0. 0.
 0. 0. 0. 0.
 0. 0. 0. 0.
 0. 0. 0. 0.
 0. 0. 0. 0.
 0. 0. 0. 0.
 0. 0. 0. 0.
 0. 0. 0. 0.
 0. 0. 0. 0.
 0. 0. 0. 0.
 0. 0. 0. 0.
 0. 0. 0. 0.
 0. 0. 0. 0.
 0. 0. 0. 0.
 0. 0. 0. 0.
 0. 0. 0. 0.
 0. 0. 0. 0.
 0. 0. 0. 0.
 0. 0. 0. 0.
 0. 0. 0. 0.
 0. 0. 0. 0.
 0. 0. 0. 0.
 0. 0. 0. 0.
 0. 0. 0. 0.
 0. 0. 0. 0.
 0. 0. 0. 0.
 0. 0. 0. 0.
 0. 0. 0. 0.
 0. 0. 0. 0.
 0. 0. 0. 0.
 0. 0. 0. 0.
 0. 0. 0. 0.
 0. 0. 0. 0.
 0. 0. 0. 0.
 0. 0. 0. 0.
 0. 0. 0. 0.
 0. 0. 0. 0.
 0. 0. 0. 0.
 0. 0. 0. 0.
 0. 0. 0. 0.
 0. 0. 0. 0.
 0. 0. 0. 0.
 0. 0. 0. 0.
 0. 0. 0. 0.
 0. 0. 0. 0.
 0. 0. 0. 0.
 0. 0. 0. 0.
 0. 0. 0. 0.
 0. 0. 0. 0.
 0. 0. 0. 0.
 0. 0. 0. 0.
 0. 0. 0. 0.
 0. 0. 0. 0.
 0. 0. 0. 0.
 0. 0. 0. 0.
 0. 0. 0. 0.
 0. 0. 0. 0.
 0. 0. 0. 0.
 0. 0. 0. 0.
 0. 0. 0. 0.
 0. 0. 0. 0.
 0. 0. 0. 0.
 0. 0. 0. 0.
 0. 0. 0. 0.
 0. 0. 0. 0.
 0. 0. 0. 0.
 0. 0. 0. 0.
 0. 0. 0. 0.
 0. 0. 0. 0.
 0. 0. 0. 0.
 0. 0. 0. 0.
 0. 0. 0. 0.
 0. 0. 0. 0.
 0. 0. 0. 0.
 0. 0. 0. 0.
 0. 0. 0. 0.
 0. 0. 0. 0.
 0. 0. 0. 0.
 0. 0. 0. 0.
 0. 0. 0. 0.
 0. 0. 0. 0.
 0. 0. 0. 0.
 0. 0. 0. 0.
 0. 0. 0. 0.
 0. 0. 0. 0.
 0. 0. 0. 0.
 0. 0. 0. 0.
 0. 0. 0. 0.
 0. 0. 0. 0.
 0. 0. 0. 0.
 0. 0. 0. 0.
 0. 0. 0. 0.
 0. 0. 0. 0.
 0. 0. 0. 0.
 0. 0. 0. 0.
 0. 0. 0. 0.
 0. 0. 0. 0.
 0. 0. 0. 0.
 0. 0. 0. 0.
 0. 0. 0. 0.
 0. 0. 0. 0.
 0. 0. 0. 0.
 0. 0. 0. 0.
 0. 0. 0. 0.
 0. 0. 0. 0.
 0. 0. 0. 0.
 0. 0. 0. 0.
 0. 0. 0. 0.
 0. 0. 0. 0.
 0. 0. 0. 0.
 0. 0. 0. 0.
 0. 0. 0. 0.
 0. 0. 0. 0.
 0. 0. 0. 0.
 0. 0. 0. 0.
 0. 0. 0. 0.
 0. 0. 0. 0.
 0. 0. 0. 0.
 0. 0. 0. 0.
 0. 0. 0. 0.
 0. 0. 0. 0.
 0. 0. 0. 0.
 0. 0. 0. 0.
 0. 0. 0. 0.
 0. 0. 0. 0.
 0. 0. 0. 0.
 0. 0. 0. 0.
 0. 0. 0. 0.
 0. 0. 0. 0.
 0. 0. 0. 0.
 0. 0. 0. 0.
 0. 0. 0. 0.
 0. 0. 0. 0.
 0. 0. 0. 0.
 0. 0. 0. 0.
 0. 0. 0. 0.
 0. 0. 0. 0.
 0. 0. 0. 0.
 0. 0. 0. 0.
 0. 0. 0. 0.
 0. 0. 0. 0.
 0. 0. 0. 0.
 0. 0. 0. 0.
 0. 0. 0. 0.
 0. 0. 0. 0.
 0. 0. 0. 0.
 0. 0. 0. 0.
 0. 0. 0. 0.
 0. 0. 0. 0.
 0. 0. 0. 0.
 0. 0. 0. 0.
 0. 0. 0. 0.
 0. 0. 0. 0.
 0. 0. 0. 0.
 0. 0. 0. 0.
 0. 0. 0. 0.
 0. 0. 0. 0.
 0. 0. 0. 0.
 0. 0. 0. 0.
 0. 0. 0. 0.
 0. 0. 0. 0.
 0. 0. 0. 0.
 0. 0. 0. 0.
 0. 0. 0. 0.
 0. 0. 0. 0.
 0. 0. 0. 0.
 0. 0. 0. 0.
 0. 0. 0. 0.
 0. 0. 0. 0.
 0. 0. 0. 0.
 0. 0. 0. 0.
 0. 0. 0. 0.
 0. 0. 0. 0.
 0. 0. 0. 0.
 0. 0. 0. 0.
 0. 0. 0. 0.
 0. 0. 0. 0.
 0. 0. 0. 0.
 0. 0. 0. 0.
 0. 0. 0. 0.
 0. 0. 0. 0.
 0. 0. 0. 0.
 0. 0. 0. 0.
 0. 0. 0. 0.
 0. 0. 0. 0.
 0. 0. 0. 0.
 0. 0. 0. 0.
 0. 0. 0. 0.
 0. 0. 0. 0.
 0. 0. 0. 0.
 0. 0. 0. 0.
 0. 0. 0. 0.
 0. 0. 0. 0.
 0. 0. 0. 0.
 0. 0. 0. 0.
 0. 0. 0. 0.
 0. 0. 0. 0.
 0. 0. 0. 0.
 0. 0. 0. 0.
 0. 0. 0. 0.
 0. 0. 0. 0.
 0. 0. 0. 0.
 0. 0. 0. 0.
 0. 0. 0. 0.
 0. 0. 0. 0.
 0. 0. 0. 0.
 0. 0. 0. 0.
 0. 0. 0. 0.
 0. 0. 0. 0.
 0. 0. 0. 0.
 0. 0. 0. 0.
 0. 0. 0. 0.
 0. 0. 0. 0.
 0. 0. 0. 0.
 0. 0. 0. 0.
 0. 0. 0. 0.
 0. 0. 0. 0.
 0. 0. 0. 0.
 0. 0. 0. 0.
 0. 0. 0. 0.
 0. 0. 0. 0.
 0. 0. 0. 0.
 0. 0. 0. 0.
 0. 0. 0. 0.
 0. 0. 0. 0.
 0. 0. 0. 0.
 0. 0. 0. 0.
 0. 0. 0. 0.
 0. 0. 0. 0.
 0. 0. 0. 0.
 0. 0. 0. 0.
 0. 0. 0. 0.
 0. 0. 0. 0.
 0. 0. 0. 0.
 0. 0. 0. 0.
 0. 0. 0. 0.
 0. 0. 0. 0.
 0. 0.
   </PP_BETA.11>
   <PP_BETA.12
       type="real"
       size="1338"
       columns="4"
       index="12"
       angular_momentum="3"
       cutoff_radius_index=" 276"
       cutoff_radius="    2.7500000000E+00" >
   -4.2594515019E-11    6.0051053021E-08    9.6029484683E-07    4.8570918866E-06
    1.5331360801E-05    3.7369133450E-05    7.7334488421E-05    1.4293501802E-04
    2.4318002648E-04    3.8833169844E-04    5.8984951645E-04    8.6032824434E-04
    1.2134298290E-03    1.6638096073E-03    2.2270372348E-03    2.9195127836E-03
    3.7583784795E-03    4.7614265733E-03    5.9470038605E-03    7.3339133776E-03
    8.9413138189E-03    1.0788617225E-02    1.2895385501E-02    1.5281226323E-02
    1.7965688996E-02    2.0968160809E-02    2.4307764444E-02    2.8003256961E-02
    3.2072930892E-02    3.6534517933E-02    4.1405095721E-02    4.6700998153E-02
    5.2437729674E-02    5.8629883933E-02    6.5291067186E-02    7.2433826768E-02
    8.0069584943E-02    8.8208578396E-02    9.6859803586E-02    1.0603096816E-01
    1.1572844853E-01    1.2595725383E-01    1.3672099613E-01    1.4802186712E-01
    1.5986062117E-01    1.7223656466E-01    1.8514755155E-01    1.9858998510E-01
    2.1255882541E-01    2.2704760279E-01    2.4204843650E-01    2.5755205887E-01
    2.7354784417E-01    2.9002384223E-01    3.0696681626E-01    3.2436228461E-01
    3.4219456605E-01    3.6044682818E-01    3.7910113863E-01    3.9813851852E-01
    4.1753899793E-01    4.3728167277E-01    4.5734476287E-01    4.7770567063E-01
    4.9834104012E-01    5.1922681592E-01    5.4033830168E-01    5.6165021776E-01
    5.8313675775E-01    6.0477164364E-01    6.2652817913E-01    6.4837930107E-01
    6.7029762868E-01    6.9225551036E-01    7.1422506795E-01    7.3617823833E-01
    7.5808681225E-01    7.7992247029E-01    8.0165681604E-01    8.2326140635E-01
    8.4470777892E-01    8.6596747704E-01    8.8701207182E-01    9.0781318199E-01
    9.2834249137E-01    9.4857176433E-01    9.6847285940E-01    9.8801774137E-01
    1.0071784920E+00    1.0259273198E+00    1.0442365694E+00    1.0620787299E+00
    1.0794264440E+00    1.0962525172E+00    1.1125299274E+00    1.1282318363E+00
    1.1433316013E+00    1.1578027897E+00    1.1716191955E+00    1.1847548573E+00
    1.1971840801E+00    1.2088814597E+00    1.2198219102E+00    1.2299806953E+00
    1.2393334631E+00    1.2478562849E+00    1.2555256980E+00    1.2623187523E+00
    1.2682130617E+00    1.2731868593E+00    1.2772190565E+00    1.2802893069E+00
    1.2823780733E+00    1.2834666996E+00    1.2835374853E+00    1.2825737639E+00
    1.2805599843E+00    1.2774817951E+00    1.2733261308E+00    1.2680813005E+00
    1.2617370777E+00    1.2542847911E+00    1.2457174162E+00    1.2360296664E+00
    1.2252180836E+00    1.2132811273E+00    1.2002192621E+00    1.1860350423E+00
    1.1707331933E+00    1.1543206890E+00    1.1368068246E+00    1.1182032844E+00
    1.0985242030E+00    1.0777862205E+00    1.0560085300E+00    1.0332129173E+00
    1.0094237920E+00    9.8466820999E-01    9.5897588558E-01    9.3237919397E-01
    9.0491316310E-01    8.7661545442E-01    8.4752633238E-01    8.1768862223E-01
    7.8714765603E-01    7.5595120649E-01    7.2414940876E-01    6.9179466989E-01
    6.5894156616E-01    6.2564672830E-01    5.9196871481E-01    5.5796787348E-01
    5.2370619163E-01    4.8924713536E-01    4.5465547817E-01    4.1999711965E-01
    3.8533889477E-01    3.5074837435E-01    3.1629365767E-01    2.8204315768E-01
    2.4806538004E-01    2.1442869661E-01    1.8120111451E-01    1.4845004165E-01
    1.1624204993E-01    8.4642637036E-02    5.3715988012E-02    2.3524737825E-02
   -5.8702640494E-03   -3.4410185757E-02   -6.2038440764E-02   -8.8700909940E-02
   -1.1434615686E-01   -1.3892563518E-01   -1.6239388692E-01   -1.8470873060E-01
   -2.0583143810E-01   -2.2572689927E-01   -2.4436377331E-01   -2.6171462591E-01
   -2.7775605140E-01   -2.9246877907E-01   -3.0583776287E-01   -3.1785225396E-01
   -3.2850585543E-01   -3.3779655881E-01   -3.4572676186E-01   -3.5230326750E-01
   -3.5753726349E-01   -3.6144428295E-01   -3.6404414554E-01   -3.6536087956E-01
   -3.6542262503E-01   -3.6426151813E-01   -3.6191355745E-01   -3.5841845238E-01
   -3.5381945449E-01   -3.4816317238E-01   -3.4149937087E-01   -3.3388075553E-01
   -3.2536274331E-01   -3.1600322046E-01   -3.0586228884E-01   -2.9500200180E-01
   -2.8348609087E-01   -2.7137968465E-01   -2.5874902122E-01   -2.4566115541E-01
   -2.3218366256E-01   -2.1838434007E-01   -2.0433090835E-01   -1.9009071257E-01
   -1.7573042688E-01   -1.6131576245E-01   -1.4691118086E-01   -1.3257961445E-01
   -1.1838219482E-01   -1.0437799109E-01   -9.0623759215E-02   -7.7173703605E-02
   -6.4079252309E-02   -5.1388846983E-02   -3.9147748662E-02   -2.7397860371E-02
   -1.6177567490E-02   -5.5215966989E-03    4.5391057973E-03    1.3977476129E-02
    2.2770414213E-02    3.0898844389E-02    3.8347754980E-02    4.5106216604E-02
    5.1167379196E-02    5.6528447816E-02    6.1190637440E-02    6.5159107062E-02
    6.8442873511E-02    7.1054705549E-02    7.3010998916E-02    7.4331633070E-02
    7.5039810510E-02    7.5161879650E-02    7.4727142322E-02    7.3767647045E-02
    7.2317969322E-02    7.0414980275E-02    6.8097604990E-02    6.5406572025E-02
    6.2384155595E-02    5.9073911932E-02    5.5520411441E-02    5.1768955379E-02
    4.7865376862E-02    4.3855641208E-02    3.9785595579E-02    3.5700873725E-02
    3.1648687980E-02    2.7681653024E-02    2.3844925872E-02    2.0175348201E-02
    1.6710280601E-02    1.3485480044E-02    1.0535024289E-02    7.8911964844E-03
    5.5843191302E-03    3.6440311469E-03    2.0895266770E-03    9.4891943727E-04
    2.7901160090E-04    1.3682201534E-05   -2.0211781303E-05    5.8180450156E-06
    3.4476842034E-06   -1.3256717984E-06   -6.4668872562E-09   -2.3166769714E-08
 0. 0. 0. 0.
 0. 0. 0. 0.
 0. 0. 0. 0.
 0. 0. 0. 0.
 0. 0. 0. 0.
 0. 0. 0. 0.
 0. 0. 0. 0.
 0. 0. 0. 0.
 0. 0. 0. 0.
 0. 0. 0. 0.
 0. 0. 0. 0.
 0. 0. 0. 0.
 0. 0. 0. 0.
 0. 0. 0. 0.
 0. 0. 0. 0.
 0. 0. 0. 0.
 0. 0. 0. 0.
 0. 0. 0. 0.
 0. 0. 0. 0.
 0. 0. 0. 0.
 0. 0. 0. 0.
 0. 0. 0. 0.
 0. 0. 0. 0.
 0. 0. 0. 0.
 0. 0. 0. 0.
 0. 0. 0. 0.
 0. 0. 0. 0.
 0. 0. 0. 0.
 0. 0. 0. 0.
 0. 0. 0. 0.
 0. 0. 0. 0.
 0. 0. 0. 0.
 0. 0. 0. 0.
 0. 0. 0. 0.
 0. 0. 0. 0.
 0. 0. 0. 0.
 0. 0. 0. 0.
 0. 0. 0. 0.
 0. 0. 0. 0.
 0. 0. 0. 0.
 0. 0. 0. 0.
 0. 0. 0. 0.
 0. 0. 0. 0.
 0. 0. 0. 0.
 0. 0. 0. 0.
 0. 0. 0. 0.
 0. 0. 0. 0.
 0. 0. 0. 0.
 0. 0. 0. 0.
 0. 0. 0. 0.
 0. 0. 0. 0.
 0. 0. 0. 0.
 0. 0. 0. 0.
 0. 0. 0. 0.
 0. 0. 0. 0.
 0. 0. 0. 0.
 0. 0. 0. 0.
 0. 0. 0. 0.
 0. 0. 0. 0.
 0. 0. 0. 0.
 0. 0. 0. 0.
 0. 0. 0. 0.
 0. 0. 0. 0.
 0. 0. 0. 0.
 0. 0. 0. 0.
 0. 0. 0. 0.
 0. 0. 0. 0.
 0. 0. 0. 0.
 0. 0. 0. 0.
 0. 0. 0. 0.
 0. 0. 0. 0.
 0. 0. 0. 0.
 0. 0. 0. 0.
 0. 0. 0. 0.
 0. 0. 0. 0.
 0. 0. 0. 0.
 0. 0. 0. 0.
 0. 0. 0. 0.
 0. 0. 0. 0.
 0. 0. 0. 0.
 0. 0. 0. 0.
 0. 0. 0. 0.
 0. 0. 0. 0.
 0. 0. 0. 0.
 0. 0. 0. 0.
 0. 0. 0. 0.
 0. 0. 0. 0.
 0. 0. 0. 0.
 0. 0. 0. 0.
 0. 0. 0. 0.
 0. 0. 0. 0.
 0. 0. 0. 0.
 0. 0. 0. 0.
 0. 0. 0. 0.
 0. 0. 0. 0.
 0. 0. 0. 0.
 0. 0. 0. 0.
 0. 0. 0. 0.
 0. 0. 0. 0.
 0. 0. 0. 0.
 0. 0. 0. 0.
 0. 0. 0. 0.
 0. 0. 0. 0.
 0. 0. 0. 0.
 0. 0. 0. 0.
 0. 0. 0. 0.
 0. 0. 0. 0.
 0. 0. 0. 0.
 0. 0. 0. 0.
 0. 0. 0. 0.
 0. 0. 0. 0.
 0. 0. 0. 0.
 0. 0. 0. 0.
 0. 0. 0. 0.
 0. 0. 0. 0.
 0. 0. 0. 0.
 0. 0. 0. 0.
 0. 0. 0. 0.
 0. 0. 0. 0.
 0. 0. 0. 0.
 0. 0. 0. 0.
 0. 0. 0. 0.
 0. 0. 0. 0.
 0. 0. 0. 0.
 0. 0. 0. 0.
 0. 0. 0. 0.
 0. 0. 0. 0.
 0. 0. 0. 0.
 0. 0. 0. 0.
 0. 0. 0. 0.
 0. 0. 0. 0.
 0. 0. 0. 0.
 0. 0. 0. 0.
 0. 0. 0. 0.
 0. 0. 0. 0.
 0. 0. 0. 0.
 0. 0. 0. 0.
 0. 0. 0. 0.
 0. 0. 0. 0.
 0. 0. 0. 0.
 0. 0. 0. 0.
 0. 0. 0. 0.
 0. 0. 0. 0.
 0. 0. 0. 0.
 0. 0. 0. 0.
 0. 0. 0. 0.
 0. 0. 0. 0.
 0. 0. 0. 0.
 0. 0. 0. 0.
 0. 0. 0. 0.
 0. 0. 0. 0.
 0. 0. 0. 0.
 0. 0. 0. 0.
 0. 0. 0. 0.
 0. 0. 0. 0.
 0. 0. 0. 0.
 0. 0. 0. 0.
 0. 0. 0. 0.
 0. 0. 0. 0.
 0. 0. 0. 0.
 0. 0. 0. 0.
 0. 0. 0. 0.
 0. 0. 0. 0.
 0. 0. 0. 0.
 0. 0. 0. 0.
 0. 0. 0. 0.
 0. 0. 0. 0.
 0. 0. 0. 0.
 0. 0. 0. 0.
 0. 0. 0. 0.
 0. 0. 0. 0.
 0. 0. 0. 0.
 0. 0. 0. 0.
 0. 0. 0. 0.
 0. 0. 0. 0.
 0. 0. 0. 0.
 0. 0. 0. 0.
 0. 0. 0. 0.
 0. 0. 0. 0.
 0. 0. 0. 0.
 0. 0. 0. 0.
 0. 0. 0. 0.
 0. 0. 0. 0.
 0. 0. 0. 0.
 0. 0. 0. 0.
 0. 0. 0. 0.
 0. 0. 0. 0.
 0. 0. 0. 0.
 0. 0. 0. 0.
 0. 0. 0. 0.
 0. 0. 0. 0.
 0. 0. 0. 0.
 0. 0. 0. 0.
 0. 0. 0. 0.
 0. 0. 0. 0.
 0. 0. 0. 0.
 0. 0. 0. 0.
 0. 0. 0. 0.
 0. 0. 0. 0.
 0. 0. 0. 0.
 0. 0. 0. 0.
 0. 0. 0. 0.
 0. 0. 0. 0.
 0. 0. 0. 0.
 0. 0. 0. 0.
 0. 0. 0. 0.
 0. 0. 0. 0.
 0. 0. 0. 0.
 0. 0. 0. 0.
 0. 0. 0. 0.
 0. 0. 0. 0.
 0. 0. 0. 0.
 0. 0. 0. 0.
 0. 0. 0. 0.
 0. 0. 0. 0.
 0. 0. 0. 0.
 0. 0. 0. 0.
 0. 0. 0. 0.
 0. 0. 0. 0.
 0. 0. 0. 0.
 0. 0. 0. 0.
 0. 0. 0. 0.
 0. 0. 0. 0.
 0. 0. 0. 0.
 0. 0. 0. 0.
 0. 0. 0. 0.
 0. 0. 0. 0.
 0. 0. 0. 0.
 0. 0. 0. 0.
 0. 0. 0. 0.
 0. 0. 0. 0.
 0. 0. 0. 0.
 0. 0. 0. 0.
 0. 0. 0. 0.
 0. 0. 0. 0.
 0. 0. 0. 0.
 0. 0. 0. 0.
 0. 0. 0. 0.
 0. 0. 0. 0.
 0. 0. 0. 0.
 0. 0. 0. 0.
 0. 0. 0. 0.
 0. 0. 0. 0.
 0. 0. 0. 0.
 0. 0. 0. 0.
 0. 0. 0. 0.
 0. 0. 0. 0.
 0. 0. 0. 0.
 0. 0. 0. 0.
 0. 0. 0. 0.
 0. 0. 0. 0.
 0. 0. 0. 0.
 0. 0. 0. 0.
 0. 0. 0. 0.
 0. 0. 0. 0.
 0. 0. 0. 0.
 0. 0. 0. 0.
 0. 0. 0. 0.
 0. 0. 0. 0.
 0. 0. 0. 0.
 0. 0. 0. 0.
 0. 0. 0. 0.
 0. 0. 0. 0.
 0. 0. 0. 0.
 0. 0. 0. 0.
 0. 0.
   </PP_BETA.12>
   <PP_BETA.13
       type="real"
       size="1338"
       columns="4"
       index="13"
       angular_momentum="3"
       cutoff_radius_index=" 276"
       cutoff_radius="    2.7500000000E+00" >
    6.3538692753E-11   -4.8432454275E-08   -7.7428612532E-07   -3.9144867820E-06
   -1.2348133852E-05   -3.0072952725E-05   -6.2172562306E-05   -1.1477479011E-04
   -1.9500133079E-04   -3.1090910539E-04   -4.7142373745E-04   -6.8626561826E-04
   -9.6586908580E-04   -1.3212952912E-03   -1.7641393707E-03   -2.3064325825E-03
   -2.9605401027E-03   -3.7390552047E-03   -4.6546905751E-03   -5.7201675351E-03
   -6.9481039544E-03   -8.3509016526E-03   -9.9406340871E-03   -1.1728935124E-02
   -1.3726889678E-02   -1.5944927006E-02   -1.8392717394E-02   -2.1079072990E-02
   -2.4011853466E-02   -2.7197877192E-02   -3.0642838544E-02   -3.4351231927E-02
   -3.8326283059E-02   -4.2569887997E-02   -4.7082560332E-02   -5.1863386929E-02
   -5.6909992523E-02   -6.2218513410E-02   -6.7783580434E-02   -7.3598311361E-02
   -7.9654312719E-02   -8.5941691059E-02   -9.2449073572E-02   -9.9163637901E-02
   -1.0607115093E-01   -1.1315601629E-01   -1.2040133019E-01   -1.2778894526E-01
   -1.3529954185E-01   -1.4291270631E-01   -1.5060701578E-01   -1.5836012873E-01
   -1.6614888073E-01   -1.7394938468E-01   -1.8173713493E-01   -1.8948711436E-01
   -1.9717390384E-01   -2.0477179317E-01   -2.1225489288E-01   -2.1959724586E-01
   -2.2677293835E-01   -2.3375620931E-01   -2.4052155740E-01   -2.4704384506E-01
   -2.5329839873E-01   -2.5926110470E-01   -2.6490849984E-01   -2.7021785678E-01
   -2.7516726278E-01   -2.7973569195E-01   -2.8390307030E-01   -2.8765033330E-01
   -2.9095947555E-01   -2.9381359231E-01   -2.9619691280E-01   -2.9809482496E-01
   -2.9949389181E-01   -3.0038185928E-01   -3.0074765563E-01   -3.0058138262E-01
   -2.9987429874E-01   -2.9861879454E-01   -2.9680836070E-01   -2.9443754908E-01
   -2.9150192726E-01   -2.8799802711E-01   -2.8392328801E-01   -2.7927599528E-01
   -2.7405521451E-01   -2.6826072262E-01   -2.6189293617E-01   -2.5495283794E-01
   -2.4744190236E-01   -2.3936202081E-01   -2.3071542735E-01   -2.2150462601E-01
   -2.1173232013E-01   -2.0140134485E-01   -1.9051460332E-01   -1.7907500749E-01
   -1.6708542422E-01   -1.5454862733E-01   -1.4146725631E-01   -1.2784378229E-01
   -1.1368048176E-01   -9.8979418550E-02   -8.3742434526E-02   -6.7971149319E-02
   -5.1666969357E-02   -3.4831106423E-02   -1.7464605860E-02    4.3161556198E-04
    1.8856722130E-02    3.7809902182E-02    5.7290301803E-02    7.7296949548E-02
    9.7828672555E-02    1.1888400454E-01    1.4046108623E-01    1.6255755880E-01
    1.8517045117E-01    2.0829606179E-01    2.3192983581E-01    2.5606623859E-01
    2.8069862653E-01    3.0581911614E-01    3.3141845248E-01    3.5748587816E-01
    3.8400900385E-01    4.1097368166E-01    4.3836388239E-01    4.6616157798E-01
    4.9434663026E-01    5.2289668715E-01    5.5178708755E-01    5.8099077600E-01
    6.1047822819E-01    6.4021738837E-01    6.7017361970E-01    7.0030966843E-01
    7.3058564276E-01    7.6095900727E-01    7.9138459347E-01    8.2181462726E-01
    8.5219877367E-01    8.8248419937E-01    9.1261565336E-01    9.4253556576E-01
    9.7218416512E-01    1.0014996140E+00    1.0304181625E+00    1.0588743205E+00
    1.0868010460E+00    1.1141299518E+00    1.1407915276E+00    1.1667153785E+00
    1.1918304767E+00    1.2160654288E+00    1.2393487539E+00    1.2616091742E+00
    1.2827759150E+00    1.3027790131E+00    1.3215496332E+00    1.3390203886E+00
    1.3551256664E+00    1.3698019550E+00    1.3829881708E+00    1.3946259850E+00
    1.4046601454E+00    1.4130387943E+00    1.4197137783E+00    1.4246409497E+00
    1.4277804565E+00    1.4290970202E+00    1.4285601983E+00    1.4261446314E+00
    1.4218302711E+00    1.4156025893E+00    1.4074527653E+00    1.3973778509E+00
    1.3853809107E+00    1.3714711377E+00    1.3556639415E+00    1.3379810102E+00
    1.3184503425E+00    1.2971062520E+00    1.2739893403E+00    1.2491464418E+00
    1.2226305363E+00    1.1945006325E+00    1.1648216201E+00    1.1336640926E+00
    1.1011041398E+00    1.0672231114E+00    1.0321073519E+00    9.9584790878E-01
    9.5854021357E-01    9.2028373824E-01    8.8118162788E-01    8.4134031117E-01
    8.0086909061E-01    7.5987971406E-01    7.1848592978E-01    6.7680302697E-01
    6.3494736397E-01    5.9303588649E-01    5.5118563815E-01    5.0951326582E-01
    4.6813452222E-01    4.2716376837E-01    3.8671347837E-01    3.4689374916E-01
    3.0781181779E-01    2.6957158881E-01    2.3227317427E-01    1.9601244882E-01
    1.6088062238E-01    1.2696383268E-01    9.4342760021E-02    6.3092266280E-02
    3.3281060394E-02    4.9713921096E-03   -2.1781224158E-02   -4.6928253723E-02
   -7.0428352820E-02   -9.2247545264E-02   -1.1235936347E-01   -1.3074495288E-01
   -1.4739313908E-01   -1.6230045700E-01   -1.7547114188E-01   -1.8691708196E-01
   -1.9665773279E-01   -2.0471999354E-01   -2.1113804585E-01   -2.1595315588E-01
   -2.1921344033E-01   -2.2097359784E-01   -2.2129460675E-01   -2.2024339099E-01
   -2.1789245557E-01   -2.1431949368E-01   -2.0960696731E-01   -2.0384166364E-01
   -1.9711422947E-01   -1.8951868623E-01   -1.8115192796E-01   -1.7211320510E-01
   -1.6250359686E-01   -1.5242547478E-01   -1.4198196070E-01   -1.3127635353E-01
   -1.2041174400E-01   -1.0949018958E-01   -9.8612218025E-02   -8.7876678786E-02
   -7.7384734691E-02   -6.7248317173E-02   -5.7561899292E-02   -4.8400674777E-02
   -3.9840064586E-02   -3.1951077976E-02   -2.4800179923E-02   -1.8449072069E-02
   -1.2954357504E-02   -8.3702307631E-03   -4.7282136626E-03   -2.0772998296E-03
   -5.2073075503E-04    7.8621606461E-05    8.8024637640E-05   -2.2217447873E-05
   -1.2326102403E-05    5.5278353418E-06   -5.1344581587E-08   -1.8393518405E-07
 0. 0. 0. 0.
 0. 0. 0. 0.
 0. 0. 0. 0.
 0. 0. 0. 0.
 0. 0. 0. 0.
 0. 0. 0. 0.
 0. 0. 0. 0.
 0. 0. 0. 0.
 0. 0. 0. 0.
 0. 0. 0. 0.
 0. 0. 0. 0.
 0. 0. 0. 0.
 0. 0. 0. 0.
 0. 0. 0. 0.
 0. 0. 0. 0.
 0. 0. 0. 0.
 0. 0. 0. 0.
 0. 0. 0. 0.
 0. 0. 0. 0.
 0. 0. 0. 0.
 0. 0. 0. 0.
 0. 0. 0. 0.
 0. 0. 0. 0.
 0. 0. 0. 0.
 0. 0. 0. 0.
 0. 0. 0. 0.
 0. 0. 0. 0.
 0. 0. 0. 0.
 0. 0. 0. 0.
 0. 0. 0. 0.
 0. 0. 0. 0.
 0. 0. 0. 0.
 0. 0. 0. 0.
 0. 0. 0. 0.
 0. 0. 0. 0.
 0. 0. 0. 0.
 0. 0. 0. 0.
 0. 0. 0. 0.
 0. 0. 0. 0.
 0. 0. 0. 0.
 0. 0. 0. 0.
 0. 0. 0. 0.
 0. 0. 0. 0.
 0. 0. 0. 0.
 0. 0. 0. 0.
 0. 0. 0. 0.
 0. 0. 0. 0.
 0. 0. 0. 0.
 0. 0. 0. 0.
 0. 0. 0. 0.
 0. 0. 0. 0.
 0. 0. 0. 0.
 0. 0. 0. 0.
 0. 0. 0. 0.
 0. 0. 0. 0.
 0. 0. 0. 0.
 0. 0. 0. 0.
 0. 0. 0. 0.
 0. 0. 0. 0.
 0. 0. 0. 0.
 0. 0. 0. 0.
 0. 0. 0. 0.
 0. 0. 0. 0.
 0. 0. 0. 0.
 0. 0. 0. 0.
 0. 0. 0. 0.
 0. 0. 0. 0.
 0. 0. 0. 0.
 0. 0. 0. 0.
 0. 0. 0. 0.
 0. 0. 0. 0.
 0. 0. 0. 0.
 0. 0. 0. 0.
 0. 0. 0. 0.
 0. 0. 0. 0.
 0. 0. 0. 0.
 0. 0. 0. 0.
 0. 0. 0. 0.
 0. 0. 0. 0.
 0. 0. 0. 0.
 0. 0. 0. 0.
 0. 0. 0. 0.
 0. 0. 0. 0.
 0. 0. 0. 0.
 0. 0. 0. 0.
 0. 0. 0. 0.
 0. 0. 0. 0.
 0. 0. 0. 0.
 0. 0. 0. 0.
 0. 0. 0. 0.
 0. 0. 0. 0.
 0. 0. 0. 0.
 0. 0. 0. 0.
 0. 0. 0. 0.
 0. 0. 0. 0.
 0. 0. 0. 0.
 0. 0. 0. 0.
 0. 0. 0. 0.
 0. 0. 0. 0.
 0. 0. 0. 0.
 0. 0. 0. 0.
 0. 0. 0. 0.
 0. 0. 0. 0.
 0. 0. 0. 0.
 0. 0. 0. 0.
 0. 0. 0. 0.
 0. 0. 0. 0.
 0. 0. 0. 0.
 0. 0. 0. 0.
 0. 0. 0. 0.
 0. 0. 0. 0.
 0. 0. 0. 0.
 0. 0. 0. 0.
 0. 0. 0. 0.
 0. 0. 0. 0.
 0. 0. 0. 0.
 0. 0. 0. 0.
 0. 0. 0. 0.
 0. 0. 0. 0.
 0. 0. 0. 0.
 0. 0. 0. 0.
 0. 0. 0. 0.
 0. 0. 0. 0.
 0. 0. 0. 0.
 0. 0. 0. 0.
 0. 0. 0. 0.
 0. 0. 0. 0.
 0. 0. 0. 0.
 0. 0. 0. 0.
 0. 0. 0. 0.
 0. 0. 0. 0.
 0. 0. 0. 0.
 0. 0. 0. 0.
 0. 0. 0. 0.
 0. 0. 0. 0.
 0. 0. 0. 0.
 0. 0. 0. 0.
 0. 0. 0. 0.
 0. 0. 0. 0.
 0. 0. 0. 0.
 0. 0. 0. 0.
 0. 0. 0. 0.
 0. 0. 0. 0.
 0. 0. 0. 0.
 0. 0. 0. 0.
 0. 0. 0. 0.
 0. 0. 0. 0.
 0. 0. 0. 0.
 0. 0. 0. 0.
 0. 0. 0. 0.
 0. 0. 0. 0.
 0. 0. 0. 0.
 0. 0. 0. 0.
 0. 0. 0. 0.
 0. 0. 0. 0.
 0. 0. 0. 0.
 0. 0. 0. 0.
 0. 0. 0. 0.
 0. 0. 0. 0.
 0. 0. 0. 0.
 0. 0. 0. 0.
 0. 0. 0. 0.
 0. 0. 0. 0.
 0. 0. 0. 0.
 0. 0. 0. 0.
 0. 0. 0. 0.
 0. 0. 0. 0.
 0. 0. 0. 0.
 0. 0. 0. 0.
 0. 0. 0. 0.
 0. 0. 0. 0.
 0. 0. 0. 0.
 0. 0. 0. 0.
 0. 0. 0. 0.
 0. 0. 0. 0.
 0. 0. 0. 0.
 0. 0. 0. 0.
 0. 0. 0. 0.
 0. 0. 0. 0.
 0. 0. 0. 0.
 0. 0. 0. 0.
 0. 0. 0. 0.
 0. 0. 0. 0.
 0. 0. 0. 0.
 0. 0. 0. 0.
 0. 0. 0. 0.
 0. 0. 0. 0.
 0. 0. 0. 0.
 0. 0. 0. 0.
 0. 0. 0. 0.
 0. 0. 0. 0.
 0. 0. 0. 0.
 0. 0. 0. 0.
 0. 0. 0. 0.
 0. 0. 0. 0.
 0. 0. 0. 0.
 0. 0. 0. 0.
 0. 0. 0. 0.
 0. 0. 0. 0.
 0. 0. 0. 0.
 0. 0. 0. 0.
 0. 0. 0. 0.
 0. 0. 0. 0.
 0. 0. 0. 0.
 0. 0. 0. 0.
 0. 0. 0. 0.
 0. 0. 0. 0.
 0. 0. 0. 0.
 0. 0. 0. 0.
 0. 0. 0. 0.
 0. 0. 0. 0.
 0. 0. 0. 0.
 0. 0. 0. 0.
 0. 0. 0. 0.
 0. 0. 0. 0.
 0. 0. 0. 0.
 0. 0. 0. 0.
 0. 0. 0. 0.
 0. 0. 0. 0.
 0. 0. 0. 0.
 0. 0. 0. 0.
 0. 0. 0. 0.
 0. 0. 0. 0.
 0. 0. 0. 0.
 0. 0. 0. 0.
 0. 0. 0. 0.
 0. 0. 0. 0.
 0. 0. 0. 0.
 0. 0. 0. 0.
 0. 0. 0. 0.
 0. 0. 0. 0.
 0. 0. 0. 0.
 0. 0. 0. 0.
 0. 0. 0. 0.
 0. 0. 0. 0.
 0. 0. 0. 0.
 0. 0. 0. 0.
 0. 0. 0. 0.
 0. 0. 0. 0.
 0. 0. 0. 0.
 0. 0. 0. 0.
 0. 0. 0. 0.
 0. 0. 0. 0.
 0. 0. 0. 0.
 0. 0. 0. 0.
 0. 0. 0. 0.
 0. 0. 0. 0.
 0. 0. 0. 0.
 0. 0. 0. 0.
 0. 0. 0. 0.
 0. 0. 0. 0.
 0. 0. 0. 0.
 0. 0. 0. 0.
 0. 0. 0. 0.
 0. 0. 0. 0.
 0. 0. 0. 0.
 0. 0. 0. 0.
 0. 0. 0. 0.
 0. 0. 0. 0.
 0. 0. 0. 0.
 0. 0. 0. 0.
 0. 0. 0. 0.
 0. 0. 0. 0.
 0. 0. 0. 0.
 0. 0. 0. 0.
 0. 0.
   </PP_BETA.13>
   <PP_BETA.14
       type="real"
       size="1338"
       columns="4"
       index="14"
       angular_momentum="3"
       cutoff_radius_index=" 276"
       cutoff_radius="    2.7500000000E+00" >
    6.4126565196E-11   -4.8705709201E-08   -7.7865326634E-07   -3.9365538211E-06
   -1.2417692804E-05   -3.0242198872E-05   -6.2522056933E-05   -1.1541909969E-04
   -1.9609427634E-04   -3.1264855900E-04   -4.7405590690E-04   -6.9008876486E-04
   -9.7123662558E-04   -1.3286182347E-03   -1.7738880623E-03   -2.3191377068E-03
   -2.9767929299E-03   -3.7595070571E-03   -4.6800514992E-03   -5.7512041746E-03
   -6.9856366237E-03   -8.3958006199E-03   -9.9938150806E-03   -1.1791354084E-02
   -1.3799536784E-02   -1.6028820014E-02   -1.8488894325E-02   -2.1188584219E-02
   -2.4135753268E-02   -2.7337214801E-02   -3.0798648788E-02   -3.4524525516E-02
   -3.8518036591E-02   -4.2781033768E-02   -4.7313976016E-02   -5.2115885226E-02
   -5.7184310850E-02   -6.2515303720E-02   -6.8103399251E-02   -7.3941610119E-02
   -8.0021428481E-02   -8.6332837706E-02   -9.2864333543E-02   -9.9602954553E-02
   -1.0653432161E-01   -1.1364268614E-01   -1.2091098687E-01   -1.2832091447E-01
   -1.3585298384E-01   -1.4348661342E-01   -1.5120021098E-01   -1.5897126522E-01
   -1.6677644268E-01   -1.7459168908E-01   -1.8239233453E-01   -1.9015320177E-01
   -1.9784871674E-01   -2.0545302069E-01   -2.1294008294E-01   -2.2028381371E-01
   -2.2745817604E-01   -2.3443729611E-01   -2.4119557123E-01   -2.4770777471E-01
   -2.5394915685E-01   -2.5989554153E-01   -2.6552341757E-01   -2.7081002441E-01
   -2.7573343147E-01   -2.8027261067E-01   -2.8440750179E-01   -2.8811907012E-01
   -2.9138935616E-01   -2.9420151715E-01   -2.9653986009E-01   -2.9838986631E-01
   -2.9973820739E-01   -3.0057275243E-01   -3.0088256699E-01   -3.0065790346E-01
   -2.9989018349E-01   -2.9857197248E-01   -2.9669694662E-01   -2.9425985290E-01
   -2.9125646249E-01   -2.8768351815E-01   -2.8353867616E-01   -2.7882044344E-01
   -2.7352811056E-01   -2.6766168138E-01   -2.6122179999E-01   -2.5420967585E-01
   -2.4662700785E-01   -2.3847590814E-01   -2.2975882654E-01   -2.2047847644E-01
   -2.1063776284E-01   -2.0023971357E-01   -1.8928741429E-01   -1.7778394820E-01
   -1.6573234100E-01   -1.5313551209E-01   -1.3999623234E-01   -1.2631708934E-01
   -1.1210046042E-01   -9.7348494176E-02   -8.2063100687E-02   -6.6245951005E-02
   -4.9898486030E-02   -3.3021935059E-02   -1.5617344112E-02    2.3143859305E-03
    2.0772451417E-02    3.9756088371E-02    5.9264505520E-02    7.9296808205E-02
    9.9851913564E-02    1.2092845747E-01    1.4252469376E-01    1.6463838646E-01
    1.8726669561E-01    2.1040605760E-01    2.3405206078E-01    2.5819931737E-01
    2.8284133251E-01    3.0797037159E-01    3.3357732700E-01    3.5965158516E-01
    3.8618089535E-01    4.1315124115E-01    4.4054671594E-01    4.6834940355E-01
    4.9653926526E-01    5.2509403434E-01    5.5398911930E-01    5.8319751707E-01
    6.1268973702E-01    6.4243373711E-01    6.7239487299E-01    7.0253586118E-01
    7.3281675699E-01    7.6319494816E-01    7.9362516490E-01    8.2405950686E-01
    8.5444748766E-01    8.8473609742E-01    9.1486988346E-01    9.4479104959E-01
    9.7443957386E-01    1.0037533449E+00    1.0326683167E+00    1.0611186811E+00
    1.0890370589E+00    1.1163547067E+00    1.1430017418E+00    1.1689073816E+00
    1.1940001986E+00    1.2182083888E+00    1.2414600529E+00    1.2636834893E+00
    1.2848074967E+00    1.3047616855E+00    1.3234767967E+00    1.3408850260E+00
    1.3569203519E+00    1.3715188663E+00    1.3846191042E+00    1.3961623739E+00
    1.4060930818E+00    1.4143590532E+00    1.4209118457E+00    1.4257070530E+00
    1.4287045981E+00    1.4298690140E+00    1.4291697085E+00    1.4265812142E+00
    1.4220834186E+00    1.4156617754E+00    1.4073074940E+00    1.3970177058E+00
    1.3847956065E+00    1.3706505725E+00    1.3545982506E+00    1.3366606203E+00
    1.3168660265E+00    1.2952491835E+00    1.2718511488E+00    1.2467192667E+00
    1.2199070804E+00    1.1914742145E+00    1.1614862255E+00    1.1300144232E+00
    1.0971356606E+00    1.0629320958E+00    1.0274909242E+00    9.9090408326E-01
    9.5326793083E-01    9.1468289800E-01    8.7525311800E-01    8.3508603277E-01
    7.9429197894E-01    7.5298375511E-01    7.1127617224E-01    6.6928558953E-01
    6.2712943772E-01    5.8492573238E-01    5.4279257940E-01    5.0084767514E-01
    4.5920780397E-01    4.1798833543E-01    3.7730272394E-01    3.3726201337E-01
    2.9797434932E-01    2.5954450153E-01    2.2207339903E-01    1.8565768059E-01
    1.5038926290E-01    1.1635492879E-01    8.3635937887E-02    5.2307661893E-02
    2.2439246437E-02   -5.9066983864E-03   -3.2674377101E-02   -5.7815055847E-02
   -8.1287275827E-02   -1.0305703185E-01   -1.2309791485E-01   -1.4139121745E-01
   -1.5792600177E-01   -1.7269912897E-01   -1.8571525011E-01   -1.9698675830E-01
   -2.0653370209E-01   -2.1438366048E-01   -2.2057157998E-01   -2.2513957452E-01
   -2.2813668891E-01   -2.2961862732E-01   -2.2964744777E-01   -2.2829122428E-01
   -2.2562367844E-01   -2.2172378214E-01   -2.1667533358E-01   -2.1056650878E-01
   -2.0348939083E-01   -1.9553947952E-01   -1.8681518373E-01   -1.7741729947E-01
   -1.6744847632E-01   -1.5701267499E-01   -1.4621461914E-01   -1.3515921475E-01
   -1.2395116578E-01   -1.1269413027E-01   -1.0149022019E-01   -9.0439860331E-02
   -7.9645980165E-02   -6.9222871917E-02   -5.9266717537E-02   -4.9853694234E-02
   -4.1060351173E-02   -3.2958781816E-02   -2.5616499736E-02   -1.9096221775E-02
   -1.3455529516E-02   -8.7499704950E-03   -5.0096788081E-03   -2.2859359823E-03
   -7.0097980772E-04   -7.3203978053E-05    3.1504317563E-05   -1.0332595867E-05
   -6.4288744437E-06    2.2064442154E-06    3.9923431583E-08    1.4302042219E-07
 0. 0. 0. 0.
 0. 0. 0. 0.
 0. 0. 0. 0.
 0. 0. 0. 0.
 0. 0. 0. 0.
 0. 0. 0. 0.
 0. 0. 0. 0.
 0. 0. 0. 0.
 0. 0. 0. 0.
 0. 0. 0. 0.
 0. 0. 0. 0.
 0. 0. 0. 0.
 0. 0. 0. 0.
 0. 0. 0. 0.
 0. 0. 0. 0.
 0. 0. 0. 0.
 0. 0. 0. 0.
 0. 0. 0. 0.
 0. 0. 0. 0.
 0. 0. 0. 0.
 0. 0. 0. 0.
 0. 0. 0. 0.
 0. 0. 0. 0.
 0. 0. 0. 0.
 0. 0. 0. 0.
 0. 0. 0. 0.
 0. 0. 0. 0.
 0. 0. 0. 0.
 0. 0. 0. 0.
 0. 0. 0. 0.
 0. 0. 0. 0.
 0. 0. 0. 0.
 0. 0. 0. 0.
 0. 0. 0. 0.
 0. 0. 0. 0.
 0. 0. 0. 0.
 0. 0. 0. 0.
 0. 0. 0. 0.
 0. 0. 0. 0.
 0. 0. 0. 0.
 0. 0. 0. 0.
 0. 0. 0. 0.
 0. 0. 0. 0.
 0. 0. 0. 0.
 0. 0. 0. 0.
 0. 0. 0. 0.
 0. 0. 0. 0.
 0. 0. 0. 0.
 0. 0. 0. 0.
 0. 0. 0. 0.
 0. 0. 0. 0.
 0. 0. 0. 0.
 0. 0. 0. 0.
 0. 0. 0. 0.
 0. 0. 0. 0.
 0. 0. 0. 0.
 0. 0. 0. 0.
 0. 0. 0. 0.
 0. 0. 0. 0.
 0. 0. 0. 0.
 0. 0. 0. 0.
 0. 0. 0. 0.
 0. 0. 0. 0.
 0. 0. 0. 0.
 0. 0. 0. 0.
 0. 0. 0. 0.
 0. 0. 0. 0.
 0. 0. 0. 0.
 0. 0. 0. 0.
 0. 0. 0. 0.
 0. 0. 0. 0.
 0. 0. 0. 0.
 0. 0. 0. 0.
 0. 0. 0. 0.
 0. 0. 0. 0.
 0. 0. 0. 0.
 0. 0. 0. 0.
 0. 0. 0. 0.
 0. 0. 0. 0.
 0. 0. 0. 0.
 0. 0. 0. 0.
 0. 0. 0. 0.
 0. 0. 0. 0.
 0. 0. 0. 0.
 0. 0. 0. 0.
 0. 0. 0. 0.
 0. 0. 0. 0.
 0. 0. 0. 0.
 0. 0. 0. 0.
 0. 0. 0. 0.
 0. 0. 0. 0.
 0. 0. 0. 0.
 0. 0. 0. 0.
 0. 0. 0. 0.
 0. 0. 0. 0.
 0. 0. 0. 0.
 0. 0. 0. 0.
 0. 0. 0. 0.
 0. 0. 0. 0.
 0. 0. 0. 0.
 0. 0. 0. 0.
 0. 0. 0. 0.
 0. 0. 0. 0.
 0. 0. 0. 0.
 0. 0. 0. 0.
 0. 0. 0. 0.
 0. 0. 0. 0.
 0. 0. 0. 0.
 0. 0. 0. 0.
 0. 0. 0. 0.
 0. 0. 0. 0.
 0. 0. 0. 0.
 0. 0. 0. 0.
 0. 0. 0. 0.
 0. 0. 0. 0.
 0. 0. 0. 0.
 0. 0. 0. 0.
 0. 0. 0. 0.
 0. 0. 0. 0.
 0. 0. 0. 0.
 0. 0. 0. 0.
 0. 0. 0. 0.
 0. 0. 0. 0.
 0. 0. 0. 0.
 0. 0. 0. 0.
 0. 0. 0. 0.
 0. 0. 0. 0.
 0. 0. 0. 0.
 0. 0. 0. 0.
 0. 0. 0. 0.
 0. 0. 0. 0.
 0. 0. 0. 0.
 0. 0. 0. 0.
 0. 0. 0. 0.
 0. 0. 0. 0.
 0. 0. 0. 0.
 0. 0. 0. 0.
 0. 0. 0. 0.
 0. 0. 0. 0.
 0. 0. 0. 0.
 0. 0. 0. 0.
 0. 0. 0. 0.
 0. 0. 0. 0.
 0. 0. 0. 0.
 0. 0. 0. 0.
 0. 0. 0. 0.
 0. 0. 0. 0.
 0. 0. 0. 0.
 0. 0. 0. 0.
 0. 0. 0. 0.
 0. 0. 0. 0.
 0. 0. 0. 0.
 0. 0. 0. 0.
 0. 0. 0. 0.
 0. 0. 0. 0.
 0. 0. 0. 0.
 0. 0. 0. 0.
 0. 0. 0. 0.
 0. 0. 0. 0.
 0. 0. 0. 0.
 0. 0. 0. 0.
 0. 0. 0. 0.
 0. 0. 0. 0.
 0. 0. 0. 0.
 0. 0. 0. 0.
 0. 0. 0. 0.
 0. 0. 0. 0.
 0. 0. 0. 0.
 0. 0. 0. 0.
 0. 0. 0. 0.
 0. 0. 0. 0.
 0. 0. 0. 0.
 0. 0. 0. 0.
 0. 0. 0. 0.
 0. 0. 0. 0.
 0. 0. 0. 0.
 0. 0. 0. 0.
 0. 0. 0. 0.
 0. 0. 0. 0.
 0. 0. 0. 0.
 0. 0. 0. 0.
 0. 0. 0. 0.
 0. 0. 0. 0.
 0. 0. 0. 0.
 0. 0. 0. 0.
 0. 0. 0. 0.
 0. 0. 0. 0.
 0. 0. 0. 0.
 0. 0. 0. 0.
 0. 0. 0. 0.
 0. 0. 0. 0.
 0. 0. 0. 0.
 0. 0. 0. 0.
 0. 0. 0. 0.
 0. 0. 0. 0.
 0. 0. 0. 0.
 0. 0. 0. 0.
 0. 0. 0. 0.
 0. 0. 0. 0.
 0. 0. 0. 0.
 0. 0. 0. 0.
 0. 0. 0. 0.
 0. 0. 0. 0.
 0. 0. 0. 0.
 0. 0. 0. 0.
 0. 0. 0. 0.
 0. 0. 0. 0.
 0. 0. 0. 0.
 0. 0. 0. 0.
 0. 0. 0. 0.
 0. 0. 0. 0.
 0. 0. 0. 0.
 0. 0. 0. 0.
 0. 0. 0. 0.
 0. 0. 0. 0.
 0. 0. 0. 0.
 0. 0. 0. 0.
 0. 0. 0. 0.
 0. 0. 0. 0.
 0. 0. 0. 0.
 0. 0. 0. 0.
 0. 0. 0. 0.
 0. 0. 0. 0.
 0. 0. 0. 0.
 0. 0. 0. 0.
 0. 0. 0. 0.
 0. 0. 0. 0.
 0. 0. 0. 0.
 0. 0. 0. 0.
 0. 0. 0. 0.
 0. 0. 0. 0.
 0. 0. 0. 0.
 0. 0. 0. 0.
 0. 0. 0. 0.
 0. 0. 0. 0.
 0. 0. 0. 0.
 0. 0. 0. 0.
 0. 0. 0. 0.
 0. 0. 0. 0.
 0. 0. 0. 0.
 0. 0. 0. 0.
 0. 0. 0. 0.
 0. 0. 0. 0.
 0. 0. 0. 0.
 0. 0. 0. 0.
 0. 0. 0. 0.
 0. 0. 0. 0.
 0. 0. 0. 0.
 0. 0. 0. 0.
 0. 0. 0. 0.
 0. 0. 0. 0.
 0. 0. 0. 0.
 0. 0. 0. 0.
 0. 0. 0. 0.
 0. 0. 0. 0.
 0. 0. 0. 0.
 0. 0. 0. 0.
 0. 0. 0. 0.
 0. 0. 0. 0.
 0. 0. 0. 0.
 0. 0. 0. 0.
 0. 0. 0. 0.
 0. 0. 0. 0.
 0. 0. 0. 0.
 0. 0. 0. 0.
 0. 0.
   </PP_BETA.14>
   <PP_DIJ type="real"  size=" 196" columns="4">
   -5.4438592967E+00    0.0000000000E+00    0.0000000000E+00    0.0000000000E+00
    0.0000000000E+00    0.0000000000E+00    0.0000000000E+00    0.0000000000E+00
    0.0000000000E+00    0.0000000000E+00    0.0000000000E+00    0.0000000000E+00
    0.0000000000E+00    0.0000000000E+00    0.0000000000E+00   -4.2675187024E-01
    0.0000000000E+00    0.0000000000E+00    0.0000000000E+00    0.0000000000E+00
    0.0000000000E+00    0.0000000000E+00    0.0000000000E+00    0.0000000000E+00
    0.0000000000E+00    0.0000000000E+00    0.0000000000E+00    0.0000000000E+00
    0.0000000000E+00    0.0000000000E+00   -6.4739521797E+00    0.0000000000E+00
    0.0000000000E+00    0.0000000000E+00    0.0000000000E+00    0.0000000000E+00
    0.0000000000E+00    0.0000000000E+00    0.0000000000E+00    0.0000000000E+00
    0.0000000000E+00    0.0000000000E+00    0.0000000000E+00    0.0000000000E+00
    0.0000000000E+00   -5.0994595273E+00    0.0000000000E+00    0.0000000000E+00
    0.0000000000E+00    0.0000000000E+00    0.0000000000E+00    0.0000000000E+00
    0.0000000000E+00    0.0000000000E+00    0.0000000000E+00    0.0000000000E+00
    0.0000000000E+00    0.0000000000E+00    0.0000000000E+00    0.0000000000E+00
   -1.5264825111E+00    0.0000000000E+00    0.0000000000E+00    0.0000000000E+00
    0.0000000000E+00    0.0000000000E+00    0.0000000000E+00    0.0000000000E+00
    0.0000000000E+00    0.0000000000E+00    0.0000000000E+00    0.0000000000E+00
    0.0000000000E+00    0.0000000000E+00    0.0000000000E+00   -9.2341985729E-01
    0.0000000000E+00    0.0000000000E+00    0.0000000000E+00    0.0000000000E+00
    0.0000000000E+00    0.0000000000E+00    0.0000000000E+00    0.0000000000E+00
    0.0000000000E+00    0.0000000000E+00    0.0000000000E+00    0.0000000000E+00
    0.0000000000E+00    0.0000000000E+00   -4.8664892233E+00    0.0000000000E+00
    0.0000000000E+00    0.0000000000E+00    0.0000000000E+00    0.0000000000E+00
    0.0000000000E+00    0.0000000000E+00    0.0000000000E+00    0.0000000000E+00
    0.0000000000E+00    0.0000000000E+00    0.0000000000E+00    0.0000000000E+00
    0.0000000000E+00   -4.5855098039E+00    0.0000000000E+00    0.0000000000E+00
    0.0000000000E+00    0.0000000000E+00    0.0000000000E+00    0.0000000000E+00
    0.0000000000E+00    0.0000000000E+00    0.0000000000E+00    0.0000000000E+00
    0.0000000000E+00    0.0000000000E+00    0.0000000000E+00    0.0000000000E+00
   -1.2711274513E+00    0.0000000000E+00    0.0000000000E+00    0.0000000000E+00
    0.0000000000E+00    0.0000000000E+00    0.0000000000E+00    0.0000000000E+00
    0.0000000000E+00    0.0000000000E+00    0.0000000000E+00    0.0000000000E+00
    0.0000000000E+00    0.0000000000E+00    0.0000000000E+00   -1.1565250930E+00
    0.0000000000E+00    0.0000000000E+00    0.0000000000E+00    0.0000000000E+00
    0.0000000000E+00    0.0000000000E+00    0.0000000000E+00    0.0000000000E+00
    0.0000000000E+00    0.0000000000E+00    0.0000000000E+00    0.0000000000E+00
    0.0000000000E+00    0.0000000000E+00   -3.8891788209E+00    0.0000000000E+00
    0.0000000000E+00    0.0000000000E+00    0.0000000000E+00    0.0000000000E+00
    0.0000000000E+00    0.0000000000E+00    0.0000000000E+00    0.0000000000E+00
    0.0000000000E+00    0.0000000000E+00    0.0000000000E+00    0.0000000000E+00
    0.0000000000E+00   -3.8137561112E+00    0.0000000000E+00    0.0000000000E+00
    0.0000000000E+00    0.0000000000E+00    0.0000000000E+00    0.0000000000E+00
    0.0000000000E+00    0.0000000000E+00    0.0000000000E+00    0.0000000000E+00
    0.0000000000E+00    0.0000000000E+00    0.0000000000E+00    0.0000000000E+00
   -7.4171109622E-01    0.0000000000E+00    0.0000000000E+00    0.0000000000E+00
    0.0000000000E+00    0.0000000000E+00    0.0000000000E+00    0.0000000000E+00
    0.0000000000E+00    0.0000000000E+00    0.0000000000E+00    0.0000000000E+00
    0.0000000000E+00    0.0000000000E+00    0.0000000000E+00   -7.3019322516E-01
   </PP_DIJ>
 </PP_NONLOCAL>
 <PP_PSWFC>
   <PP_CHI.1
       type="real"
       size="1338"
       columns="4"
       index="1"
       occupation=" 2.000"
       pseudo_energy="   -0.6713028574E+01"
       label="5S"
       l="0" >
   -3.8868908092E-13    2.1528853565E-02    4.3047109493E-02    6.4544178887E-02
    8.6009490329E-02    1.0743249859E-01    1.2880269332E-01    1.5010960769E-01
    1.7134282697E-01    1.9249199710E-01    2.1354683312E-01    2.3449712760E-01
    2.5533275890E-01    2.7604369941E-01    2.9662002362E-01    3.1705191613E-01
    3.3732967949E-01    3.5744374196E-01    3.7738466505E-01    3.9714315098E-01
    4.1671004998E-01    4.3607636739E-01    4.5523327057E-01    4.7417209572E-01
    4.9288435443E-01    5.1136174002E-01    5.2959613381E-01    5.4757961100E-01
    5.6530444647E-01    5.8276312035E-01    5.9994832326E-01    6.1685296147E-01
    6.3347016172E-01    6.4979327582E-01    6.6581588503E-01    6.8153180421E-01
    6.9693508564E-01    7.1202002267E-01    7.2678115307E-01    7.4121326216E-01
    7.5531138560E-01    7.6907081200E-01    7.8248708522E-01    7.9555600644E-01
    8.0827363590E-01    8.2063629445E-01    8.3264056475E-01    8.4428329232E-01
    8.5556158617E-01    8.6647281929E-01    8.7701462886E-01    8.8718491609E-01
    8.9698184595E-01    9.0640384655E-01    9.1544960825E-01    9.2411808260E-01
    9.3240848097E-01    9.4032027292E-01    9.4785318435E-01    9.5500719547E-01
    9.6178253840E-01    9.6817969468E-01    9.7419939246E-01    9.7984260353E-01
    9.8511054007E-01    9.9000465127E-01    9.9452661971E-01    9.9867835750E-01
    1.0024620023E+00    1.0058799131E+00    1.0089346660E+00    1.0116290493E+00
    1.0139660591E+00    1.0159488946E+00    1.0175809525E+00    1.0188658224E+00
    1.0198072813E+00    1.0204092880E+00    1.0206759779E+00    1.0206116571E+00
    1.0202207969E+00    1.0195080274E+00    1.0184781324E+00    1.0171360426E+00
    1.0154868299E+00    1.0135357011E+00    1.0112879918E+00    1.0087491600E+00
    1.0059247801E+00    1.0028205360E+00    9.9944221515E-01    9.9579570221E-01
    9.9188697239E-01    9.8772208521E-01    9.8330717808E-01    9.7864845991E-01
    9.7375220479E-01    9.6862474560E-01    9.6327246776E-01    9.5770180293E-01
    9.5191922286E-01    9.4593123316E-01    9.3974436728E-01    9.3336518043E-01
    9.2680024365E-01    9.2005613793E-01    9.1313944841E-01    9.0605675870E-01
    8.9881464527E-01    8.9141967195E-01    8.8387838451E-01    8.7619730541E-01
    8.6838292861E-01    8.6044171452E-01    8.5238008506E-01    8.4420441889E-01
    8.3592104672E-01    8.2753624678E-01    8.1905624041E-01    8.1048718782E-01
    8.0183518397E-01    7.9310625460E-01    7.8430635241E-01    7.7544135337E-01
    7.6651705324E-01    7.5753916416E-01    7.4851331145E-01    7.3944503057E-01
    7.3033976420E-01    7.2120285948E-01    7.1203956545E-01    7.0285503060E-01
    6.9365430058E-01    6.8444231612E-01    6.7522391102E-01    6.6600381038E-01
    6.5678662890E-01    6.4757686944E-01    6.3837892162E-01    6.2919706063E-01
    6.2003544620E-01    6.1089812168E-01    6.0178901327E-01    5.9271192944E-01
    5.8367056040E-01    5.7466847783E-01    5.6570913461E-01    5.5679586479E-01
    5.4793188363E-01    5.3912028779E-01    5.3036405566E-01    5.2166604774E-01
    5.1302900724E-01    5.0445556070E-01    4.9594821878E-01    4.8750937711E-01
    4.7914131731E-01    4.7084620802E-01    4.6262610611E-01    4.5448295790E-01
    4.4641860057E-01    4.3843476353E-01    4.3053306999E-01    4.2271503849E-01
    4.1498208461E-01    4.0733552268E-01    3.9977656756E-01    3.9230633652E-01
    3.8492585110E-01    3.7763603913E-01    3.7043773666E-01    3.6333169008E-01
    3.5631855817E-01    3.4939891424E-01    3.4257324828E-01    3.3584196915E-01
    3.2920540677E-01    3.2266381439E-01    3.1621737082E-01    3.0986618269E-01
    3.0361028673E-01    2.9744965203E-01    2.9138418237E-01    2.8541371847E-01
    2.7953804027E-01    2.7375686924E-01    2.6806987064E-01    2.6247665574E-01
    2.5697678413E-01    2.5156976590E-01    2.4625506388E-01    2.4103209580E-01
    2.3590023648E-01    2.3085881997E-01    2.2590714165E-01    2.2104446029E-01
    2.1627000017E-01    2.1158295301E-01    2.0698248001E-01    2.0246771378E-01
    1.9803776023E-01    1.9369170047E-01    1.8942859258E-01    1.8524747346E-01
    1.8114736053E-01    1.7712725343E-01    1.7318613566E-01    1.6932297625E-01
    1.6553673122E-01    1.6182634519E-01    1.5819075278E-01    1.5462888006E-01
    1.5113964591E-01    1.4772196337E-01    1.4437474086E-01    1.4109688348E-01
    1.3788729413E-01    1.3474487469E-01    1.3166852706E-01    1.2865715424E-01
    1.2570966130E-01    1.2282495633E-01    1.2000195134E-01    1.1723956312E-01
    1.1453671406E-01    1.1189233290E-01    1.0930535544E-01    1.0677472528E-01
    1.0429939441E-01    1.0187832380E-01    9.9510484033E-02    9.7194855739E-02
    9.4930430139E-02    9.2716209470E-02    9.0551207401E-02    8.8434449409E-02
    8.6364973120E-02    8.4341828624E-02    8.2364078752E-02    8.0430799323E-02
    7.8541079363E-02    7.6694021297E-02    7.4888741112E-02    7.3124368492E-02
    7.1400046927E-02    6.9714933808E-02    6.8068200482E-02    6.6459032298E-02
    6.4886628629E-02    6.3350202868E-02    6.1848982411E-02    6.0382208619E-02
    5.8949136764E-02    5.7549035956E-02    5.6181189056E-02    5.4844892573E-02
    5.3539456552E-02    5.2264204454E-02    5.1018473044E-02    4.9801612248E-02
    4.8612984988E-02    4.7451966969E-02    4.6317946462E-02    4.5210324117E-02
    4.4128512737E-02    4.3071937055E-02    4.2040033513E-02    4.1032250011E-02
    4.0048045681E-02    3.9086890624E-02    3.8148265733E-02    3.7231662552E-02
    3.6336583263E-02    3.5462540606E-02    3.4609057691E-02    3.3775667782E-02
    3.2961914052E-02    3.2167349442E-02    3.1391536488E-02    3.0634047120E-02
    2.9894462494E-02    2.9172372807E-02    2.8467377130E-02    2.7779083234E-02
    2.7107107420E-02    2.6451074351E-02    2.5810616894E-02    2.5185375948E-02
    2.4575000294E-02    2.3979146431E-02    2.3397478429E-02    2.2829667767E-02
    2.2275393193E-02    2.1734340571E-02    2.1206202737E-02    2.0690679360E-02
    2.0187476795E-02    1.9696307955E-02    1.9216892166E-02    1.8748955040E-02
    1.8292228344E-02    1.7846449868E-02    1.7411363304E-02    1.6986718118E-02
    1.6572269430E-02    1.6167777894E-02    1.5773009584E-02    1.5387735874E-02
    1.5011733327E-02    1.4644783588E-02    1.4286673268E-02    1.3937193843E-02
    1.3596141549E-02    1.3263317276E-02    1.2938526469E-02    1.2621579032E-02
    1.2312289226E-02    1.2010475580E-02    1.1715960793E-02    1.1428571644E-02
    1.1148138904E-02    1.0874497247E-02    1.0607485168E-02    1.0346944890E-02
    1.0092722292E-02    9.8446668209E-03    9.6026314146E-03    9.3664724255E-03
    9.1360495434E-03    8.9112257212E-03    8.6918671025E-03    8.4778429497E-03
    8.2690254045E-03    8.0652899177E-03    7.8665165738E-03    7.6725844228E-03
    7.4833679662E-03    7.2987631007E-03    7.1186972575E-03    6.9430747887E-03
    6.7717542527E-03    6.6046063893E-03    6.4415376393E-03    6.2824568636E-03
    6.1272658093E-03    5.9758697272E-03    5.8281775044E-03    5.6840997875E-03
    5.5435493355E-03    5.4064409715E-03    5.2726915352E-03    5.1422198368E-03
    5.0149466113E-03    4.8907944743E-03    4.7696878788E-03    4.6515530726E-03
    4.5363180571E-03    4.4239125461E-03    4.3142679271E-03    4.2073172216E-03
    4.1029950478E-03    4.0012375832E-03    3.9019825283E-03    3.8051690717E-03
    3.7107378547E-03    3.6186309380E-03    3.5287917682E-03    3.4411651456E-03
    3.3556971928E-03    3.2723353233E-03    3.1910282116E-03    3.1117257634E-03
    3.0343790871E-03    2.9589404651E-03    2.8853633267E-03    2.8136022208E-03
    2.7436127896E-03    2.6753517429E-03    2.6087768330E-03    2.5438468302E-03
    2.4805214985E-03    2.4187615721E-03    2.3585287331E-03    2.2997855882E-03
    2.2424956475E-03    2.1866233027E-03    2.1321338064E-03    2.0789932516E-03
    2.0271685518E-03    1.9766274216E-03    1.9273383574E-03    1.8792706192E-03
    1.8323942118E-03    1.7866798679E-03    1.7420990301E-03    1.6986238342E-03
    1.6562270927E-03    1.6148822787E-03    1.5745635099E-03    1.5352455333E-03
    1.4969037104E-03    1.4595140020E-03    1.4230529545E-03    1.3874976851E-03
    1.3528258687E-03    1.3190157245E-03    1.2860460025E-03    1.2538959714E-03
    1.2225454055E-03    1.1919745730E-03    1.1621642238E-03    1.1330955784E-03
    1.1047503158E-03    1.0771105634E-03    1.0501588854E-03    1.0238782725E-03
    9.9825213205E-04    9.7326427730E-04    9.4889891809E-04    9.2514065109E-04
    9.0197445049E-04    8.7938565884E-04    8.5735997819E-04    8.3588346134E-04
    8.1494250338E-04    7.9452383340E-04    7.7461450638E-04    7.5520189528E-04
    7.3627368337E-04    7.1781785665E-04    6.9982269654E-04    6.8227677267E-04
    6.6516893592E-04    6.4848831154E-04    6.3222429252E-04    6.1636653301E-04
    6.0090494206E-04    5.8582967733E-04    5.7113113907E-04    5.5679996421E-04
    5.4282702057E-04    5.2920340127E-04    5.1592041918E-04    5.0296960159E-04
    4.9034268498E-04    4.7803160989E-04    4.6602851592E-04    4.5432573694E-04
    4.4291579622E-04    4.3179140192E-04    4.2094544247E-04    4.1037098221E-04
    4.0006125707E-04    3.9000967035E-04    3.8020978865E-04    3.7065533783E-04
    3.6134019915E-04    3.5225840539E-04    3.4340413722E-04    3.3477171948E-04
    3.2635561771E-04    3.1815043466E-04    3.1015090691E-04    3.0235190162E-04
    2.9474841327E-04    2.8733556056E-04    2.8010858335E-04    2.7306283968E-04
    2.6619380284E-04    2.5949705855E-04    2.5296830220E-04    2.4660333612E-04
    2.4039806697E-04    2.3434850314E-04    2.2845075227E-04    2.2270101879E-04
    2.1709560152E-04    2.1163089137E-04    2.0630336903E-04    2.0110960277E-04
    1.9604624627E-04    1.9111003655E-04    1.8629779183E-04    1.8160640959E-04
    1.7703286460E-04    1.7257420697E-04    1.6822756033E-04    1.6399011997E-04
    1.5985915113E-04    1.5583198717E-04    1.5190602799E-04    1.4807873831E-04
    1.4434764607E-04    1.4071034090E-04    1.3716447256E-04    1.3370774945E-04
    1.3033793717E-04    1.2705285709E-04    1.2385038498E-04    1.2072844964E-04
    1.1768503158E-04    1.1471816178E-04    1.1182592038E-04    1.0900643550E-04
    1.0625788202E-04    1.0357848044E-04    1.0096649573E-04    9.8420236232E-05
    9.5938052590E-05    9.3518336677E-05    9.1159520584E-05    8.8860075617E-05
    8.6618511321E-05    8.4433374525E-05    8.2303248419E-05    8.0226751644E-05
    7.8202537414E-05    7.6229292648E-05    7.4305737138E-05    7.2430622724E-05
    7.0602732500E-05    6.8820880029E-05    6.7083908590E-05    6.5390690434E-05
    6.3740126061E-05    6.2131143514E-05    6.0562697698E-05    5.9033769703E-05
    5.7543366153E-05    5.6090518572E-05    5.4674282756E-05    5.3293738173E-05
    5.1947987370E-05    5.0636155392E-05    4.9357389231E-05    4.8110857265E-05
    4.6895748732E-05    4.5711273209E-05    4.4556660097E-05    4.3431158132E-05
    4.2334034901E-05    4.1264576365E-05    4.0222086409E-05    3.9205886383E-05
    3.8215314676E-05    3.7249726281E-05    3.6308492385E-05    3.5390999961E-05
    3.4496651374E-05    3.3624863997E-05    3.2775069833E-05    3.1946715151E-05
    3.1139260126E-05    3.0352178495E-05    2.9584957213E-05    2.8837096125E-05
    2.8108107643E-05    2.7397516429E-05    2.6704859090E-05    2.6029683879E-05
    2.5371550401E-05    2.4730029332E-05    2.4104702136E-05    2.3495160803E-05
    2.2901007577E-05    2.2321854702E-05    2.1757324172E-05    2.1207047489E-05
    2.0670665416E-05    2.0147827755E-05    1.9638193114E-05    1.9141428687E-05
    1.8657210040E-05    1.8185220900E-05    1.7725152952E-05    1.7276705635E-05
    1.6839585952E-05    1.6413508280E-05    1.5998194180E-05    1.5593372222E-05
    1.5198777806E-05    1.4814152993E-05    1.4439246336E-05    1.4073812715E-05
    1.3717613184E-05    1.3370414810E-05    1.3031990524E-05    1.2702118977E-05
    1.2380584390E-05    1.2067176419E-05    1.1761690016E-05    1.1463925300E-05
    1.1173687419E-05    1.0890786433E-05    1.0615037184E-05    1.0346259177E-05
    1.0084276468E-05    9.8289175400E-06    9.5800152011E-06    9.3374064700E-06
    9.1009324726E-06    8.8704383376E-06    8.6457730966E-06    8.4267895856E-06
    8.2133443493E-06    8.0052975481E-06    7.8025128667E-06    7.6048574260E-06
    7.4122016962E-06    7.2244194129E-06    7.0413874947E-06    6.8629859631E-06
    6.6890978647E-06    6.5196091948E-06    6.3544088234E-06    6.1933884226E-06
    6.0364423964E-06    5.8834678119E-06    5.7343643319E-06    5.5890341498E-06
    5.4473819263E-06    5.3093147264E-06    5.1747419598E-06    5.0435753212E-06
    4.9157287330E-06    4.7911182894E-06    4.6696622013E-06    4.5512807435E-06
    4.4358962021E-06    4.3234328244E-06    4.2138167693E-06    4.1069760590E-06
    4.0028405324E-06    3.9013417990E-06    3.8024131944E-06    3.7059897370E-06
    3.6120080854E-06    3.5204064970E-06    3.4311247878E-06    3.3441042935E-06
    3.2592878306E-06    3.1766196593E-06    3.0960454473E-06    3.0175122341E-06
    2.9409683965E-06    2.8663636151E-06    2.7936488409E-06    2.7227762638E-06
    2.6536992813E-06    2.5863724677E-06    2.5207515447E-06    2.4567933525E-06
    2.3944558215E-06    2.3336979448E-06    2.2744797514E-06    2.2167622802E-06
    2.1605075546E-06    2.1056785570E-06    2.0522392056E-06    2.0001543302E-06
    1.9493896491E-06    1.8999117472E-06    1.8516880537E-06    1.8046868210E-06
    1.7588771037E-06    1.7142287388E-06    1.6707123255E-06    1.6282992062E-06
    1.5869614478E-06    1.5466718232E-06    1.5074037937E-06    1.4691314915E-06
    1.4318297027E-06    1.3954738509E-06    1.3600399814E-06    1.3255047449E-06
    1.2918453825E-06    1.2590397110E-06    1.2270661081E-06    1.1959034984E-06
    1.1655313395E-06    1.1359296083E-06    1.1070787885E-06    1.0789598573E-06
    1.0515542731E-06    1.0248439633E-06    9.9881131246E-07    9.7343915094E-07
    9.4871074333E-07    9.2460977766E-07    9.0112035472E-07    8.7822697757E-07
    8.5591454140E-07    8.3416832361E-07    8.1297397418E-07    7.9231750626E-07
    7.7218528694E-07    7.5256402835E-07    7.3344077895E-07    7.1480291503E-07
    6.9663813238E-07    6.7893443826E-07    6.6168014349E-07    6.4486385486E-07
    6.2847446754E-07    6.1250115786E-07    5.9693337618E-07    5.8176083998E-07
    5.6697352709E-07    5.5256166911E-07    5.3851574498E-07    5.2482647478E-07
    5.1148481359E-07    4.9848194553E-07    4.8580927801E-07    4.7345843606E-07
    4.6142125685E-07    4.4968978429E-07    4.3825626383E-07    4.2711313735E-07
    4.1625303819E-07    4.0566878632E-07    3.9535338362E-07    3.8530000922E-07
    3.7550201513E-07    3.6595292178E-07    3.5664641375E-07    3.4757633568E-07
    3.3873668817E-07    3.3012162388E-07    3.2172544363E-07    3.1354259268E-07
    3.0556765705E-07    2.9779536001E-07    2.9022055857E-07    2.8283824009E-07
    2.7564351897E-07    2.6863163349E-07    2.6179794263E-07    2.5513792301E-07
    2.4864716592E-07    2.4232137446E-07    2.3615636063E-07    2.3014804264E-07
    2.2429244220E-07    2.1858568185E-07    2.1302398253E-07    2.0760366094E-07
    2.0232112723E-07    1.9717288255E-07    1.9215551683E-07    1.8726570646E-07
    1.8250021213E-07    1.7785587669E-07    1.7332962308E-07    1.6891845227E-07
    1.6461944135E-07    1.6042974150E-07    1.5634657621E-07    1.5236723940E-07
    1.4848909364E-07    1.4470956842E-07    1.4102615843E-07    1.3743642196E-07
    1.3393797923E-07    1.3052851086E-07    1.2720575631E-07    1.2396751243E-07
    1.2081163196E-07    1.1773602213E-07    1.1473864332E-07    1.1181750762E-07
    1.0897067761E-07    1.0619626506E-07    1.0349242962E-07    1.0085737770E-07
    9.8289361214E-08    9.5786676459E-08    9.3347662986E-08    9.0970702498E-08
    8.8654217781E-08    8.6396671660E-08    8.4196565996E-08    8.2052440689E-08
    7.9962872710E-08    7.7926475161E-08    7.5941896360E-08    7.4007818959E-08
    7.2122959056E-08    7.0286065357E-08    6.8495918343E-08    6.6751329467E-08
    6.5051140375E-08    6.3394222129E-08    6.1779474468E-08    6.0205825070E-08
    5.8672228861E-08    5.7177667311E-08    5.5721147762E-08    5.4301702776E-08
    5.2918389484E-08    5.1570288980E-08    5.0256505701E-08    4.8976166838E-08
    4.7728421756E-08    4.6512441429E-08    4.5327417904E-08    4.4172563757E-08
    4.3047111569E-08    4.1950313422E-08    4.0881440405E-08    3.9839782135E-08
    3.8824646278E-08    3.7835358098E-08    3.6871260003E-08    3.5931711118E-08
    3.5016086858E-08    3.4123778512E-08    3.3254192840E-08    3.2406751683E-08
    3.1580891577E-08    3.0776063385E-08    2.9991731928E-08    2.9227375631E-08
    2.8482486179E-08    2.7756568180E-08    2.7049138840E-08    2.6359727637E-08
    2.5687876013E-08    2.5033137069E-08    2.4395075269E-08    2.3773266154E-08
    2.3167296056E-08    2.2576761828E-08    2.2001270571E-08    2.1440439382E-08
    2.0893895095E-08    2.0361274034E-08    1.9842221771E-08    1.9336392892E-08
    1.8843450769E-08    1.8363067339E-08    1.7894922879E-08    1.7438705800E-08
    1.6994112439E-08    1.6560846857E-08    1.6138620645E-08    1.5727152728E-08
    1.5326169184E-08    1.4935403055E-08    1.4554594180E-08    1.4183489015E-08
    1.3821840466E-08    1.3469407727E-08    1.3125956115E-08    1.2791256922E-08
    1.2465087261E-08    1.2147229912E-08    1.1837473184E-08    1.1535610775E-08
    1.1241441628E-08    1.0954769807E-08    1.0675404362E-08    1.0403159199E-08
    1.0137852963E-08    9.8793089132E-09    9.6273548074E-09    9.3818227879E-09
    9.1425492687E-09    8.9093748273E-09    8.6821440980E-09    8.4607056723E-09
    8.2449119945E-09    8.0346192648E-09    7.8296873439E-09    7.6299796591E-09
    7.4353631160E-09    7.2457080081E-09    7.0608879307E-09    6.8807796970E-09
    6.7052632559E-09    6.5342216137E-09    6.3675407555E-09    6.2051095692E-09
    6.0468197714E-09    5.8925658356E-09    5.7422449223E-09    5.5957568117E-09
    5.4530038353E-09    5.3138908116E-09    5.1783249828E-09    5.0462159524E-09
    4.9174756278E-09    4.7920181588E-09    4.6697598816E-09    4.5506192633E-09
    4.4345168465E-09    4.3213751986E-09    4.2111188591E-09    4.1036742894E-09
    3.9989698235E-09    3.8969356209E-09    3.7975036198E-09    3.7006074929E-09
    3.6061826020E-09    3.5141659554E-09    3.4244961659E-09    3.3371134094E-09
    3.2519593871E-09    3.1689772849E-09    3.0881117360E-09    3.0093087840E-09
    2.9325158468E-09    2.8576816823E-09    2.7847563542E-09    2.7136911983E-09
    2.6444387901E-09    2.5769529136E-09    2.5111885295E-09    2.4471017476E-09
    2.3846497951E-09    2.3237909895E-09    2.2644847101E-09    2.2066913712E-09
    2.1503723958E-09    2.0954901906E-09    2.0420081199E-09    1.9898904815E-09
    1.9391024831E-09    1.8896102187E-09    1.8413806472E-09    1.7943815692E-09
    1.7485816058E-09    1.7039501780E-09    1.6604574860E-09    1.6180744893E-09
    1.5767728882E-09    1.5365251041E-09    1.4973042612E-09    1.4590841687E-09
    1.4218393032E-09    1.3855447924E-09    1.3501763978E-09    1.3157104987E-09
    1.2821240767E-09    1.2493946998E-09    1.2175005079E-09    1.1864201985E-09
    1.1561330122E-09    1.1266187185E-09    1.0978576028E-09    1.0698304529E-09
    1.0425185466E-09    1.0159036392E-09    9.8996795091E-10    9.6469415543E-10
    9.4006536803E-10    9.1606513436E-10    8.9267741992E-10    8.6988659904E-10
    8.4767744436E-10    8.2603511681E-10    8.0494515566E-10    7.8439346870E-10
    7.6436632355E-10    7.4485033777E-10    7.2583247018E-10    7.0730001212E-10
    6.8924057900E-10    6.7164210194E-10    6.5449282019E-10    6.3778127272E-10
    6.2149629081E-10    6.0562699054E-10    5.9016276547E-10    5.7509327977E-10
    5.6040846132E-10    5.4609849480E-10    5.3215381521E-10    5.1856510150E-10
    5.0532327025E-10    4.9241946986E-10    4.7984507456E-10    4.6759167853E-10
    4.5565109032E-10    4.4401532743E-10    4.3267661087E-10    4.2162736025E-10
    4.1086018853E-10    4.0036789708E-10    3.9014347085E-10    3.8018007378E-10
    3.7047104403E-10    3.6100988997E-10    3.5179028548E-10    3.4280606580E-10
    3.3405122345E-10    3.2551990420E-10    3.1720640303E-10    3.0910516073E-10
    3.0121075980E-10    2.9351792096E-10    2.8602149962E-10    2.7871648243E-10
    2.7159798384E-10    2.6466124316E-10    2.5790162110E-10    2.5131459670E-10
    2.4489576437E-10    2.3864083092E-10    2.3254561262E-10    2.2660603263E-10
    2.2081811812E-10    2.1517799760E-10    2.0968189836E-10    2.0432614396E-10
    1.9910715169E-10    1.9402143041E-10    1.8906557802E-10    1.8423627924E-10
    1.7953030335E-10    1.7494450212E-10    1.7047580754E-10    1.6612123006E-10
    1.6187785635E-10    1.5774284746E-10    1.5371343685E-10    1.4978692859E-10
    1.4596069552E-10    1.4223217757E-10    1.3859888005E-10    1.3505837188E-10
    1.3160828406E-10    1.2824630801E-10    1.2497019407E-10    1.2177775000E-10
    1.1866683959E-10    1.1563538109E-10    1.1268134588E-10    1.0980275714E-10
    1.0699768848E-10    1.0426426265E-10    1.0160065042E-10    9.9005069194E-11
    9.6475781872E-11    9.4011095701E-11    9.1609361132E-11    8.9268970671E-11
    8.6988357963E-11    8.4765996587E-11    8.2600399088E-11    8.0490115977E-11
    7.8433734765E-11    7.6429878991E-11    7.4477207380E-11    7.2574412899E-11
    7.0720221865E-11    6.8913393109E-11    6.7152717148E-11    6.5437015355E-11
    6.3765139206E-11    6.2135969531E-11    6.0548415708E-11    5.9001414959E-11
    5.7493931636E-11    5.6024956529E-11    5.4593506166E-11    5.3198622250E-11
    5.1839370917E-11    5.0514842147E-11    4.9224149153E-11    4.7966427787E-11
    4.6740835946E-11    4.5546553056E-11    4.4382779500E-11    4.3248736065E-11
    4.2143663434E-11    4.1066821677E-11    4.0017489747E-11    3.8994965003E-11
    3.7998562782E-11    3.7027615883E-11    3.6081474141E-11    3.5159503990E-11
    3.4261088042E-11    3.3385624658E-11    3.2532527591E-11    3.1701225560E-11
    3.0891161865E-11    3.0101794021E-11    2.9332593398E-11    2.8583044855E-11
    2.7852646404E-11    2.7140908903E-11    2.6447355686E-11    2.5771522259E-11
    2.5112955989E-11    2.4471215802E-11    2.3845871873E-11    2.3236505379E-11
    2.2642708188E-11    2.2064082588E-11    2.1500241022E-11    2.0950805830E-11
    2.0415408995E-11    1.9893691890E-11    1.9385305073E-11    1.8889908012E-11
    1.8407168874E-11    1.7936764300E-11    1.7478379187E-11    1.7031706474E-11
    1.6596446950E-11    1.6172309055E-11    1.5759008667E-11    1.5356268920E-11
    1.4963820021E-11    1.4581399067E-11    1.4208749857E-11    1.3845622756E-11
    1.3491774499E-11    1.3146968032E-11    1.2810972355E-11    1.2483562368E-11
    1.2164518719E-11    1.1853627652E-11    1.1550680892E-11    1.1255475470E-11
    1.0967813606E-11    1.0687502568E-11    1.0414354548E-11    1.0148186532E-11
    9.8888201823E-12    9.6360817255E-12    9.3898018211E-12    9.1498154541E-12
    8.9159618245E-12    8.6880842396E-12    8.4660300041E-12    8.2496503308E-12
    8.0388002352E-12    7.8333384331E-12    7.6331272494E-12    7.4380325256E-12
    7.2479235302E-12    7.0626728655E-12    6.8821563990E-12    6.7062531668E-12
    6.5348452936E-12    6.3678179153E-12    6.2050591018E-12    6.0464597826E-12
    5.8919136673E-12    5.7413171931E-12    5.5945694381E-12    5.4515720581E-12
    5.3122292211E-12    5.1764475435E-12    5.0441360269E-12    4.9152059928E-12
    4.7895710392E-12    4.6671469664E-12    4.5478517259E-12    4.4316053651E-12
    4.3183299741E-12    4.2079496328E-12    4.1003903572E-12    3.9955800626E-12
    3.8934485015E-12    3.7939272213E-12    3.6969495179E-12    3.6024503918E-12
    3.5103665033E-12    3.4206361281E-12    3.3331991269E-12    3.2479968928E-12
    3.1649723166E-12    3.0840697480E-12    3.0052349585E-12    2.9284151050E-12
    2.8535586913E-12    2.7806155444E-12    2.7095367695E-12    2.6402747214E-12
    2.5727829720E-12    2.5070162794E-12    2.4429305579E-12    2.3804828449E-12
    2.3196312820E-12    2.2603350777E-12    2.2025544825E-12    2.1462507625E-12
    2.0913861736E-12    2.0379239360E-12    1.9858282075E-12    1.9350640661E-12
    1.8855974807E-12    1.8373952896E-12    1.7904251781E-12    1.7446556576E-12
    1.7000560436E-12    1.6565964344E-12    1.6142476949E-12    1.5729814345E-12
    1.5327699875E-12    1.4935863948E-12    1.4554043865E-12    1.4181983637E-12
    1.3819433807E-12    1.3466151304E-12    1.3121899281E-12    1.2786446931E-12
    1.2459569346E-12    1.2141047367E-12    1.1830667432E-12    1.1528221434E-12
    1.1233506578E-12    1.0946325278E-12    1.0666484982E-12    1.0393798059E-12
    1.0128081673E-12    9.8691576598E-13    9.6168524087E-13    9.3709967299E-13
    9.1314257884E-13    8.8979789483E-13    8.6704996783E-13    8.4488354469E-13
    8.2328376209E-13    8.0223613649E-13    7.8172655365E-13    7.6174126133E-13
    7.4226685897E-13    7.2329028796E-13    7.0479882343E-13    6.8678006570E-13
    6.6922193194E-13    6.5211264783E-13    6.3544073972E-13    6.1919502871E-13
    6.0336462074E-13    5.8793890020E-13    5.7290752274E-13    5.5826040838E-13
    5.4398773473E-13    5.3007992962E-13    5.1652766708E-13    5.0332185904E-13
    4.9045364954E-13    4.7791440894E-13    4.6569572813E-13    4.5378941294E-13
    4.4218747825E-13    4.3088214321E-13    4.1986582662E-13    4.0913114052E-13
    3.9867088579E-13    3.8847804727E-13    3.7854578910E-13    3.6886745012E-13
    3.5943653880E-13    3.5024673074E-13    3.4129186277E-13    3.3256592917E-13
    3.2406307768E-13    3.1577760565E-13    3.0770395614E-13    2.9983671406E-13
    2.9217060268E-13    2.8470048090E-13    2.7742133856E-13    2.7032829358E-13
    2.6341658865E-13    2.5668158804E-13    2.5011877450E-13    2.4372374589E-13
    2.3749221317E-13    2.3141999694E-13    2.2550302446E-13    2.1973732707E-13
    2.1411903755E-13    2.0864438753E-13    2.0330970492E-13    1.9811141111E-13
    1.9304601986E-13    1.8811013361E-13    1.8330044162E-13    1.7861371781E-13
    1.7404681853E-13    1.6959668048E-13    1.6526031852E-13    1.6103482387E-13
    1.5691736247E-13    1.5290517249E-13    1.4899556265E-13    1.4518591049E-13
    1.4147366057E-13    1.3785632276E-13    1.3433147038E-13    1.3089673910E-13
    1.2754982505E-13    1.2428848318E-13    1.2111052579E-13    1.1801382110E-13
    1.1499629183E-13    1.1205591379E-13    1.0919071429E-13    1.0639877153E-13
    1.0367821270E-13    1.0102721281E-13    9.8443993508E-14    9.5926821922E-14
    9.3474009458E-14    9.1083910685E-14    8.8754922001E-14    8.6485481291E-14
    8.4274066144E-14    8.2119193060E-14    8.0019416464E-14    7.7973327727E-14
    7.5979554229E-14    7.4036758409E-14    7.2143636775E-14    7.0298919506E-14
    6.8501369065E-14    6.6749779553E-14    6.5042975892E-14    6.3379813043E-14
    6.1759175236E-14    6.0179975185E-14    5.8641153337E-14    5.7141677480E-14
    5.5680541654E-14    5.4256765614E-14    5.2869394172E-14    5.1517496557E-14
    5.0200165788E-14    4.8916518037E-14
   </PP_CHI.1>
   <PP_CHI.2
       type="real"
       size="1338"
       columns="4"
       index="2"
       occupation=" 4.000"
       pseudo_energy="   -0.3488397093E+01"
       label="5P"
       l="1" >
    1.0215734508E-12    2.3116523964E-04    9.2442244223E-04    2.0790563662E-03
    3.6938759716E-03    5.7672159628E-03    8.2969389451E-03    1.1280438192E-02
    1.4714641016E-02    1.8596012745E-02    2.2920561290E-02    2.7683842295E-02
    3.2880964877E-02    3.8506597929E-02    4.4554976983E-02    5.1019911622E-02
    5.7894793439E-02    6.5172604506E-02    7.2845926368E-02    8.0906949529E-02
    8.9347483425E-02    9.8158966860E-02    1.0733247890E-01    1.1685875019E-01
    1.2672817472E-01    1.3693082193E-01    1.4745644927E-01    1.5829451504E-01
    1.6943419168E-01    1.8086437925E-01    1.9257371932E-01    2.0455060907E-01
    2.1678321570E-01    2.2925949103E-01    2.4196718635E-01    2.5489386744E-01
    2.6802692976E-01    2.8135361383E-01    2.9486102065E-01    3.0853612731E-01
    3.2236580260E-01    3.3633682277E-01    3.5043588718E-01    3.6464963416E-01
    3.7896465663E-01    3.9336751787E-01    4.0784476715E-01    4.2238295524E-01
    4.3696864994E-01    4.5158845136E-01    4.6622900713E-01    4.8087702739E-01
    4.9551929970E-01    5.1014270357E-01    5.2473422493E-01    5.3928097027E-01
    5.5377018053E-01    5.6818924468E-01    5.8252571308E-01    5.9676731043E-01
    6.1090194847E-01    6.2491773823E-01    6.3880300202E-01    6.5254628500E-01
    6.6613636632E-01    6.7956226993E-01    6.9281327490E-01    7.0587892536E-01
    7.1874904000E-01    7.3141372109E-01    7.4386336304E-01    7.5608866056E-01
    7.6808061628E-01    7.7983054791E-01    7.9133009490E-01    8.0257122465E-01
    8.1354623821E-01    8.2424777544E-01    8.3466881971E-01    8.4480270212E-01
    8.5464310518E-01    8.6418406595E-01    8.7341997879E-01    8.8234559753E-01
    8.9095603711E-01    8.9924677484E-01    9.0721365105E-01    9.1485286934E-01
    9.2216099630E-01    9.2913496078E-01    9.3577205268E-01    9.4206992130E-01
    9.4802657318E-01    9.5364036961E-01    9.5891002356E-01    9.6383459634E-01
    9.6841349369E-01    9.7264646162E-01    9.7653358174E-01    9.8007526629E-01
    9.8327225275E-01    9.8612559814E-01    9.8863667294E-01    9.9080715473E-01
    9.9263902148E-01    9.9413454456E-01    9.9529628148E-01    9.9612706832E-01
    9.9663001196E-01    9.9680848204E-01    9.9666610271E-01    9.9620674417E-01
    9.9543451402E-01    9.9435374847E-01    9.9296900332E-01    9.9128504486E-01
    9.8930684065E-01    9.8703955011E-01    9.8448851513E-01    9.8165925052E-01
    9.7855743442E-01    9.7518889866E-01    9.7155961914E-01    9.6767570607E-01
    9.6354339439E-01    9.5916903400E-01    9.5455908020E-01    9.4972008406E-01
    9.4465868289E-01    9.3938159075E-01    9.3389558910E-01    9.2820751748E-01
    9.2232426437E-01    9.1625275805E-01    9.0999995778E-01    9.0357284492E-01
    8.9697841438E-01    8.9022366607E-01    8.8331559671E-01    8.7626119164E-01
    8.6906741695E-01    8.6174121175E-01    8.5428948069E-01    8.4671908667E-01
    8.3903684373E-01    8.3124951030E-01    8.2336378253E-01    8.1538628799E-01
    8.0732357950E-01    7.9918212935E-01    7.9096832360E-01    7.8268845681E-01
    7.7434872690E-01    7.6595523035E-01    7.5751395761E-01    7.4903078884E-01
    7.4051148982E-01    7.3196170821E-01    7.2338697007E-01    7.1479267655E-01
    7.0618410100E-01    6.9756638617E-01    6.8894454182E-01    6.8032344249E-01
    6.7170782555E-01    6.6310228951E-01    6.5451129258E-01    6.4593915147E-01
    6.3739004041E-01    6.2886799041E-01    6.2037688878E-01    6.1192047885E-01
    6.0350235987E-01    5.9512598721E-01    5.8679467267E-01    5.7851158510E-01
    5.7027975105E-01    5.6210205581E-01    5.5398124444E-01    5.4591992311E-01
    5.3792056053E-01    5.2998548955E-01    5.2211690895E-01    5.1431688529E-01
    5.0658735501E-01    4.9893012654E-01    4.9134688262E-01    4.8383918267E-01
    4.7640846532E-01    4.6905605097E-01    4.6178314451E-01    4.5459083806E-01
    4.4748011385E-01    4.4045184709E-01    4.3350680894E-01    4.2664566957E-01
    4.1986900118E-01    4.1317728113E-01    4.0657089505E-01    4.0005014002E-01
    3.9361522774E-01    3.8726628771E-01    3.8100337043E-01    3.7482645059E-01
    3.6873543024E-01    3.6273014200E-01    3.5681035219E-01    3.5097576395E-01
    3.4522602038E-01    3.3956070759E-01    3.3397935775E-01    3.2848145207E-01
    3.2306642378E-01    3.1773366101E-01    3.1248250964E-01    3.0731227611E-01
    3.0222223015E-01    2.9721160746E-01    2.9227961233E-01    2.8742542016E-01
    2.8264817997E-01    2.7794701681E-01    2.7332103408E-01    2.6876931579E-01
    2.6429092879E-01    2.5988492486E-01    2.5555034273E-01    2.5128621012E-01
    2.4709154555E-01    2.4296536018E-01    2.3890665958E-01    2.3491444536E-01
    2.3098771674E-01    2.2712547209E-01    2.2332671038E-01    2.1959043249E-01
    2.1591564252E-01    2.1230134905E-01    2.0874656622E-01    2.0525031486E-01
    2.0181162347E-01    1.9842952916E-01    1.9510307858E-01    1.9183132868E-01
    1.8861334747E-01    1.8544821476E-01    1.8233502276E-01    1.7927287666E-01
    1.7626089518E-01    1.7329821104E-01    1.7038397137E-01    1.6751733809E-01
    1.6469748828E-01    1.6192361439E-01    1.5919492456E-01    1.5651064276E-01
    1.5387000901E-01    1.5127227945E-01    1.4871672644E-01    1.4620263867E-01
    1.4372932112E-01    1.4129609511E-01    1.3890229822E-01    1.3654728421E-01
    1.3423042293E-01    1.3195110018E-01    1.2970871758E-01    1.2750269235E-01
    1.2533245715E-01    1.2319745982E-01    1.2109716317E-01    1.1903104459E-01
    1.1699859392E-01    1.1499931098E-01    1.1303270140E-01    1.1109827592E-01
    1.0919555057E-01    1.0732404751E-01    1.0548329529E-01    1.0367282804E-01
    1.0189218556E-01    1.0014091352E-01    9.8418563289E-02    9.6724691940E-02
    9.5058862225E-02    9.3420642536E-02    9.1809606869E-02    9.0225334792E-02
    8.8667411407E-02    8.7135427313E-02    8.5628978562E-02    8.4147666625E-02
    8.2691098345E-02    8.1258885896E-02    7.9850646739E-02    7.8466003578E-02
    7.7104584316E-02    7.5766022006E-02    7.4449954805E-02    7.3156025932E-02
    7.1883883610E-02    7.0633181030E-02    6.9403576291E-02    6.8194732359E-02
    6.7006317014E-02    6.5838002802E-02    6.4689466982E-02    6.3560391481E-02
    6.2450462839E-02    6.1359372162E-02    6.0286815068E-02    5.9232491640E-02
    5.8196106375E-02    5.7177368131E-02    5.6175990078E-02    5.5191689649E-02
    5.4224188486E-02    5.3273212394E-02    5.2338491288E-02    5.1419759143E-02
    5.0516753947E-02    4.9629217648E-02    4.8756896107E-02    4.7899539047E-02
    4.7056900005E-02    4.6228736284E-02    4.5414808906E-02    4.4614882558E-02
    4.3828725551E-02    4.3056109769E-02    4.2296810623E-02    4.1550607003E-02
    4.0817281234E-02    4.0096619028E-02    3.9388409437E-02    3.8692444812E-02
    3.8008520753E-02    3.7336436068E-02    3.6675992726E-02    3.6026995818E-02
    3.5389253516E-02    3.4762577017E-02    3.4146780506E-02    3.3541681112E-02
    3.2947098877E-02    3.2362856711E-02    3.1788780341E-02    3.1224698283E-02
    3.0670441794E-02    3.0125844834E-02    2.9590744030E-02    2.9064978635E-02
    2.8548390487E-02    2.8040823978E-02    2.7542126008E-02    2.7052145957E-02
    2.6570735640E-02    2.6097749278E-02    2.5633043457E-02    2.5176477096E-02
    2.4727911410E-02    2.4287209877E-02    2.3854238203E-02    2.3428864292E-02
    2.3010958205E-02    2.2600392136E-02    2.2197040374E-02    2.1800779273E-02
    2.1411487222E-02    2.1029044609E-02    2.0653333798E-02    2.0284239090E-02
    1.9921646700E-02    1.9565444726E-02    1.9215523115E-02    1.8871773643E-02
    1.8534089878E-02    1.8202367158E-02    1.7876502561E-02    1.7556394879E-02
    1.7241944588E-02    1.6933053828E-02    1.6629626369E-02    1.6331567592E-02
    1.6038784460E-02    1.5751185494E-02    1.5468680749E-02    1.5191181788E-02
    1.4918601659E-02    1.4650854874E-02    1.4387857381E-02    1.4129526544E-02
    1.3875781120E-02    1.3626541237E-02    1.3381728370E-02    1.3141265322E-02
    1.2905076204E-02    1.2673086408E-02    1.2445222591E-02    1.2221412656E-02
    1.2001585726E-02    1.1785672132E-02    1.1573603385E-02    1.1365312164E-02
    1.1160732293E-02    1.0959798724E-02    1.0762447518E-02    1.0568615828E-02
    1.0378241880E-02    1.0191264954E-02    1.0007625371E-02    9.8272644722E-03
    9.6501246049E-03    9.4761491036E-03    9.3052822750E-03    9.1374693824E-03
    8.9726566289E-03    8.8107911429E-03    8.6518209621E-03    8.4956950189E-03
    8.3423631254E-03    8.1917759588E-03    8.0438850474E-03    7.8986427560E-03
    7.7560022721E-03    7.6159175928E-03    7.4783435103E-03    7.3432355996E-03
    7.2105502050E-03    7.0802444270E-03    6.9522761103E-03    6.8266038309E-03
    6.7031868838E-03    6.5819852714E-03    6.4629596910E-03    6.3460715237E-03
    6.2312828226E-03    6.1185563014E-03    6.0078553236E-03    5.8991438913E-03
    5.7923866344E-03    5.6875488002E-03    5.5845962427E-03    5.4834954126E-03
    5.3842133469E-03    5.2867176594E-03    5.1909765303E-03    5.0969586972E-03
    5.0046334451E-03    4.9139705975E-03    4.8249405070E-03    4.7375140463E-03
    4.6516625994E-03    4.5673580529E-03    4.4845727873E-03    4.4032796686E-03
    4.3234520401E-03    4.2450637140E-03    4.1680889637E-03    4.0925025154E-03
    4.0182795410E-03    3.9453956496E-03    3.8738268809E-03    3.8035496970E-03
    3.7345409757E-03    3.6667780031E-03    3.6002384662E-03    3.5349004470E-03
    3.4707424144E-03    3.4077432185E-03    3.3458820837E-03    3.2851386019E-03
    3.2254927267E-03    3.1669247667E-03    3.1094153796E-03    3.0529455659E-03
    2.9974966633E-03    2.9430503404E-03    2.8895885913E-03    2.8370937300E-03
    2.7855483843E-03    2.7349354911E-03    2.6852382901E-03    2.6364403196E-03
    2.5885254103E-03    2.5414776807E-03    2.4952815322E-03    2.4499216437E-03
    2.4053829671E-03    2.3616507223E-03    2.3187103928E-03    2.2765477209E-03
    2.2351487029E-03    2.1944995853E-03    2.1545868597E-03    2.1153972590E-03
    2.0769177531E-03    2.0391355442E-03    2.0020380636E-03    1.9656129670E-03
    1.9298481308E-03    1.8947316480E-03    1.8602518249E-03    1.8263971767E-03
    1.7931564242E-03    1.7605184902E-03    1.7284724957E-03    1.6970077565E-03
    1.6661137799E-03    1.6357802612E-03    1.6059970802E-03    1.5767542982E-03
    1.5480421549E-03    1.5198510646E-03    1.4921716141E-03    1.4649945585E-03
    1.4383108194E-03    1.4121114808E-03    1.3863877872E-03    1.3611311401E-03
    1.3363330955E-03    1.3119853611E-03    1.2880797937E-03    1.2646083961E-03
    1.2415633154E-03    1.2189368393E-03    1.1967213947E-03    1.1749095443E-03
    1.1534939849E-03    1.1324675446E-03    1.1118231804E-03    1.0915539762E-03
    1.0716531405E-03    1.0521140040E-03    1.0329300174E-03    1.0140947495E-03
    9.9560188480E-04    9.7744522177E-04    9.5961867050E-04    9.4211625088E-04
    9.2493209058E-04    9.0806042314E-04    8.9149558608E-04    8.7523201901E-04
    8.5926426185E-04    8.4358695300E-04    8.2819482760E-04    8.1308271577E-04
    7.9824554092E-04    7.8367831812E-04    7.6937615238E-04    7.5533423710E-04
    7.4154785246E-04    7.2801236387E-04    7.1472322044E-04    7.0167595348E-04
    6.8886617501E-04    6.7628957634E-04    6.6394192664E-04    6.5181907149E-04
    6.3991693161E-04    6.2823150140E-04    6.1675884771E-04    6.0549510845E-04
    5.9443649141E-04    5.8357927291E-04    5.7291979662E-04    5.6245447236E-04
    5.5217977486E-04    5.4209224264E-04    5.3218847684E-04    5.2246514009E-04
    5.1291895541E-04    5.0354670514E-04    4.9434522982E-04    4.8531142721E-04
    4.7644225121E-04    4.6773471087E-04    4.5918586938E-04    4.5079284312E-04
    4.4255280067E-04    4.3446296190E-04    4.2652059703E-04    4.1872302572E-04
    4.1106761617E-04    4.0355178427E-04    3.9617299273E-04    3.8892875022E-04
    3.8181661057E-04    3.7483417190E-04    3.6797907590E-04    3.6124900698E-04
    3.5464169153E-04    3.4815489715E-04    3.4178643189E-04    3.3553414357E-04
    3.2939591901E-04    3.2336968336E-04    3.1745339937E-04    3.1164506676E-04
    3.0594272151E-04    3.0034443523E-04    2.9484831449E-04    2.8945250024E-04
    2.8415516712E-04    2.7895452290E-04    2.7384880786E-04    2.6883629422E-04
    2.6391528554E-04    2.5908411616E-04    2.5434115067E-04    2.4968478331E-04
    2.4511343749E-04    2.4062556522E-04    2.3621964662E-04    2.3189418940E-04
    2.2764772834E-04    2.2347882486E-04    2.1938606647E-04    2.1536806633E-04
    2.1142346279E-04    2.0755091893E-04    2.0374912211E-04    2.0001678351E-04
    1.9635263775E-04    1.9275544241E-04    1.8922397765E-04    1.8575704578E-04
    1.8235347088E-04    1.7901209840E-04    1.7573179474E-04    1.7251144691E-04
    1.6934996217E-04    1.6624626760E-04    1.6319930981E-04    1.6020805452E-04
    1.5727148627E-04    1.5438860807E-04    1.5155844103E-04    1.4878002406E-04
    1.4605241355E-04    1.4337468304E-04    1.4074592290E-04    1.3816524007E-04
    1.3563175770E-04    1.3314461491E-04    1.3070296646E-04    1.2830598247E-04
    1.2595284819E-04    1.2364276365E-04    1.2137494346E-04    1.1914861649E-04
    1.1696302567E-04    1.1481742768E-04    1.1271109273E-04    1.1064330430E-04
    1.0861335892E-04    1.0662056592E-04    1.0466424719E-04    1.0274373697E-04
    1.0085838160E-04    9.9007539343E-05    9.7190580116E-05    9.5406885321E-05
    9.3655847615E-05    9.1936870715E-05    9.0249369190E-05    8.8592768270E-05
    8.6966503649E-05    8.5370021298E-05    8.3802777273E-05    8.2264237539E-05
    8.0753877784E-05    7.9271183248E-05    7.7815648544E-05    7.6386777491E-05
    7.4984082948E-05    7.3607086644E-05    7.2255319026E-05    7.0928319092E-05
    6.9625634241E-05    6.8346820117E-05    6.7091440464E-05    6.5859066971E-05
    6.4649279138E-05    6.3461664124E-05    6.2295816614E-05    6.1151338682E-05
    6.0027839652E-05    5.8924935973E-05    5.7842251084E-05    5.6779415289E-05
    5.5736065633E-05    5.4711845779E-05    5.3706405886E-05    5.2719402495E-05
    5.1750498407E-05    5.0799362574E-05    4.9865669986E-05    4.8949101561E-05
    4.8049344037E-05    4.7166089865E-05    4.6299037108E-05    4.5447889336E-05
    4.4612355528E-05    4.3792149972E-05    4.2986992170E-05    4.2196606742E-05
    4.1420723334E-05    4.0659076523E-05    3.9911405734E-05    3.9177455145E-05
    3.8456973604E-05    3.7749714545E-05    3.7055435900E-05    3.6373900023E-05
    3.5704873606E-05    3.5048127598E-05    3.4403437134E-05    3.3770581453E-05
    3.3149343825E-05    3.2539511478E-05    3.1940875527E-05    3.1353230901E-05
    3.0776376275E-05    3.0210114000E-05    2.9654250041E-05    2.9108593904E-05
    2.8572958576E-05    2.8047160462E-05    2.7531019321E-05    2.7024358205E-05
    2.6527003399E-05    2.6038784363E-05    2.5559533675E-05    2.5089086970E-05
    2.4627282890E-05    2.4173963024E-05    2.3728971859E-05    2.3292156723E-05
    2.2863367735E-05    2.2442457756E-05    2.2029282336E-05    2.1623699666E-05
    2.1225570530E-05    2.0834758258E-05    2.0451128681E-05    2.0074550082E-05
    1.9704893152E-05    1.9342030949E-05    1.8985838854E-05    1.8636194524E-05
    1.8292977858E-05    1.7956070950E-05    1.7625358051E-05    1.7300725532E-05
    1.6982061840E-05    1.6669257466E-05    1.6362204904E-05    1.6060798614E-05
    1.5764934991E-05    1.5474512324E-05    1.5189430763E-05    1.4909592287E-05
    1.4634900669E-05    1.4365261445E-05    1.4100581877E-05    1.3840770929E-05
    1.3585739229E-05    1.3335399043E-05    1.3089664242E-05    1.2848450276E-05
    1.2611674143E-05    1.2379254360E-05    1.2151110938E-05    1.1927165353E-05
    1.1707340517E-05    1.1491560757E-05    1.1279751786E-05    1.1071840677E-05
    1.0867755838E-05    1.0667426992E-05    1.0470785147E-05    1.0277762577E-05
    1.0088292795E-05    9.9023105343E-06    9.7197517242E-06    9.5405534678E-06
    9.3646540212E-06    9.1919927722E-06    9.0225102198E-06    8.8561479539E-06
    8.6928486351E-06    8.5325559753E-06    8.3752147184E-06    8.2207706216E-06
    8.0691704366E-06    7.9203618917E-06    7.7742936737E-06    7.6309154104E-06
    7.4901776538E-06    7.3520318624E-06    7.2164303854E-06    7.0833264459E-06
    6.9526741252E-06    6.8244283470E-06    6.6985448618E-06    6.5749802322E-06
    6.4536918176E-06    6.3346377599E-06    6.2177769690E-06    6.1030691090E-06
    5.9904745840E-06    5.8799545249E-06    5.7714707760E-06    5.6649858820E-06
    5.5604630748E-06    5.4578662615E-06    5.3571600117E-06    5.2583095453E-06
    5.1612807208E-06    5.0660400235E-06    4.9725545542E-06    4.8807920174E-06
    4.7907207110E-06    4.7023095148E-06    4.6155278801E-06    4.5303458195E-06
    4.4467338959E-06    4.3646632131E-06    4.2841054056E-06    4.2050326290E-06
    4.1274175502E-06    4.0512333384E-06    3.9764536555E-06    3.9030526473E-06
    3.8310049347E-06    3.7602856049E-06    3.6908702028E-06    3.6227347224E-06
    3.5558555993E-06    3.4902097018E-06    3.4257743233E-06    3.3625271747E-06
    3.3004463762E-06    3.2395104506E-06    3.1796983151E-06    3.1209892745E-06
    3.0633630140E-06    3.0067995924E-06    2.9512794349E-06    2.8967833266E-06
    2.8432924060E-06    2.7907881582E-06    2.7392524088E-06    2.6886673177E-06
    2.6390153726E-06    2.5902793833E-06    2.5424424760E-06    2.4954880868E-06
    2.4493999566E-06    2.4041621255E-06    2.3597589268E-06    2.3161749824E-06
    2.2733951966E-06    2.2314047516E-06    2.1901891024E-06    2.1497339711E-06
    2.1100253428E-06    2.0710494604E-06    2.0327928199E-06    1.9952421657E-06
    1.9583844860E-06    1.9222070087E-06    1.8866971966E-06    1.8518427431E-06
    1.8176315682E-06    1.7840518141E-06    1.7510918414E-06    1.7187402248E-06
    1.6869857492E-06    1.6558174062E-06    1.6252243897E-06    1.5951960928E-06
    1.5657221037E-06    1.5367922023E-06    1.5083963566E-06    1.4805247194E-06
    1.4531676246E-06    1.4263155844E-06    1.3999592853E-06    1.3740895855E-06
    1.3486975116E-06    1.3237742553E-06    1.2993111706E-06    1.2752997705E-06
    1.2517317246E-06    1.2285988558E-06    1.2058931375E-06    1.1836066910E-06
    1.1617317828E-06    1.1402608217E-06    1.1191863564E-06    1.0985010730E-06
    1.0781977920E-06    1.0582694664E-06    1.0387091790E-06    1.0195101400E-06
    1.0006656847E-06    9.8216927107E-07    9.6401447786E-07    9.4619500195E-07
    9.2870465641E-07    9.1153736831E-07    8.9468717664E-07    8.7814823023E-07
    8.6191478573E-07    8.4598120563E-07    8.3034195633E-07    8.1499160620E-07
    7.9992482374E-07    7.8513637569E-07    7.7062112526E-07    7.5637403033E-07
    7.4239014174E-07    7.2866460156E-07    7.1519264138E-07    7.0196958073E-07
    6.8899082541E-07    6.7625186589E-07    6.6374827582E-07    6.5147571044E-07
    6.3942990510E-07    6.2760667377E-07    6.1600190760E-07    6.0461157352E-07
    5.9343171281E-07    5.8245843976E-07    5.7168794032E-07    5.6111647075E-07
    5.5074035635E-07    5.4055599023E-07    5.3055983197E-07    5.2074840648E-07
    5.1111830274E-07    5.0166617267E-07    4.9238872990E-07    4.8328274871E-07
    4.7434506288E-07    4.6557256459E-07    4.5696220334E-07    4.4851098489E-07
    4.4021597027E-07    4.3207427470E-07    4.2408306664E-07    4.1623956678E-07
    4.0854104707E-07    4.0098482981E-07    3.9356828670E-07    3.8628883794E-07
    3.7914395132E-07    3.7213114137E-07    3.6524796845E-07    3.5849203797E-07
    3.5186099951E-07    3.4535254603E-07    3.3896441307E-07    3.3269437795E-07
    3.2654025901E-07    3.2049991484E-07    3.1457124357E-07    3.0875218214E-07
    3.0304070552E-07    2.9743482610E-07    2.9193259291E-07    2.8653209104E-07
    2.8123144090E-07    2.7602879759E-07    2.7092235029E-07    2.6591032158E-07
    2.6099096685E-07    2.5616257373E-07    2.5142346142E-07    2.4677198019E-07
    2.4220651073E-07    2.3772546366E-07    2.3332727890E-07    2.2901042522E-07
    2.2477339963E-07    2.2061472691E-07    2.1653295906E-07    2.1252667484E-07
    2.0859447923E-07    2.0473500297E-07    2.0094690212E-07    1.9722885750E-07
    1.9357957435E-07    1.8999778177E-07    1.8648223236E-07    1.8303170174E-07
    1.7964498815E-07    1.7632091204E-07    1.7305831560E-07    1.6985606246E-07
    1.6671303719E-07    1.6362814498E-07    1.6060031126E-07    1.5762848128E-07
    1.5471161978E-07    1.5184871063E-07    1.4903875646E-07    1.4628077833E-07
    1.4357381538E-07    1.4091692451E-07    1.3830918002E-07    1.3574967332E-07
    1.3323751262E-07    1.3077182259E-07    1.2835174407E-07    1.2597643378E-07
    1.2364506402E-07    1.2135682237E-07    1.1911091143E-07    1.1690654854E-07
    1.1474296547E-07    1.1261940823E-07    1.1053513673E-07    1.0848942456E-07
    1.0648155873E-07    1.0451083943E-07    1.0257657978E-07    1.0067810560E-07
    9.8814755164E-08    9.6985878960E-08    9.5190839492E-08    9.3429011042E-08
    9.1699779459E-08    9.0002541937E-08    8.8336706812E-08    8.6701693354E-08
    8.5096931566E-08    8.3521861982E-08    8.1975935483E-08    8.0458613095E-08
    7.8969365805E-08    7.7507674379E-08    7.6073029179E-08    7.4664929983E-08
    7.3282885824E-08    7.1926414804E-08    7.0595043933E-08    6.9288308966E-08
    6.8005754237E-08    6.6746932501E-08    6.5511404785E-08    6.4298740230E-08
    6.3108515941E-08    6.1940316840E-08    6.0793735523E-08    5.9668372115E-08
    5.8563834137E-08    5.7479736364E-08    5.6415700694E-08    5.5371356016E-08
    5.4346338077E-08    5.3340289360E-08    5.2352858955E-08    5.1383702446E-08
    5.0432481782E-08    4.9498865161E-08    4.8582526918E-08    4.7683147407E-08
    4.6800412892E-08    4.5934015440E-08    4.5083652813E-08    4.4249028359E-08
    4.3429850913E-08    4.2625834693E-08    4.1836699200E-08    4.1062169125E-08
    4.0301974247E-08    3.9555849347E-08    3.8823534104E-08    3.8104773016E-08
    3.7399315304E-08    3.6706914824E-08    3.6027329988E-08    3.5360323675E-08
    3.4705663149E-08    3.4063119978E-08    3.3432469954E-08    3.2813493016E-08
    3.2205973172E-08    3.1609698428E-08    3.1024460707E-08    3.0450055783E-08
    2.9886283207E-08    2.9332946236E-08    2.8789851765E-08    2.8256810264E-08
    2.7733635706E-08    2.7220145508E-08    2.6716160460E-08    2.6221504670E-08
    2.5736005497E-08    2.5259493495E-08    2.4791802352E-08    2.4332768834E-08
    2.3882232723E-08    2.3440036767E-08    2.3006026624E-08    2.2580050803E-08
    2.2161960619E-08    2.1751610138E-08    2.1348856122E-08    2.0953557986E-08
    2.0565577746E-08    2.0184779967E-08    1.9811031722E-08    1.9444202543E-08
    1.9084164377E-08    1.8730791539E-08    1.8383960667E-08    1.8043550685E-08
    1.7709442754E-08    1.7381520234E-08    1.7059668646E-08    1.6743775626E-08
    1.6433730890E-08    1.6129426194E-08    1.5830755297E-08    1.5537613924E-08
    1.5249899727E-08    1.4967512256E-08    1.4690352917E-08    1.4418324940E-08
    1.4151333347E-08    1.3889284915E-08    1.3632088147E-08    1.3379653241E-08
    1.3131892054E-08    1.2888718076E-08    1.2650046396E-08    1.2415793675E-08
    1.2185878117E-08    1.1960219437E-08    1.1738738838E-08    1.1521358981E-08
    1.1308003958E-08    1.1098599265E-08    1.0893071776E-08    1.0691349720E-08
    1.0493362653E-08    1.0299041435E-08    1.0108318206E-08    9.9211263615E-09
    9.7374005285E-09    9.5570765451E-09    9.3800914364E-09    9.2063833920E-09
    9.0358917472E-09    8.8685569590E-09    8.7043205867E-09    8.5431252708E-09
    8.3849147135E-09    8.2296336589E-09    8.0772278731E-09    7.9276441273E-09
    7.7808301771E-09    7.6367347453E-09    7.4953075033E-09    7.3564990543E-09
    7.2202609156E-09    7.0865455013E-09    6.9553061074E-09    6.8264968939E-09
    6.7000728690E-09    6.5759898738E-09    6.4542045668E-09    6.3346744084E-09
    6.2173576460E-09    6.1022133012E-09    5.9892011531E-09    5.8782817255E-09
    5.7694162730E-09    5.6625667671E-09    5.5576958834E-09    5.4547669877E-09
    5.3537441250E-09    5.2545920055E-09    5.1572759925E-09    5.0617620904E-09
    4.9680169330E-09    4.8760077715E-09    4.7857024631E-09    4.6970694607E-09
    4.6100778010E-09    4.5246970937E-09    4.4408975110E-09    4.3586497773E-09
    4.2779251591E-09    4.1986954542E-09    4.1209329832E-09    4.0446105790E-09
    3.9697015772E-09    3.8961798072E-09    3.8240195826E-09    3.7531956928E-09
    3.6836833934E-09    3.6154583985E-09    3.5484968721E-09    3.4827754190E-09
    3.4182710772E-09    3.3549613099E-09    3.2928239975E-09    3.2318374296E-09
    3.1719802979E-09    3.1132316889E-09    3.0555710761E-09    2.9989783129E-09
    2.9434336259E-09    2.8889176074E-09    2.8354112094E-09    2.7828957360E-09
    2.7313528381E-09    2.6807645061E-09    2.6311130639E-09    2.5823811623E-09
    2.5345517737E-09    2.4876081856E-09    2.4415339947E-09    2.3963131016E-09
    2.3519297052E-09    2.3083682967E-09    2.2656136546E-09    2.2236508391E-09
    2.1824651870E-09    2.1420423065E-09    2.1023680722E-09    2.0634286207E-09
    2.0252103451E-09    1.9876998902E-09    1.9508841483E-09    1.9147502543E-09
    1.8792855813E-09    1.8444777360E-09    1.8103145550E-09    1.7767840999E-09
    1.7438746534E-09    1.7115747151E-09    1.6798729977E-09    1.6487584225E-09
    1.6182201163E-09    1.5882474069E-09    1.5588298203E-09    1.5299570759E-09
    1.5016190837E-09    1.4738059404E-09    1.4465079263E-09    1.4197155015E-09
    1.3934193024E-09    1.3676101395E-09    1.3422789931E-09    1.3174170105E-09
    1.2930155031E-09    1.2690659429E-09    1.2455599600E-09    1.2224893394E-09
    1.1998460183E-09    1.1776220831E-09    1.1558097671E-09    1.1344014469E-09
    1.1133896406E-09    1.0927670048E-09    1.0725263320E-09    1.0526605481E-09
    1.0331627101E-09    1.0140260037E-09    9.9524374058E-10    9.7680935645E-10
    9.5871640846E-10    9.4095857308E-10    9.2352964387E-10    9.0642352922E-10
    8.8963425059E-10    8.7315594003E-10    8.5698283825E-10    8.4110929260E-10
    8.2552975511E-10    8.1023878057E-10    7.9523102451E-10    7.8050124149E-10
    7.6604428333E-10    7.5185509710E-10    7.3792872344E-10    7.2426029483E-10
    7.1084503390E-10    6.9767825173E-10    6.8475534618E-10    6.7207180042E-10
    6.5962318133E-10    6.4740513780E-10    6.3541339933E-10    6.2364377449E-10
    6.1209214947E-10    6.0075448664E-10    5.8962682306E-10    5.7870526935E-10
    5.6798600812E-10    5.5746529263E-10    5.4713944557E-10    5.3700485768E-10
    5.2705798657E-10    5.1729535546E-10    5.0771355184E-10    4.9830922661E-10
    4.8907909260E-10    4.8001992353E-10    4.7112855285E-10    4.6240187266E-10
    4.5383683262E-10    4.4543043886E-10    4.3717975292E-10    4.2908189090E-10
    4.2113402222E-10    4.1333336876E-10    4.0567720382E-10    3.9816285121E-10
    3.9078768429E-10    3.8354912506E-10    3.7644464324E-10    3.6947175551E-10
    3.6262802451E-10    3.5591105799E-10    3.4931850803E-10    3.4284807017E-10
    3.3649748265E-10    3.3026452556E-10
   </PP_CHI.2>
   <PP_CHI.3
       type="real"
       size="1338"
       columns="4"
       index="3"
       occupation=" 2.000"
       pseudo_energy="   -0.4387550728E+01"
       label="5P"
       l="1" >
    1.2954949613E-12    2.5874499977E-04    1.0346957450E-03    2.3269998556E-03
    4.1342379773E-03    6.4544256985E-03    9.2850162306E-03    1.2622903845E-02
    1.6464428065E-02    2.0805378601E-02    2.5641001022E-02    3.0966003165E-02
    3.6774562250E-02    4.3060332709E-02    4.9816454711E-02    5.7035563359E-02
    6.4709798565E-02    7.2830815562E-02    8.1389796055E-02    9.0377459990E-02
    9.9784077914E-02    1.0959948391E-01    1.1981308910E-01    1.3041389565E-01
    1.4139051134E-01    1.5273116458E-01    1.6442371988E-01    1.7645569383E-01
    1.8881427139E-01    2.0148632269E-01    2.1445842008E-01    2.2771685561E-01
    2.4124765872E-01    2.5503661433E-01    2.6906928110E-01    2.8333100991E-01
    2.9780696258E-01    3.1248213077E-01    3.2734135494E-01    3.4236934351E-01
    3.5755069205E-01    3.7286990251E-01    3.8831140252E-01    4.0385956467E-01
    4.1949872572E-01    4.3521320576E-01    4.5098732734E-01    4.6680543439E-01
    4.8265191106E-01    4.9851120033E-01    5.1436782246E-01    5.3020639323E-01
    5.4601164185E-01    5.6176842869E-01    5.7746176261E-01    5.9307681805E-01
    6.0859895170E-01    6.2401371885E-01    6.3930688931E-01    6.5446446294E-01
    6.6947268474E-01    6.8431805944E-01    6.9898736571E-01    7.1346766979E-01
    7.2774633866E-01    7.4181105266E-01    7.5564981764E-01    7.6925097644E-01
    7.8260321993E-01    7.9569559738E-01    8.0851752633E-01    8.2105880178E-01
    8.3330960482E-01    8.4526051069E-01    8.5690249611E-01    8.6822694613E-01
    8.7922566021E-01    8.8989085781E-01    9.0021518322E-01    9.1019170987E-01
    9.1981394389E-01    9.2907582718E-01    9.3797173972E-01    9.4649650132E-01
    9.5464537276E-01    9.6241405627E-01    9.6979869540E-01    9.7679587435E-01
    9.8340261666E-01    9.8961638325E-01    9.9543507002E-01    1.0008570048E+00
    1.0058809437E+00    1.0105060671E+00    1.0147319748E+00    1.0185586809E+00
    1.0219866084E+00    1.0250165826E+00    1.0276498247E+00    1.0298879445E+00
    1.0317329333E+00    1.0331871554E+00    1.0342533404E+00    1.0349345737E+00
    1.0352342879E+00    1.0351562533E+00    1.0347045680E+00    1.0338836479E+00
    1.0326982163E+00    1.0311532932E+00    1.0292541846E+00    1.0270064712E+00
    1.0244159972E+00    1.0214888588E+00    1.0182313923E+00    1.0146501626E+00
    1.0107519514E+00    1.0065437445E+00    1.0020327205E+00    9.9722623801E-01
    9.9213182373E-01    9.8675716016E-01    9.8111007333E-01    9.7519852059E-01
    9.6903057842E-01    9.6261443030E-01    9.5595835464E-01    9.4907071283E-01
    9.4195993733E-01    9.3463451999E-01    9.2710300041E-01    9.1937395450E-01
    9.1145598324E-01    9.0335770156E-01    8.9508772750E-01    8.8665467148E-01
    8.7806712593E-01    8.6933365505E-01    8.6046278486E-01    8.5146299353E-01
    8.4234270196E-01    8.3311026465E-01    8.2377396087E-01    8.1434198609E-01
    8.0482244381E-01    7.9522333759E-01    7.8555256348E-01    7.7581790276E-01
    7.6602701500E-01    7.5618743145E-01    7.4630654881E-01    7.3639162330E-01
    7.2644976507E-01    7.1648793304E-01    7.0651292994E-01    6.9653139787E-01
    6.8654981404E-01    6.7657448700E-01    6.6661155313E-01    6.5666697348E-01
    6.4674653100E-01    6.3685582802E-01    6.2700028418E-01    6.1718513456E-01
    6.0741542826E-01    5.9769602718E-01    5.8803160520E-01    5.7842664762E-01
    5.6888545092E-01    5.5941212281E-01    5.5001058253E-01    5.4068456152E-01
    5.3143760421E-01    5.2227306924E-01    5.1319413077E-01    5.0420378018E-01
    4.9530482787E-01    4.8649990539E-01    4.7779146769E-01    4.6918179568E-01
    4.6067299888E-01    4.5226701830E-01    4.4396562953E-01    4.3577044590E-01
    4.2768292188E-01    4.1970435657E-01    4.1183589738E-01    4.0407854371E-01
    3.9643315090E-01    3.8890043415E-01    3.8148097261E-01    3.7417521349E-01
    3.6698347630E-01    3.5990595711E-01    3.5294273285E-01    3.4609376572E-01
    3.3935890751E-01    3.3273790407E-01    3.2623039975E-01    3.1983594175E-01
    3.1355398465E-01    3.0738389475E-01    3.0132495451E-01    2.9537636690E-01
    2.8953725973E-01    2.8380668996E-01    2.7818364794E-01    2.7266706158E-01
    2.6725580049E-01    2.6194868007E-01    2.5674446544E-01    2.5164187541E-01
    2.4663958629E-01    2.4173623561E-01    2.3693042582E-01    2.3222072782E-01
    2.2760568445E-01    2.2308381382E-01    2.1865361261E-01    2.1431355919E-01
    2.1006211671E-01    2.0589773603E-01    2.0181885852E-01    1.9782391883E-01
    1.9391134748E-01    1.9007957335E-01    1.8632702606E-01    1.8265213830E-01
    1.7905334793E-01    1.7552910004E-01    1.7207784895E-01    1.6869805997E-01
    1.6538821119E-01    1.6214679505E-01    1.5897231991E-01    1.5586331140E-01
    1.5281831382E-01    1.4983589129E-01    1.4691462888E-01    1.4405313371E-01
    1.4125003579E-01    1.3850398897E-01    1.3581367164E-01    1.3317778746E-01
    1.3059506596E-01    1.2806426308E-01    1.2558416164E-01    1.2315357171E-01
    1.2077133098E-01    1.1843630501E-01    1.1614738744E-01    1.1390350012E-01
    1.1170359327E-01    1.0954664546E-01    1.0743166366E-01    1.0535768317E-01
    1.0332376757E-01    1.0132900854E-01    9.9372525766E-02    9.7453466723E-02
    9.5571006466E-02    9.3724347388E-02    9.1912718928E-02    9.0135377234E-02
    8.8391604835E-02    8.6680710281E-02    8.5002027764E-02    8.3354916709E-02
    8.1738761351E-02    8.0152970353E-02    7.8596976288E-02    7.7070235048E-02
    7.5572222171E-02    7.4102428399E-02    7.2660352496E-02    7.1245499726E-02
    6.9857382213E-02    6.8495520321E-02    6.7159443147E-02    6.5848686942E-02
    6.4562795308E-02    6.3301319398E-02    6.2063817678E-02    6.0849855841E-02
    5.9659006727E-02    5.8490850233E-02    5.7344973217E-02    5.6220969413E-02
    5.5118439337E-02    5.4036990198E-02    5.2976235808E-02    5.1935796492E-02
    5.0915298998E-02    4.9914376410E-02    4.8932668058E-02    4.7969819428E-02
    4.7025482078E-02    4.6099313549E-02    4.5190977279E-02    4.4300142517E-02
    4.3426484237E-02    4.2569683055E-02    4.1729425143E-02    4.0905402148E-02
    4.0097311108E-02    3.9304854369E-02    3.8527739508E-02    3.7765679248E-02
    3.7018391383E-02    3.6285598695E-02    3.5567028879E-02    3.4862414465E-02
    3.4171492743E-02    3.3494005684E-02    3.2829699870E-02    3.2178326417E-02
    3.1539640905E-02    3.0913403302E-02    3.0299377898E-02    2.9697333229E-02
    2.9107042011E-02    2.8528281074E-02    2.7960831288E-02    2.7404477500E-02
    2.6859008469E-02    2.6324216798E-02    2.5799898872E-02    2.5285854794E-02
    2.4781888321E-02    2.4287806806E-02    2.3803421134E-02    2.3328545661E-02
    2.2862998161E-02    2.2406599760E-02    2.1959174883E-02    2.1520551199E-02
    2.1090559562E-02    2.0669033955E-02    2.0255811427E-02    1.9850732074E-02
    1.9453638988E-02    1.9064378158E-02    1.8682798390E-02    1.8308751316E-02
    1.7942091372E-02    1.7582675713E-02    1.7230364158E-02    1.6885019150E-02
    1.6546505713E-02    1.6214691403E-02    1.5889446263E-02    1.5570642779E-02
    1.5258155838E-02    1.4951862684E-02    1.4651642873E-02    1.4357378237E-02
    1.4068952840E-02    1.3786252937E-02    1.3509166936E-02    1.3237585359E-02
    1.2971400806E-02    1.2710507910E-02    1.2454803310E-02    1.2204185607E-02
    1.1958555332E-02    1.1717814910E-02    1.1481868624E-02    1.1250622585E-02
    1.1023984693E-02    1.0801864610E-02    1.0584173723E-02    1.0370825114E-02
    1.0161733531E-02    9.9568153542E-03    9.7559885661E-03    9.5591727244E-03
    9.3662889308E-03    9.1772598032E-03    8.9920094473E-03    8.8104634294E-03
    8.6325487487E-03    8.4581938113E-03    8.2873284037E-03    8.1198836671E-03
    7.9557920722E-03    7.7949873943E-03    7.6374046890E-03    7.4829802683E-03
    7.3316516770E-03    7.1833576696E-03    7.0380381876E-03    6.8956343373E-03
    6.7560883678E-03    6.6193436494E-03    6.4853446530E-03    6.3540369286E-03
    6.2253670856E-03    6.0992827724E-03    5.9757326569E-03    5.8546664072E-03
    5.7360346727E-03    5.6197890656E-03    5.5058821423E-03    5.3942673859E-03
    5.2848991883E-03    5.1777328330E-03    5.0727244783E-03    4.9698311404E-03
    4.8690106772E-03    4.7702217722E-03    4.6734239186E-03    4.5785774043E-03
    4.4856432962E-03    4.3945834255E-03    4.3053603730E-03    4.2179374549E-03
    4.1322787087E-03    4.0483488791E-03    3.9661134045E-03    3.8855384040E-03
    3.8065906640E-03    3.7292376252E-03    3.6534473706E-03    3.5791886125E-03
    3.5064306807E-03    3.4351435106E-03    3.3652976311E-03    3.2968641539E-03
    3.2298147615E-03    3.1641216964E-03    3.0997577506E-03    3.0366962543E-03
    2.9749110662E-03    2.9143765625E-03    2.8550676275E-03    2.7969596434E-03
    2.7400284807E-03    2.6842504887E-03    2.6296024861E-03    2.5760617522E-03
    2.5236060173E-03    2.4722134547E-03    2.4218626713E-03    2.3725326998E-03
    2.3242029898E-03    2.2768534001E-03    2.2304641906E-03    2.1850160142E-03
    2.1404899094E-03    2.0968672927E-03    2.0541299510E-03    2.0122600348E-03
    1.9712400505E-03    1.9310528536E-03    1.8916816422E-03    1.8531099499E-03
    1.8153216391E-03    1.7783008951E-03    1.7420322192E-03    1.7065004225E-03
    1.6716906203E-03    1.6375882255E-03    1.6041789432E-03    1.5714487647E-03
    1.5393839619E-03    1.5079710816E-03    1.4771969406E-03    1.4470486196E-03
    1.4175134586E-03    1.3885790517E-03    1.3602332415E-03    1.3324641151E-03
    1.3052599984E-03    1.2786094519E-03    1.2525012660E-03    1.2269244560E-03
    1.2018682584E-03    1.1773221256E-03    1.1532757226E-03    1.1297189219E-03
    1.1066417999E-03    1.0840346327E-03    1.0618878920E-03    1.0401922416E-03
    1.0189385331E-03    9.9811780227E-04    9.7772126581E-04    9.5774031719E-04
    9.3816652343E-04    9.1899162154E-04    9.0020751517E-04    8.8180627129E-04
    8.6378011689E-04    8.4612143581E-04    8.2882276561E-04    8.1187679448E-04
    7.9527635826E-04    7.7901443747E-04    7.6308415439E-04    7.4747877028E-04
    7.3219168254E-04    7.1721642205E-04    7.0254665042E-04    6.8817615742E-04
    6.7409885843E-04    6.6030879186E-04    6.4680011673E-04    6.3356711025E-04
    6.2060416540E-04    6.0790578869E-04    5.9546659780E-04    5.8328131940E-04
    5.7134478694E-04    5.5965193849E-04    5.4819781467E-04    5.3697755657E-04
    5.2598640374E-04    5.1521969218E-04    5.0467285245E-04    4.9434140772E-04
    4.8422097193E-04    4.7430724795E-04    4.6459602581E-04    4.5508318092E-04
    4.4576467236E-04    4.3663654121E-04    4.2769490885E-04    4.1893597540E-04
    4.1035601809E-04    4.0195138973E-04    3.9371851715E-04    3.8565389976E-04
    3.7775410804E-04    3.7001578211E-04    3.6243563036E-04    3.5501042802E-04
    3.4773701584E-04    3.4061229877E-04    3.3363324466E-04    3.2679688296E-04
    3.2010030350E-04    3.1354065529E-04    3.0711514528E-04    3.0082103720E-04
    2.9465565044E-04    2.8861635889E-04    2.8270058984E-04    2.7690582293E-04
    2.7122958905E-04    2.6566946932E-04    2.6022309410E-04    2.5488814193E-04
    2.4966233861E-04    2.4454345622E-04    2.3952931218E-04    2.3461776835E-04
    2.2980673010E-04    2.2509414545E-04    2.2047800418E-04    2.1595633704E-04
    2.1152721484E-04    2.0718874770E-04    2.0293908423E-04    1.9877641074E-04
    1.9469895049E-04    1.9070496293E-04    1.8679274297E-04    1.8296062027E-04
    1.7920695852E-04    1.7553015475E-04    1.7192863865E-04    1.6840087193E-04
    1.6494534763E-04    1.6156058953E-04    1.5824515149E-04    1.5499761685E-04
    1.5181659784E-04    1.4870073497E-04    1.4564869648E-04    1.4265917777E-04
    1.3973090082E-04    1.3686261371E-04    1.3405309003E-04    1.3130112838E-04
    1.2860555187E-04    1.2596520764E-04    1.2337896631E-04    1.2084572156E-04
    1.1836438965E-04    1.1593390894E-04    1.1355323944E-04    1.1122136241E-04
    1.0893727988E-04    1.0670001426E-04    1.0450860789E-04    1.0236212267E-04
    1.0025963966E-04    9.8200258650E-05    9.6183097830E-05    9.4207293381E-05
    9.2271999121E-05    9.0376386144E-05    8.8519642469E-05    8.6700972694E-05
    8.4919597659E-05    8.3174754115E-05    8.1465694401E-05    7.9791686125E-05
    7.8152011851E-05    7.6545968799E-05    7.4972868543E-05    7.3432036720E-05
    7.1922812741E-05    7.0444549513E-05    6.8996613164E-05    6.7578382771E-05
    6.6189250098E-05    6.4828619336E-05    6.3495906852E-05    6.2190540938E-05
    6.0911961569E-05    5.9659620167E-05    5.8432979362E-05    5.7231512770E-05
    5.6054704764E-05    5.4902050258E-05    5.3773054488E-05    5.2667232806E-05
    5.1584110471E-05    5.0523222448E-05    4.9484113208E-05    4.8466336537E-05
    4.7469455345E-05    4.6493041477E-05    4.5536675535E-05    4.4599946696E-05
    4.3682452540E-05    4.2783798876E-05    4.1903599575E-05    4.1041476404E-05
    4.0197058869E-05    3.9369984053E-05    3.8559896461E-05    3.7766447873E-05
    3.6989297191E-05    3.6228110295E-05    3.5482559901E-05    3.4752325422E-05
    3.4037092830E-05    3.3336554522E-05    3.2650409190E-05    3.1978361691E-05
    3.1320122923E-05    3.0675409700E-05    3.0043944631E-05    2.9425456003E-05
    2.8819677665E-05    2.8226348912E-05    2.7645214378E-05    2.7076023923E-05
    2.6518532527E-05    2.5972500188E-05    2.5437691815E-05    2.4913877132E-05
    2.4400830579E-05    2.3898331212E-05    2.3406162613E-05    2.2924112795E-05
    2.2451974112E-05    2.1989543171E-05    2.1536620743E-05    2.1093011683E-05
    2.0658524838E-05    2.0232972975E-05    1.9816172693E-05    1.9407944350E-05
    1.9008111982E-05    1.8616503232E-05    1.8232949273E-05    1.7857284737E-05
    1.7489347644E-05    1.7128979334E-05    1.6776024397E-05    1.6430330608E-05
    1.6091748861E-05    1.5760133107E-05    1.5435340290E-05    1.5117230284E-05
    1.4805665837E-05    1.4500512510E-05    1.4201638619E-05    1.3908915180E-05
    1.3622215853E-05    1.3341416889E-05    1.3066397073E-05    1.2797037679E-05
    1.2533222412E-05    1.2274837365E-05    1.2021770964E-05    1.1773913923E-05
    1.1531159199E-05    1.1293401942E-05    1.1060539455E-05    1.0832471144E-05
    1.0609098480E-05    1.0390324957E-05    1.0176056044E-05    9.9661991533E-06
    9.7606635942E-06    9.5593605372E-06    9.3622029753E-06    9.1691056867E-06
    8.9799851978E-06    8.7947597481E-06    8.6133492546E-06    8.4356752776E-06
    8.2616609874E-06    8.0912311307E-06    7.9243119986E-06    7.7608313953E-06
    7.6007186066E-06    7.4439043699E-06    7.2903208441E-06    7.1399015810E-06
    6.9925814963E-06    6.8482968419E-06    6.7069851784E-06    6.5685853486E-06
    6.4330374506E-06    6.3002828129E-06    6.1702639684E-06    6.0429246301E-06
    5.9182096672E-06    5.7960650807E-06    5.6764379809E-06    5.5592765643E-06
    5.4445300913E-06    5.3321488646E-06    5.2220842076E-06    5.1142884438E-06
    5.0087148760E-06    4.9053177663E-06    4.8040523165E-06    4.7048746489E-06
    4.6077417872E-06    4.5126116380E-06    4.4194429733E-06    4.3281954118E-06
    4.2388294023E-06    4.1513062064E-06    4.0655878816E-06    3.9816372656E-06
    3.8994179595E-06    3.8188943129E-06    3.7400314080E-06    3.6627950447E-06
    3.5871517262E-06    3.5130686441E-06    3.4405136646E-06    3.3694553144E-06
    3.2998627676E-06    3.2317058318E-06    3.1649549356E-06    3.0995811156E-06
    3.0355560040E-06    2.9728518164E-06    2.9114413397E-06    2.8512979207E-06
    2.7923954541E-06    2.7347083717E-06    2.6782116312E-06    2.6228807054E-06
    2.5686915716E-06    2.5156207012E-06    2.4636450498E-06    2.4127420471E-06
    2.3628895870E-06    2.3140660182E-06    2.2662501352E-06    2.2194211685E-06
    2.1735587761E-06    2.1286430347E-06    2.0846544307E-06    2.0415738524E-06
    1.9993825813E-06    1.9580622842E-06    1.9175950050E-06    1.8779631576E-06
    1.8391495176E-06    1.8011372151E-06    1.7639097277E-06    1.7274508730E-06
    1.6917448018E-06    1.6567759911E-06    1.6225292377E-06    1.5889896511E-06
    1.5561426477E-06    1.5239739440E-06    1.4924695507E-06    1.4616157667E-06
    1.4313991728E-06    1.4018066262E-06    1.3728252550E-06    1.3444424522E-06
    1.3166458705E-06    1.2894234170E-06    1.2627632476E-06    1.2366537627E-06
    1.2110836011E-06    1.1860416359E-06    1.1615169695E-06    1.1374989287E-06
    1.1139770601E-06    1.0909411259E-06    1.0683810990E-06    1.0462871592E-06
    1.0246496883E-06    1.0034592666E-06    9.8270666831E-07    9.6238285784E-07
    9.4247898581E-07    9.2298638522E-07    9.0389656769E-07    8.8520121979E-07
    8.6689219942E-07    8.4896153233E-07    8.3140140865E-07    8.1420417948E-07
    7.9736235361E-07    7.8086859423E-07    7.6471571582E-07    7.4889668099E-07
    7.3340459743E-07    7.1823271495E-07    7.0337442251E-07    6.8882324541E-07
    6.7457284245E-07    6.6061700319E-07    6.4694964527E-07    6.3356481171E-07
    6.2045666844E-07    6.0761950168E-07    5.9504771550E-07    5.8273582937E-07
    5.7067847579E-07    5.5887039799E-07    5.4730644765E-07    5.3598158259E-07
    5.2489086469E-07    5.1402945767E-07    5.0339262502E-07    4.9297572796E-07
    4.8277422341E-07    4.7278366199E-07    4.6299968615E-07    4.5341802824E-07
    4.4403450866E-07    4.3484503406E-07    4.2584559554E-07    4.1703226693E-07
    4.0840120309E-07    3.9994863822E-07    3.9167088424E-07    3.8356432917E-07
    3.7562543560E-07    3.6785073909E-07    3.6023684674E-07    3.5278043567E-07
    3.4547825158E-07    3.3832710735E-07    3.3132388163E-07    3.2446551753E-07
    3.1774902125E-07    3.1117146080E-07    3.0472996470E-07    2.9842172076E-07
    2.9224397487E-07    2.8619402976E-07    2.8026924385E-07    2.7446703011E-07
    2.6878485491E-07    2.6322023696E-07    2.5777074619E-07    2.5243400272E-07
    2.4720767581E-07    2.4208948284E-07    2.3707718833E-07    2.3216860300E-07
    2.2736158274E-07    2.2265402775E-07    2.1804388159E-07    2.1352913028E-07
    2.0910780147E-07    2.0477796352E-07    2.0053772470E-07    1.9638523236E-07
    1.9231867211E-07    1.8833626704E-07    1.8443627696E-07    1.8061699763E-07
    1.7687676000E-07    1.7321392951E-07    1.6962690536E-07    1.6611411986E-07
    1.6267403766E-07    1.5930515518E-07    1.5600599986E-07    1.5277512960E-07
    1.4961113209E-07    1.4651262421E-07    1.4347825139E-07    1.4050668710E-07
    1.3759663218E-07    1.3474681433E-07    1.3195598756E-07    1.2922293161E-07
    1.2654645146E-07    1.2392537676E-07    1.2135856136E-07    1.1884488282E-07
    1.1638324187E-07    1.1397256198E-07    1.1161178887E-07    1.0929989003E-07
    1.0703585433E-07    1.0481869151E-07    1.0264743179E-07    1.0052112545E-07
    9.8438842382E-08    9.6399671721E-08    9.4402721431E-08    9.2447117914E-08
    9.0532005636E-08    8.8656546750E-08    8.6819920729E-08    8.5021324013E-08
    8.3259969661E-08    8.1535086999E-08    7.9845921288E-08    7.8191733397E-08
    7.6571799475E-08    7.4985410643E-08    7.3431872681E-08    7.1910505724E-08
    7.0420643966E-08    6.8961635369E-08    6.7532841377E-08    6.6133636648E-08
    6.4763408768E-08    6.3421557988E-08    6.2107496965E-08    6.0820650501E-08
    5.9560455297E-08    5.8326359706E-08    5.7117823491E-08    5.5934317586E-08
    5.4775323873E-08    5.3640334945E-08    5.2528853897E-08    5.1440394102E-08
    5.0374478997E-08    4.9330641881E-08    4.8308425702E-08    4.7307382867E-08
    4.6327075042E-08    4.5367072963E-08    4.4426956244E-08    4.3506313200E-08
    4.2604740657E-08    4.1721843788E-08    4.0857235933E-08    4.0010538434E-08
    3.9181380465E-08    3.8369398875E-08    3.7574238025E-08    3.6795549635E-08
    3.6032992633E-08    3.5286233006E-08    3.4554943650E-08    3.3838804231E-08
    3.3137501041E-08    3.2450726867E-08    3.1778180854E-08    3.1119568372E-08
    3.0474600888E-08    2.9842995841E-08    2.9224476515E-08    2.8618771924E-08
    2.8025616691E-08    2.7444750929E-08    2.6875920131E-08    2.6318875058E-08
    2.5773371626E-08    2.5239170809E-08    2.4716038524E-08    2.4203745536E-08
    2.3702067354E-08    2.3210784131E-08    2.2729680573E-08    2.2258545844E-08
    2.1797173471E-08    2.1345361254E-08    2.0902911181E-08    2.0469629337E-08
    2.0045325821E-08    1.9629814664E-08    1.9222913750E-08    1.8824444728E-08
    1.8434232944E-08    1.8052107355E-08    1.7677900463E-08    1.7311448235E-08
    1.6952590038E-08    1.6601168562E-08    1.6257029753E-08    1.5920022748E-08
    1.5589999808E-08    1.5266816253E-08    1.4950330397E-08    1.4640403490E-08
    1.4336899654E-08    1.4039685824E-08    1.3748631690E-08    1.3463609642E-08
    1.3184494710E-08    1.2911164515E-08    1.2643499210E-08    1.2381381430E-08
    1.2124696241E-08    1.1873331087E-08    1.1627175746E-08    1.1386122278E-08
    1.1150064976E-08    1.0918900325E-08    1.0692526952E-08    1.0470845582E-08
    1.0253759001E-08    1.0041172004E-08    9.8329913588E-09    9.6291257649E-09
    9.4294858118E-09    9.2339839407E-09    9.0425344076E-09    8.8550532437E-09
    8.6714582194E-09    8.4916688081E-09    8.3156061514E-09    8.1431930232E-09
    7.9743537987E-09    7.8090144190E-09    7.6471023590E-09    7.4885465959E-09
    7.3332775780E-09    7.1812271939E-09    7.0323287438E-09    6.8865169098E-09
    6.7437277266E-09    6.6038985541E-09    6.4669680495E-09    6.3328761407E-09
    6.2015640003E-09    6.0729740200E-09    5.9470497845E-09    5.8237360474E-09
    5.7029787067E-09    5.5847247810E-09    5.4689223863E-09    5.3555207146E-09
    5.2444700099E-09    5.1357215470E-09    5.0292276102E-09    4.9249414725E-09
    4.8228173744E-09    4.7228105053E-09    4.6248769827E-09    4.5289738336E-09
    4.4350589751E-09    4.3430911960E-09    4.2530301393E-09    4.1648362836E-09
    4.0784709275E-09    3.9938961708E-09    3.9110748988E-09    3.8299707657E-09
    3.7505481789E-09    3.6727722828E-09    3.5966089449E-09    3.5220247396E-09
    3.4489869341E-09    3.3774634736E-09    3.3074229677E-09    3.2388346764E-09
    3.1716684963E-09    3.1058949487E-09    3.0414851654E-09    2.9784108764E-09
    2.9166443974E-09    2.8561586179E-09    2.7969269890E-09    2.7389235124E-09
    2.6821227285E-09    2.6264997052E-09    2.5720300273E-09    2.5186897852E-09
    2.4664555650E-09    2.4153044379E-09    2.3652139507E-09    2.3161621153E-09
    2.2681273994E-09    2.2210887168E-09    2.1750254184E-09    2.1299172828E-09
    2.0857445081E-09    2.0424877028E-09    2.0001278771E-09    1.9586464350E-09
    1.9180251656E-09    1.8782462359E-09    1.8392921817E-09    1.8011459018E-09
    1.7637906489E-09    1.7272100230E-09    1.6913879639E-09    1.6563087443E-09
    1.6219569630E-09    1.5883175376E-09    1.5553756990E-09    1.5231169839E-09
    1.4915272288E-09    1.4605925638E-09    1.4302994066E-09    1.4006344560E-09
    1.3715846870E-09    1.3431373446E-09    1.3152799379E-09    1.2880002352E-09
    1.2612862582E-09    1.2351262769E-09    1.2095088044E-09    1.1844225920E-09
    1.1598566244E-09    1.1358001142E-09    1.1122424981E-09    1.0891734315E-09
    1.0665827842E-09    1.0444606360E-09    1.0227972725E-09    1.0015831808E-09
    9.8080904486E-10    9.6046574210E-10    9.4054433888E-10    9.2103608678E-10
    9.0193241859E-10    8.8322494506E-10    8.6490545070E-10    8.4696589034E-10
    8.2939838560E-10    8.1219522142E-10    7.9534884268E-10    7.7885185076E-10
    7.6269700073E-10    7.4687719774E-10    7.3138549401E-10    7.1621508581E-10
    7.0135931047E-10    6.8681164342E-10    6.7256569527E-10    6.5861520939E-10
    6.4495405869E-10    6.3157624316E-10    6.1847588716E-10    6.0564723688E-10
    5.9308465779E-10    5.8078263207E-10    5.6873575659E-10    5.5693874008E-10
    5.4538640101E-10    5.3407366528E-10    5.2299556397E-10    5.1214723120E-10
    5.0152390189E-10    4.9112090996E-10    4.8093368599E-10    4.7095775530E-10
    4.6118873600E-10    4.5162233704E-10    4.4225435633E-10    4.3308067885E-10
    4.2409727508E-10    4.1530019898E-10    4.0668558631E-10    3.9824965298E-10
    3.8998869333E-10    3.8189907857E-10    3.7397725505E-10    3.6621974298E-10
    3.5862313467E-10    3.5118409308E-10    3.4389935035E-10    3.3676570641E-10
    3.2978002752E-10    3.2293924487E-10    3.1624035340E-10    3.0968041033E-10
    3.0325653390E-10    2.9696590211E-10    2.9080575146E-10    2.8477337577E-10
    2.7886612493E-10    2.7308140383E-10    2.6741667121E-10    2.6186943849E-10
    2.5643726868E-10    2.5111777533E-10    2.4590862148E-10    2.4080751860E-10
    2.3581222563E-10    2.3092054804E-10    2.2613033679E-10    2.2143948740E-10
    2.1684593902E-10    2.1234767353E-10    2.0794271470E-10    2.0362912717E-10
    1.9940501588E-10    1.9526852499E-10    1.9121783717E-10    1.8725117276E-10
    1.8336678900E-10    1.7956297928E-10    1.7583807237E-10    1.7219043170E-10
    1.6861845471E-10    1.6512057200E-10    1.6169524675E-10    1.5834097400E-10
    1.5505628001E-10    1.5183972158E-10    1.4868988543E-10    1.4560538766E-10
    1.4258487303E-10    1.3962701442E-10    1.3673051222E-10    1.3389409377E-10
    1.3111651282E-10    1.2839654891E-10    1.2573300696E-10    1.2312471669E-10
    1.2057053204E-10    1.1806933075E-10    1.1562001382E-10    1.1322150504E-10
    1.1087275052E-10    1.0857271821E-10    1.0632039753E-10    1.0411479882E-10
    1.0195495295E-10    9.9839910874E-11    9.7768743257E-11    9.5740540017E-11
    9.3754409926E-11    9.1809480294E-11    8.9904896517E-11    8.8039821706E-11
    8.6213436333E-11    8.4424937866E-11    8.2673540416E-11    8.0958474387E-11
    7.9278986140E-11    7.7634337707E-11    7.6023806402E-11    7.4446684530E-11
    7.2902279073E-11    7.1389911386E-11    6.9908916900E-11    6.8458644810E-11
    6.7038457844E-11    6.5647731944E-11    6.4285855988E-11    6.2952231530E-11
    6.1646272536E-11    6.0367405126E-11    5.9115067322E-11    5.7888708784E-11
    5.6687790630E-11    5.5511785137E-11    5.4360175525E-11    5.3232455733E-11
    5.2128130197E-11    5.1046713631E-11    4.9987730808E-11    4.8950716359E-11
    4.7935214591E-11    4.6940779246E-11    4.5966973327E-11    4.5013368896E-11
    4.4079546896E-11    4.3165096957E-11    4.2269617213E-11    4.1392714148E-11
    4.0534002416E-11    3.9693104653E-11    3.8869651323E-11    3.8063280558E-11
    3.7273637992E-11    3.6500376610E-11    3.5743156583E-11    3.5001645155E-11
    3.4275516466E-11    3.3564451411E-11    3.2868137507E-11    3.2186268748E-11
    3.1518545479E-11    3.0864674258E-11    3.0224367717E-11    2.9597344478E-11
    2.8983328987E-11    2.8382051405E-11    2.7793247489E-11    2.7216658478E-11
    2.6652030979E-11    2.6099116852E-11    2.5557673096E-11    2.5027461775E-11
    2.4508249876E-11    2.3999809219E-11    2.3501916358E-11    2.3014352480E-11
    2.2536903315E-11    2.2069359029E-11    2.1611514142E-11    2.1163167450E-11
    2.0724121915E-11    2.0294184586E-11    1.9873166515E-11    1.9460882671E-11
    1.9057151863E-11    1.8661796656E-11
   </PP_CHI.3>
   <PP_CHI.4
       type="real"
       size="1338"
       columns="4"
       index="4"
       occupation=" 3.600"
       pseudo_energy="   -0.4302321206E+00"
       label="5D"
       l="2" >
    1.8290295493E-13    1.3416152660E-06    1.0730331854E-05    3.6200304368E-05
    8.5759816550E-05    1.6737840253E-04    2.8897403599E-04    4.5840040973E-04
    6.8343432771E-04    9.7176323181E-04    1.3309728847E-03    1.7685352308E-03
    2.2917964554E-03    2.9079652637E-03    3.6241013991E-03    4.4471044209E-03
    5.3837027603E-03    6.4404430735E-03    7.6236799094E-03    8.9395657105E-03
    1.0394041162E-02    1.1992825905E-02    1.3741409635E-02    1.5645043587E-02
    1.7708732434E-02    1.9937226609E-02    2.2335015055E-02    2.4906318423E-02
    2.7655082726E-02    3.0584973452E-02    3.3699370157E-02    3.7001361534E-02
    4.0493740971E-02    4.4179002600E-02    4.8059337852E-02    5.2136632501E-02
    5.6412464224E-02    6.0888100664E-02    6.5564498000E-02    7.0442300028E-02
    7.5521837750E-02    8.0803129464E-02    8.6285881363E-02    9.1969488633E-02
    9.7853037046E-02    1.0393530504E-01    1.1021476630E-01    1.1668959278E-01
    1.2335765823E-01    1.3021654219E-01    1.3726353441E-01    1.4449563969E-01
    1.5190958322E-01    1.5950181632E-01    1.6726852250E-01    1.7520562406E-01
    1.8330878897E-01    1.9157343814E-01    1.9999475304E-01    2.0856768372E-01
    2.1728695703E-01    2.2614708529E-01    2.3514237512E-01    2.4426693665E-01
    2.5351469289E-01    2.6287938944E-01    2.7235460434E-01    2.8193375815E-01
    2.9161012426E-01    3.0137683926E-01    3.1122691356E-01    3.2115324212E-01
    3.3114861523E-01    3.4120572945E-01    3.5131719857E-01    3.6147556468E-01
    3.7167330922E-01    3.8190286407E-01    3.9215662263E-01    4.0242695088E-01
    4.1270619842E-01    4.2298670941E-01    4.3326083345E-01    4.4352093639E-01
    4.5375941099E-01    4.6396868745E-01    4.7414124388E-01    4.8426961643E-01
    4.9434640946E-01    5.0436430531E-01    5.1431607403E-01    5.2419458273E-01
    5.3399280486E-01    5.4370382908E-01    5.5332086795E-01    5.6283726636E-01
    5.7224650957E-01    5.8154223108E-01    5.9071822009E-01    5.9976842866E-01
    6.0868697859E-01    6.1746816788E-01    6.2610647689E-01    6.3459657417E-01
    6.4293332184E-01    6.5111178073E-01    6.5912721501E-01    6.6697509654E-01
    6.7465110881E-01    6.8215115049E-01    6.8947133863E-01    6.9660801139E-01
    7.0355773048E-01    7.1031728317E-01    7.1688368389E-01    7.2325417552E-01
    7.2942623019E-01    7.3539754981E-01    7.4116606616E-01    7.4672994061E-01
    7.5208756354E-01    7.5723755330E-01    7.6217875491E-01    7.6691023834E-01
    7.7143129652E-01    7.7574144301E-01    7.7984040924E-01    7.8372814164E-01
    7.8740479828E-01    7.9087074532E-01    7.9412655319E-01    7.9717299242E-01
    8.0001102930E-01    8.0264182125E-01    8.0506671198E-01    8.0728722640E-01
    8.0930506537E-01    8.1112210022E-01    8.1274036710E-01    8.1416206121E-01
    8.1538953076E-01    8.1642527096E-01    8.1727191773E-01    8.1793224141E-01
    8.1840914031E-01    8.1870563420E-01    8.1882485777E-01    8.1877005394E-01
    8.1854456724E-01    8.1815183710E-01    8.1759539111E-01    8.1687883834E-01
    8.1600586266E-01    8.1498021599E-01    8.1380571174E-01    8.1248621820E-01
    8.1102565197E-01    8.0942797156E-01    8.0769717099E-01    8.0583727350E-01
    8.0385232537E-01    8.0174638987E-01    7.9952354129E-01    7.9718785913E-01
    7.9474342242E-01    7.9219430419E-01    7.8954456603E-01    7.8679825295E-01
    7.8395938824E-01    7.8103196861E-01    7.7801995944E-01    7.7492729029E-01
    7.7175785045E-01    7.6851548487E-01    7.6520399009E-01    7.6182711049E-01
    7.5838853465E-01    7.5489189198E-01    7.5134074948E-01    7.4773860874E-01
    7.4408890309E-01    7.4039499500E-01    7.3666017366E-01    7.3288765268E-01
    7.2908056811E-01    7.2524197657E-01    7.2137485353E-01    7.1748209190E-01
    7.1356650068E-01    7.0963080387E-01    7.0567763948E-01    7.0170955881E-01
    6.9772902581E-01    6.9373841666E-01    6.8974001946E-01    6.8573603416E-01
    6.8172857253E-01    6.7771965834E-01    6.7371122772E-01    6.6970512957E-01
    6.6570312614E-01    6.6170689378E-01    6.5771802373E-01    6.5373802306E-01
    6.4976831579E-01    6.4581024397E-01    6.4186506902E-01    6.3793397303E-01
    6.3401806025E-01    6.3011835860E-01    6.2623582132E-01    6.2237132861E-01
    6.1852568942E-01    6.1469964329E-01    6.1089386220E-01    6.0710895252E-01
    6.0334545704E-01    5.9960385694E-01    5.9588457393E-01    5.9218797234E-01
    5.8851436126E-01    5.8486399672E-01    5.8123708392E-01    5.7763377941E-01
    5.7405419336E-01    5.7049839177E-01    5.6696639878E-01    5.6345819888E-01
    5.5997373920E-01    5.5651293176E-01    5.5307565572E-01    5.4966175965E-01
    5.4627106370E-01    5.4290336185E-01    5.3955842412E-01    5.3623599868E-01
    5.3293581406E-01    5.2965758120E-01    5.2640099556E-01    5.2316573919E-01
    5.1995148266E-01    5.1675788712E-01    5.1358460614E-01    5.1043128763E-01
    5.0729757567E-01    5.0418311224E-01    5.0108753901E-01    4.9801049892E-01
    4.9495163787E-01    4.9191060621E-01    4.8888706024E-01    4.8588066362E-01
    4.8289108874E-01    4.7991801799E-01    4.7696114494E-01    4.7402017553E-01
    4.7109482912E-01    4.6818483943E-01    4.6528995552E-01    4.6240994257E-01
    4.5954458264E-01    4.5669367537E-01    4.5385703850E-01    4.5103450846E-01
    4.4822594075E-01    4.4543121032E-01    4.4265021176E-01    4.3988285953E-01
    4.3712908800E-01    4.3438885151E-01    4.3166212419E-01    4.2894889958E-01
    4.2624918548E-01    4.2356299760E-01    4.2089034909E-01    4.1823124859E-01
    4.1558570102E-01    4.1295370965E-01    4.1033527697E-01    4.0773040272E-01
    4.0513908436E-01    4.0256131751E-01    3.9999709585E-01    3.9744641116E-01
    3.9490925344E-01    3.9238561091E-01    3.8987547014E-01    3.8737881605E-01
    3.8489563199E-01    3.8242589981E-01    3.7996959989E-01    3.7752671118E-01
    3.7509721129E-01    3.7268107651E-01    3.7027828187E-01    3.6788880117E-01
    3.6551260703E-01    3.6314967096E-01    3.6079996334E-01    3.5846345352E-01
    3.5614010985E-01    3.5382989966E-01    3.5153278940E-01    3.4924874455E-01
    3.4697772978E-01    3.4471970888E-01    3.4247464485E-01    3.4024249993E-01
    3.3802323559E-01    3.3581681261E-01    3.3362319107E-01    3.3144233039E-01
    3.2927418937E-01    3.2711872619E-01    3.2497589846E-01    3.2284566323E-01
    3.2072797700E-01    3.1862279578E-01    3.1653007509E-01    3.1444976995E-01
    3.1238183498E-01    3.1032622433E-01    3.0828289176E-01    3.0625179065E-01
    3.0423287397E-01    3.0222609438E-01    3.0023140417E-01    2.9824875531E-01
    2.9627809949E-01    2.9431938807E-01    2.9237257216E-01    2.9043760260E-01
    2.8851442998E-01    2.8660300466E-01    2.8470327676E-01    2.8281519622E-01
    2.8093871275E-01    2.7907377588E-01    2.7722033499E-01    2.7537833927E-01
    2.7354773776E-01    2.7172847937E-01    2.6992051284E-01    2.6812378684E-01
    2.6633824987E-01    2.6456385037E-01    2.6280053664E-01    2.6104825692E-01
    2.5930695936E-01    2.5757659204E-01    2.5585710296E-01    2.5414844007E-01
    2.5245055128E-01    2.5076338443E-01    2.4908688735E-01    2.4742100780E-01
    2.4576569356E-01    2.4412089236E-01    2.4248655192E-01    2.4086261996E-01
    2.3924904419E-01    2.3764577233E-01    2.3605275210E-01    2.3446993123E-01
    2.3289725749E-01    2.3133467864E-01    2.2978214250E-01    2.2823959689E-01
    2.2670698969E-01    2.2518426881E-01    2.2367138221E-01    2.2216827789E-01
    2.2067490390E-01    2.1919120837E-01    2.1771713946E-01    2.1625264541E-01
    2.1479767452E-01    2.1335217517E-01    2.1191609581E-01    2.1048938497E-01
    2.0907199124E-01    2.0766386332E-01    2.0626494999E-01    2.0487520012E-01
    2.0349456265E-01    2.0212298666E-01    2.0076042130E-01    1.9940681581E-01
    1.9806211957E-01    1.9672628203E-01    1.9539925279E-01    1.9408098152E-01
    1.9277141803E-01    1.9147051224E-01    1.9017821420E-01    1.8889447406E-01
    1.8761924213E-01    1.8635246880E-01    1.8509410463E-01    1.8384410030E-01
    1.8260240661E-01    1.8136897451E-01    1.8014375508E-01    1.7892669956E-01
    1.7771775930E-01    1.7651688581E-01    1.7532403077E-01    1.7413914596E-01
    1.7296218336E-01    1.7179309506E-01    1.7063183334E-01    1.6947835061E-01
    1.6833259945E-01    1.6719453259E-01    1.6606410293E-01    1.6494126355E-01
    1.6382596765E-01    1.6271816864E-01    1.6161782008E-01    1.6052487569E-01
    1.5943928938E-01    1.5836101522E-01    1.5729000747E-01    1.5622622055E-01
    1.5516960906E-01    1.5412012778E-01    1.5307773168E-01    1.5204237589E-01
    1.5101401574E-01    1.4999260674E-01    1.4897810459E-01    1.4797046517E-01
    1.4696964454E-01    1.4597559896E-01    1.4498828489E-01    1.4400765895E-01
    1.4303367799E-01    1.4206629902E-01    1.4110547926E-01    1.4015117613E-01
    1.3920334724E-01    1.3826195038E-01    1.3732694357E-01    1.3639828501E-01
    1.3547593310E-01    1.3455984644E-01    1.3364998384E-01    1.3274630430E-01
    1.3184876703E-01    1.3095733144E-01    1.3007195714E-01    1.2919260395E-01
    1.2831923190E-01    1.2745180121E-01    1.2659027232E-01    1.2573460586E-01
    1.2488476269E-01    1.2404070386E-01    1.2320239062E-01    1.2236978446E-01
    1.2154284704E-01    1.2072154025E-01    1.1990582619E-01    1.1909566716E-01
    1.1829102567E-01    1.1749186445E-01    1.1669814641E-01    1.1590983471E-01
    1.1512689270E-01    1.1434928392E-01    1.1357697216E-01    1.1280992138E-01
    1.1204809578E-01    1.1129145975E-01    1.1053997791E-01    1.0979361506E-01
    1.0905233623E-01    1.0831610665E-01    1.0758489177E-01    1.0685865724E-01
    1.0613736892E-01    1.0542099288E-01    1.0470949538E-01    1.0400284292E-01
    1.0330100219E-01    1.0260394007E-01    1.0191162369E-01    1.0122402033E-01
    1.0054109753E-01    9.9862823001E-02    9.9189164666E-02    9.8520090656E-02
    9.7855569306E-02    9.7195569151E-02    9.6540058931E-02    9.5889007588E-02
    9.5242384265E-02    9.4600158307E-02    9.3962299258E-02    9.3328776862E-02
    9.2699561064E-02    9.2074622007E-02    9.1453930029E-02    9.0837455669E-02
    9.0225169661E-02    8.9617042934E-02    8.9013046614E-02    8.8413152018E-02
    8.7817330661E-02    8.7225554247E-02    8.6637794673E-02    8.6054024029E-02
    8.5474214594E-02    8.4898338837E-02    8.4326369414E-02    8.3758279171E-02
    8.3194041141E-02    8.2633628543E-02    8.2077014780E-02    8.1524173442E-02
    8.0975078300E-02    8.0429703309E-02    7.9888022607E-02    7.9350010510E-02
    7.8815641516E-02    7.8284890303E-02    7.7757731723E-02    7.7234140811E-02
    7.6714092773E-02    7.6197562993E-02    7.5684527029E-02    7.5174960611E-02
    7.4668839644E-02    7.4166140202E-02    7.3666838530E-02    7.3170911043E-02
    7.2678334324E-02    7.2189085123E-02    7.1703140359E-02    7.1220477113E-02
    7.0741072632E-02    7.0264904327E-02    6.9791949771E-02    6.9322186698E-02
    6.8855593003E-02    6.8392146740E-02    6.7931826122E-02    6.7474609519E-02
    6.7020475457E-02    6.6569402619E-02    6.6121369840E-02    6.5676356110E-02
    6.5234340571E-02    6.4795302515E-02    6.4359221388E-02    6.3926076780E-02
    6.3495848433E-02    6.3068516236E-02    6.2644060222E-02    6.2222460571E-02
    6.1803697608E-02    6.1387751798E-02    6.0974603753E-02    6.0564234221E-02
    6.0156624093E-02    5.9751754400E-02    5.9349606309E-02    5.8950161125E-02
    5.8553400290E-02    5.8159305380E-02    5.7767858106E-02    5.7379040313E-02
    5.6992833976E-02    5.6609221202E-02    5.6228184231E-02    5.5849705428E-02
    5.5473767290E-02    5.5100352440E-02    5.4729443627E-02    5.4361023726E-02
    5.3995075736E-02    5.3631582780E-02    5.3270528106E-02    5.2911895079E-02
    5.2555667188E-02    5.2201828041E-02    5.1850361366E-02    5.1501251008E-02
    5.1154480929E-02    5.0810035207E-02    5.0467898036E-02    5.0128053725E-02
    4.9790486695E-02    4.9455181480E-02    4.9122122728E-02    4.8791295194E-02
    4.8462683747E-02    4.8136273361E-02    4.7812049122E-02    4.7489996222E-02
    4.7170099958E-02    4.6852345736E-02    4.6536719065E-02    4.6223205557E-02
    4.5911790929E-02    4.5602461001E-02    4.5295201692E-02    4.4989999025E-02
    4.4686839120E-02    4.4385708198E-02    4.4086592578E-02    4.3789478676E-02
    4.3494353007E-02    4.3201202179E-02    4.2910012898E-02    4.2620771963E-02
    4.2333466268E-02    4.2048082798E-02    4.1764608632E-02    4.1483030941E-02
    4.1203336985E-02    4.0925514116E-02    4.0649549774E-02    4.0375431488E-02
    4.0103146876E-02    3.9832683641E-02    3.9564029576E-02    3.9297172556E-02
    3.9032100544E-02    3.8768801587E-02    3.8507263815E-02    3.8247475441E-02
    3.7989424763E-02    3.7733100156E-02    3.7478490082E-02    3.7225583080E-02
    3.6974367769E-02    3.6724832848E-02    3.6476967096E-02    3.6230759367E-02
    3.5986198595E-02    3.5743273789E-02    3.5501974037E-02    3.5262288499E-02
    3.5024206412E-02    3.4787717088E-02    3.4552809910E-02    3.4319474339E-02
    3.4087699904E-02    3.3857476209E-02    3.3628792928E-02    3.3401639807E-02
    3.3176006661E-02    3.2951883377E-02    3.2729259909E-02    3.2508126282E-02
    3.2288472589E-02    3.2070288988E-02    3.1853565708E-02    3.1638293043E-02
    3.1424461352E-02    3.1212061062E-02    3.1001082663E-02    3.0791516711E-02
    3.0583353826E-02    3.0376584692E-02    3.0171200055E-02    2.9967190725E-02
    2.9764547573E-02    2.9563261534E-02    2.9363323602E-02    2.9164724832E-02
    2.8967456341E-02    2.8771509305E-02    2.8576874959E-02    2.8383544598E-02
    2.8191509575E-02    2.8000761301E-02    2.7811291245E-02    2.7623090933E-02
    2.7436151949E-02    2.7250465932E-02    2.7066024577E-02    2.6882819636E-02
    2.6700842916E-02    2.6520086277E-02    2.6340541635E-02    2.6162200959E-02
    2.5985056273E-02    2.5809099654E-02    2.5634323229E-02    2.5460719182E-02
    2.5288279745E-02    2.5116997203E-02    2.4946863895E-02    2.4777872206E-02
    2.4610014575E-02    2.4443283491E-02    2.4277671492E-02    2.4113171164E-02
    2.3949775146E-02    2.3787476122E-02    2.3626266826E-02    2.3466140041E-02
    2.3307088595E-02    2.3149105367E-02    2.2992183281E-02    2.2836315306E-02
    2.2681494461E-02    2.2527713810E-02    2.2374966460E-02    2.2223245567E-02
    2.2072544331E-02    2.1922855996E-02    2.1774173850E-02    2.1626491227E-02
    2.1479801505E-02    2.1334098102E-02    2.1189374485E-02    2.1045624158E-02
    2.0902840671E-02    2.0761017617E-02    2.0620148629E-02    2.0480227383E-02
    2.0341247596E-02    2.0203203026E-02    2.0066087472E-02    1.9929894775E-02
    1.9794618815E-02    1.9660253511E-02    1.9526792825E-02    1.9394230757E-02
    1.9262561344E-02    1.9131778666E-02    1.9001876839E-02    1.8872850018E-02
    1.8744692398E-02    1.8617398209E-02    1.8490961721E-02    1.8365377241E-02
    1.8240639112E-02    1.8116741716E-02    1.7993679470E-02    1.7871446828E-02
    1.7750038281E-02    1.7629448355E-02    1.7509671612E-02    1.7390702649E-02
    1.7272536100E-02    1.7155166633E-02    1.7038588950E-02    1.6922797789E-02
    1.6807787921E-02    1.6693554151E-02    1.6580091321E-02    1.6467394302E-02
    1.6355458003E-02    1.6244277362E-02    1.6133847354E-02    1.6024162984E-02
    1.5915219289E-02    1.5807011342E-02    1.5699534246E-02    1.5592783134E-02
    1.5486753174E-02    1.5381439565E-02    1.5276837534E-02    1.5172942344E-02
    1.5069749286E-02    1.4967253682E-02    1.4865450885E-02    1.4764336278E-02
    1.4663905274E-02    1.4564153316E-02    1.4465075878E-02    1.4366668462E-02
    1.4268926600E-02    1.4171845852E-02    1.4075421809E-02    1.3979650090E-02
    1.3884526341E-02    1.3790046238E-02    1.3696205486E-02    1.3602999817E-02
    1.3510424989E-02    1.3418476792E-02    1.3327151040E-02    1.3236443575E-02
    1.3146350267E-02    1.3056867013E-02    1.2967989737E-02    1.2879714387E-02
    1.2792036940E-02    1.2704953400E-02    1.2618459796E-02    1.2532552181E-02
    1.2447226638E-02    1.2362479271E-02    1.2278306213E-02    1.2194703622E-02
    1.2111667678E-02    1.2029194590E-02    1.1947280590E-02    1.1865921933E-02
    1.1785114902E-02    1.1704855801E-02    1.1625140961E-02    1.1545966735E-02
    1.1467329502E-02    1.1389225661E-02    1.1311651639E-02    1.1234603883E-02
    1.1158078866E-02    1.1082073082E-02    1.1006583048E-02    1.0931605306E-02
    1.0857136419E-02    1.0783172972E-02    1.0709711574E-02    1.0636748856E-02
    1.0564281470E-02    1.0492306090E-02    1.0420819413E-02    1.0349818157E-02
    1.0279299063E-02    1.0209258890E-02    1.0139694421E-02    1.0070602461E-02
    1.0001979833E-02    9.9338233835E-03    9.8661299778E-03    9.7988965031E-03
    9.7321198667E-03    9.6657969963E-03    9.5999248397E-03    9.5345003648E-03
    9.4695205597E-03    9.4049824321E-03    9.3408830094E-03    9.2772193388E-03
    9.2139884868E-03    9.1511875393E-03    9.0888136013E-03    9.0268637970E-03
    8.9653352696E-03    8.9042251811E-03    8.8435307121E-03    8.7832490621E-03
    8.7233774489E-03    8.6639131086E-03    8.6048532958E-03    8.5461952829E-03
    8.4879363607E-03    8.4300738376E-03    8.3726050399E-03    8.3155273117E-03
    8.2588380144E-03    8.2025345272E-03    8.1466142463E-03    8.0910745854E-03
    8.0359129751E-03    7.9811268632E-03    7.9267137143E-03    7.8726710098E-03
    7.8189962477E-03    7.7656869428E-03    7.7127406263E-03    7.6601548455E-03
    7.6079271644E-03    7.5560551629E-03    7.5045364369E-03    7.4533685984E-03
    7.4025492753E-03    7.3520761109E-03    7.3019467646E-03    7.2521589111E-03
    7.2027102406E-03    7.1535984585E-03    7.1048212857E-03    7.0563764581E-03
    7.0082617267E-03    6.9604748574E-03    6.9130136310E-03    6.8658758431E-03
    6.8190593039E-03    6.7725618383E-03    6.7263812855E-03    6.6805154992E-03
    6.6349623473E-03    6.5897197121E-03    6.5447854899E-03    6.5001575908E-03
    6.4558339393E-03    6.4118124732E-03    6.3680911446E-03    6.3246679188E-03
    6.2815407750E-03    6.2387077056E-03    6.1961667166E-03    6.1539158274E-03
    6.1119530702E-03    6.0702764909E-03    6.0288841480E-03    5.9877741132E-03
    5.9469444711E-03    5.9063933190E-03    5.8661187669E-03    5.8261189375E-03
    5.7863919662E-03    5.7469360005E-03    5.7077492007E-03    5.6688297392E-03
    5.6301758006E-03    5.5917855817E-03    5.5536572915E-03    5.5157891509E-03
    5.4781793926E-03    5.4408262613E-03    5.4037280134E-03    5.3668829169E-03
    5.3302892517E-03    5.2939453090E-03    5.2578493914E-03    5.2219998131E-03
    5.1863948994E-03    5.1510329870E-03    5.1159124237E-03    5.0810315684E-03
    5.0463887910E-03    5.0119824723E-03    4.9778110042E-03    4.9438727890E-03
    4.9101662402E-03    4.8766897816E-03    4.8434418477E-03    4.8104208837E-03
    4.7776253451E-03    4.7450536976E-03    4.7127044176E-03    4.6805759915E-03
    4.6486669160E-03    4.6169756979E-03    4.5855008538E-03    4.5542409108E-03
    4.5231944055E-03    4.4923598844E-03    4.4617359040E-03    4.4313210303E-03
    4.4011138392E-03    4.3711129159E-03    4.3413168554E-03    4.3117242620E-03
    4.2823337495E-03    4.2531439410E-03    4.2241534690E-03    4.1953609750E-03
    4.1667651100E-03    4.1383645337E-03    4.1101579152E-03    4.0821439324E-03
    4.0543212721E-03    4.0266886301E-03    3.9992447109E-03    3.9719882278E-03
    3.9449179028E-03    3.9180324665E-03    3.8913306581E-03    3.8648112253E-03
    3.8384729243E-03    3.8123145197E-03    3.7863347844E-03    3.7605324997E-03
    3.7349064550E-03    3.7094554481E-03    3.6841782848E-03    3.6590737788E-03
    3.6341407523E-03    3.6093780349E-03    3.5847844646E-03    3.5603588871E-03
    3.5361001558E-03    3.5120071320E-03    3.4880786847E-03    3.4643136905E-03
    3.4407110336E-03    3.4172696059E-03    3.3939883067E-03    3.3708660428E-03
    3.3479017283E-03    3.3250942848E-03    3.3024426412E-03    3.2799457336E-03
    3.2576025054E-03    3.2354119070E-03    3.2133728961E-03    3.1914844374E-03
    3.1697455026E-03    3.1481550704E-03    3.1267121265E-03    3.1054156634E-03
    3.0842646804E-03    3.0632581838E-03    3.0423951864E-03    3.0216747078E-03
    3.0010957743E-03    2.9806574188E-03    2.9603586807E-03    2.9401986061E-03
    2.9201762474E-03    2.9002906634E-03    2.8805409196E-03    2.8609260875E-03
    2.8414452452E-03    2.8220974768E-03    2.8028818728E-03    2.7837975299E-03
    2.7648435508E-03    2.7460190445E-03    2.7273231259E-03    2.7087549161E-03
    2.6903135418E-03    2.6719981361E-03    2.6538078378E-03    2.6357417915E-03
    2.6177991477E-03    2.5999790627E-03    2.5822806985E-03    2.5647032228E-03
    2.5472458090E-03    2.5299076361E-03    2.5126878888E-03    2.4955857571E-03
    2.4786004368E-03    2.4617311290E-03    2.4449770404E-03    2.4283373829E-03
    2.4118113739E-03    2.3953982361E-03    2.3790971976E-03    2.3629074916E-03
    2.3468283567E-03    2.3308590364E-03    2.3149987797E-03    2.2992468405E-03
    2.2836024779E-03    2.2680649560E-03    2.2526335439E-03    2.2373075158E-03
    2.2220861507E-03    2.2069687326E-03    2.1919545503E-03    2.1770428977E-03
    2.1622330732E-03    2.1475243801E-03    2.1329161267E-03    2.1184076255E-03
    2.1039981943E-03    2.0896871551E-03    2.0754738346E-03    2.0613575644E-03
    2.0473376803E-03    2.0334135228E-03    2.0195844369E-03    2.0058497721E-03
    1.9922088823E-03    1.9786611257E-03    1.9652058651E-03    1.9518424676E-03
    1.9385703044E-03    1.9253887514E-03    1.9122971883E-03    1.8992949995E-03
    1.8863815732E-03    1.8735563021E-03    1.8608185828E-03    1.8481678162E-03
    1.8356034072E-03    1.8231247649E-03    1.8107313022E-03    1.7984224362E-03
    1.7861975880E-03    1.7740561825E-03    1.7619976487E-03    1.7500214194E-03
    1.7381269313E-03    1.7263136251E-03    1.7145809450E-03    1.7029283392E-03
    1.6913552599E-03    1.6798611625E-03    1.6684455067E-03    1.6571077554E-03
    1.6458473756E-03    1.6346638377E-03    1.6235566157E-03    1.6125251874E-03
    1.6015690340E-03    1.5906876403E-03    1.5798804945E-03    1.5691470887E-03
    1.5584869180E-03    1.5478994812E-03    1.5373842805E-03    1.5269408215E-03
    1.5165686132E-03    1.5062671679E-03    1.4960360014E-03    1.4858746325E-03
    1.4757825837E-03    1.4657593804E-03    1.4558045515E-03    1.4459176290E-03
    1.4360981482E-03    1.4263456475E-03    1.4166596684E-03    1.4070397557E-03
    1.3974854572E-03    1.3879963239E-03    1.3785719097E-03    1.3692117719E-03
    1.3599154703E-03    1.3506825683E-03    1.3415126318E-03    1.3324052299E-03
    1.3233599347E-03    1.3143763212E-03    1.3054539672E-03    1.2965924535E-03
    1.2877913638E-03    1.2790502844E-03    1.2703688048E-03    1.2617465171E-03
    1.2531830162E-03    1.2446778998E-03    1.2362307685E-03    1.2278412253E-03
    1.2195088763E-03    1.2112333300E-03    1.2030141977E-03    1.1948510935E-03
    1.1867436339E-03    1.1786914382E-03    1.1706941282E-03    1.1627513284E-03
    1.1548626658E-03    1.1470277700E-03    1.1392462730E-03    1.1315178096E-03
    1.1238420168E-03    1.1162185342E-03    1.1086470041E-03    1.1011270709E-03
    1.0936583816E-03    1.0862405857E-03    1.0788733348E-03    1.0715562833E-03
    1.0642890877E-03    1.0570714069E-03    1.0499029022E-03    1.0427832372E-03
    1.0357120777E-03    1.0286890920E-03    1.0217139504E-03    1.0147863258E-03
    1.0079058930E-03    1.0010723293E-03    9.9428531397E-04    9.8754452875E-04
    9.8084965736E-04    9.7420038575E-04    9.6759640204E-04    9.6103739646E-04
    9.5452306137E-04    9.4805309126E-04    9.4162718270E-04    9.3524503434E-04
    9.2890634689E-04    9.2261082314E-04    9.1635816787E-04    9.1014808794E-04
    9.0398029218E-04    8.9785449144E-04    8.9177039853E-04    8.8572772825E-04
    8.7972619735E-04    8.7376552451E-04    8.6784543036E-04    8.6196563744E-04
    8.5612587018E-04    8.5032585491E-04    8.4456531984E-04    8.3884399503E-04
    8.3316161241E-04    8.2751790573E-04    8.2191261059E-04    8.1634546437E-04
    8.1081620627E-04    8.0532457730E-04    7.9987032020E-04    7.9445317950E-04
    7.8907290150E-04    7.8372923420E-04    7.7842192735E-04    7.7315073242E-04
    7.6791540259E-04    7.6271569270E-04    7.5755135930E-04    7.5242216061E-04
    7.4732785649E-04    7.4226820847E-04    7.3724297969E-04    7.3225193493E-04
    7.2729484059E-04    7.2237146465E-04    7.1748157670E-04    7.1262494790E-04
    7.0780135099E-04    7.0301056025E-04    6.9825235153E-04    6.9352650220E-04
    6.8883279117E-04    6.8417099885E-04    6.7954090717E-04    6.7494229955E-04
    6.7037496089E-04    6.6583867758E-04    6.6133323747E-04    6.5685842984E-04
    6.5241404545E-04    6.4799987648E-04    6.4361571654E-04    6.3926136063E-04
    6.3493660520E-04    6.3064124805E-04    6.2637508840E-04    6.2213792684E-04
    6.1792956531E-04    6.1374980712E-04    6.0959845695E-04    6.0547532077E-04
    6.0138020592E-04    5.9731292106E-04    5.9327327613E-04    5.8926108241E-04
    5.8527615246E-04    5.8131830011E-04    5.7738734049E-04    5.7348308998E-04
    5.6960536623E-04    5.6575398813E-04    5.6192877583E-04    5.5812955069E-04
    5.5435613531E-04    5.5060835350E-04    5.4688603028E-04    5.4318899187E-04
    5.3951706567E-04    5.3587008029E-04    5.3224786548E-04    5.2865025219E-04
    5.2507707250E-04    5.2152815966E-04    5.1800334807E-04    5.1450247323E-04
    5.1102537181E-04    5.0757188157E-04    5.0414184139E-04    5.0073509127E-04
    4.9735147227E-04    4.9399082657E-04    4.9065299743E-04    4.8733782918E-04
    4.8404516720E-04    4.8077485796E-04    4.7752674895E-04    4.7430068873E-04
    4.7109652689E-04    4.6791411405E-04    4.6475330185E-04    4.6161394295E-04
    4.5849589101E-04    4.5539900072E-04    4.5232312774E-04    4.4926812872E-04
    4.4623386131E-04    4.4322018412E-04    4.4022695673E-04    4.3725403969E-04
    4.3430129449E-04    4.3136858359E-04    4.2845577037E-04    4.2556271917E-04
    4.2268929524E-04    4.1983536476E-04    4.1700079482E-04    4.1418545344E-04
    4.1138920952E-04    4.0861193288E-04    4.0585349420E-04    4.0311376509E-04
    4.0039261800E-04    3.9768992627E-04    3.9500556411E-04    3.9233940659E-04
    3.8969132963E-04    3.8706121000E-04    3.8444892533E-04    3.8185435406E-04
    3.7927737548E-04    3.7671786971E-04    3.7417571769E-04    3.7165080116E-04
    3.6914300267E-04    3.6665220561E-04    3.6417829413E-04    3.6172115318E-04
    3.5928066850E-04    3.5685672664E-04    3.5444921487E-04    3.5205802129E-04
    3.4968303472E-04    3.4732414478E-04    3.4498124182E-04    3.4265421693E-04
    3.4034296199E-04    3.3804736957E-04    3.3576733302E-04    3.3350274637E-04
    3.3125350443E-04    3.2901950269E-04    3.2680063737E-04    3.2459680540E-04
    3.2240790441E-04    3.2023383274E-04    3.1807448942E-04    3.1592977417E-04
    3.1379958739E-04    3.1168383018E-04
   </PP_CHI.4>
   <PP_CHI.5
       type="real"
       size="1338"
       columns="4"
       index="5"
       occupation=" 2.400"
       pseudo_energy="   -0.5071974843E+00"
       label="5D"
       l="2" >
    2.0213128046E-13    1.4337106055E-06    1.1466870841E-05    3.8684865423E-05
    9.1644974016E-05    1.7886238088E-04    3.0879625904E-04    4.8983595356E-04
    7.3028728833E-04    1.0383590204E-03    1.4221494660E-03    1.8896333211E-03
    2.4486487001E-03    3.1068844156E-03    3.8718675202E-03    4.7509511326E-03
    5.7513025698E-03    6.8798918040E-03    8.1434802658E-03    9.5486100104E-03
    1.1101593268E-02    1.2808502394E-02    1.4675160234E-02    1.6707130924E-02
    1.8909711137E-02    2.1287921793E-02    2.3846500238E-02    2.6589892921E-02
    2.9522248555E-02    3.2647411802E-02    3.5968917461E-02    3.9489985196E-02
    4.3213514786E-02    4.7142081924E-02    5.1277934554E-02    5.5622989761E-02
    6.0178831213E-02    6.4946707156E-02    6.9927528967E-02    7.5121870261E-02
    8.0529966553E-02    8.6151715475E-02    9.1986677539E-02    9.8034077447E-02
    1.0429280595E-01    1.1076142223E-01    1.1743815681E-01    1.2432091501E-01
    1.3140728088E-01    1.3869452167E-01    1.4617959273E-01    1.5385914300E-01
    1.6172952087E-01    1.6978678053E-01    1.7802668876E-01    1.8644473221E-01
    1.9503612497E-01    2.0379581663E-01    2.1271850073E-01    2.2179862354E-01
    2.3103039316E-01    2.4040778903E-01    2.4992457172E-01    2.5957429297E-01
    2.6935030606E-01    2.7924577646E-01    2.8925369262E-01    2.9936687707E-01
    3.0957799766E-01    3.1987957905E-01    3.3026401425E-01    3.4072357635E-01
    3.5125043043E-01    3.6183664544E-01    3.7247420621E-01    3.8315502557E-01
    3.9387095637E-01    4.0461380366E-01    4.1537533673E-01    4.2614730121E-01
    4.3692143104E-01    4.4768946049E-01    4.5844313591E-01    4.6917422756E-01
    4.7987454119E-01    4.9053592948E-01    5.0115030337E-01    5.1170964317E-01
    5.2220600944E-01    5.3263155372E-01    5.4297852896E-01    5.5323929974E-01
    5.6340635218E-01    5.7347230361E-01    5.8342991195E-01    5.9327208471E-01
    6.0299188776E-01    6.1258255367E-01    6.2203748982E-01    6.3135028601E-01
    6.4051472184E-01    6.4952477362E-01    6.5837462093E-01    6.6705865278E-01
    6.7557147340E-01    6.8390790755E-01    6.9206300550E-01    7.0003204756E-01
    7.0781054815E-01    7.1539425955E-01    7.2277917512E-01    7.2996153211E-01
    7.3693781417E-01    7.4370475322E-01    7.5025933109E-01    7.5659878062E-01
    7.6272058641E-01    7.6862248508E-01    7.7430246522E-01    7.7975876683E-01
    7.8498988043E-01    7.8999454576E-01    7.9477175007E-01    7.9932072608E-01
    8.0364094951E-01    8.0773213633E-01    8.1159423958E-01    8.1522744588E-01
    8.1863217168E-01    8.2180905905E-01    8.2475897134E-01    8.2748298841E-01
    8.2998240164E-01    8.3225870870E-01    8.3431360801E-01    8.3614899303E-01
    8.3776694627E-01    8.3916973313E-01    8.4035979558E-01    8.4133974554E-01
    8.4211235827E-01    8.4268056549E-01    8.4304744842E-01    8.4321623070E-01
    8.4319027119E-01    8.4297305673E-01    8.4256819481E-01    8.4197940617E-01
    8.4121051739E-01    8.4026545345E-01    8.3914823026E-01    8.3786294725E-01
    8.3641377992E-01    8.3480497246E-01    8.3304083043E-01    8.3112571345E-01
    8.2906402800E-01    8.2686022033E-01    8.2451876941E-01    8.2204418003E-01
    8.1944097600E-01    8.1671369349E-01    8.1386687451E-01    8.1090506055E-01
    8.0783278633E-01    8.0465457377E-01    8.0137492611E-01    7.9799832223E-01
    7.9452921109E-01    7.9097200647E-01    7.8733108182E-01    7.8361076533E-01
    7.7981533524E-01    7.7594901534E-01    7.7201597066E-01    7.6802030340E-01
    7.6396604908E-01    7.5985717291E-01    7.5569756636E-01    7.5149104394E-01
    7.4724134027E-01    7.4295210725E-01    7.3862691158E-01    7.3426923241E-01
    7.2988245920E-01    7.2546988984E-01    7.2103472898E-01    7.1658008649E-01
    7.1210897622E-01    7.0762431491E-01    7.0312892127E-01    6.9862551531E-01
    6.9411671782E-01    6.8960505003E-01    6.8509293347E-01    6.8058268997E-01
    6.7607654185E-01    6.7157661227E-01    6.6708492572E-01    6.6260340866E-01
    6.5813389033E-01    6.5367810367E-01    6.4923768639E-01    6.4481418213E-01
    6.4040904180E-01    6.3602362500E-01    6.3165920153E-01    6.2731695304E-01
    6.2299797477E-01    6.1870327734E-01    6.1443378869E-01    6.1019035605E-01
    6.0597374799E-01    6.0178465658E-01    5.9762369956E-01    5.9349142258E-01
    5.8938830152E-01    5.8531474484E-01    5.8127109597E-01    5.7725763570E-01
    5.7327458471E-01    5.6932210598E-01    5.6540030738E-01    5.6150924413E-01
    5.5764892136E-01    5.5381929670E-01    5.5002028280E-01    5.4625174986E-01
    5.4251352826E-01    5.3880541105E-01    5.3512715650E-01    5.3147849062E-01
    5.2785910968E-01    5.2426868267E-01    5.2070685376E-01    5.1717324475E-01
    5.1366745741E-01    5.1018907592E-01    5.0673766911E-01    5.0331279279E-01
    4.9991399198E-01    4.9654080308E-01    4.9319275599E-01    4.8986937624E-01
    4.8657018698E-01    4.8329471097E-01    4.8004247245E-01    4.7681299904E-01
    4.7360582346E-01    4.7042048527E-01    4.6725653250E-01    4.6411352321E-01
    4.6099102699E-01    4.5788862635E-01    4.5480591809E-01    4.5174251450E-01
    4.4869804459E-01    4.4567215515E-01    4.4266451171E-01    4.3967479953E-01
    4.3670272435E-01    4.3374801317E-01    4.3081041488E-01    4.2788970081E-01
    4.2498566523E-01    4.2209812571E-01    4.1922692339E-01    4.1637192318E-01
    4.1353301379E-01    4.1071010785E-01    4.0790314171E-01    4.0511207495E-01
    4.0233688463E-01    3.9957755788E-01    3.9683407954E-01    3.9410642968E-01
    3.9139458423E-01    3.8869851795E-01    3.8601820561E-01    3.8335361923E-01
    3.8070472872E-01    3.7807150248E-01    3.7545390722E-01    3.7285190798E-01
    3.7026546828E-01    3.6769455010E-01    3.6513911401E-01    3.6259911919E-01
    3.6007452349E-01    3.5756528347E-01    3.5507135448E-01    3.5259269071E-01
    3.5012924519E-01    3.4768096990E-01    3.4524781578E-01    3.4282973277E-01
    3.4042666987E-01    3.3803857517E-01    3.3566539591E-01    3.3330707848E-01
    3.3096356849E-01    3.2863481080E-01    3.2632074954E-01    3.2402132816E-01
    3.2173648946E-01    3.1946617561E-01    3.1721032819E-01    3.1496888823E-01
    3.1274179622E-01    3.1052899213E-01    3.0833041548E-01    3.0614600531E-01
    3.0397570025E-01    3.0181943851E-01    2.9967715793E-01    2.9754879601E-01
    2.9543428987E-01    2.9333357635E-01    2.9124659199E-01    2.8917327304E-01
    2.8711355550E-01    2.8506737515E-01    2.8303466752E-01    2.8101536795E-01
    2.7900941159E-01    2.7701673344E-01    2.7503726831E-01    2.7307095090E-01
    2.7111771576E-01    2.6917749733E-01    2.6725022997E-01    2.6533584793E-01
    2.6343428540E-01    2.6154547650E-01    2.5966935530E-01    2.5780585584E-01
    2.5595491212E-01    2.5411645812E-01    2.5229042781E-01    2.5047675517E-01
    2.4867537419E-01    2.4688621886E-01    2.4510922323E-01    2.4334432134E-01
    2.4159144732E-01    2.3985053532E-01    2.3812151957E-01    2.3640433433E-01
    2.3469891398E-01    2.3300519294E-01    2.3132310574E-01    2.2965258698E-01
    2.2799357137E-01    2.2634599374E-01    2.2470978899E-01    2.2308489216E-01
    2.2147123840E-01    2.1986876300E-01    2.1827740134E-01    2.1669708898E-01
    2.1512776158E-01    2.1356935497E-01    2.1202180510E-01    2.1048504808E-01
    2.0895902019E-01    2.0744365785E-01    2.0593889763E-01    2.0444467628E-01
    2.0296093073E-01    2.0148759805E-01    2.0002461550E-01    1.9857192053E-01
    1.9712945075E-01    1.9569714395E-01    1.9427493811E-01    1.9286277142E-01
    1.9146058223E-01    1.9006830909E-01    1.8868589077E-01    1.8731326619E-01
    1.8595037452E-01    1.8459715509E-01    1.8325354747E-01    1.8191949141E-01
    1.8059492689E-01    1.7927979407E-01    1.7797403335E-01    1.7667758534E-01
    1.7539039084E-01    1.7411239091E-01    1.7284352680E-01    1.7158373997E-01
    1.7033297214E-01    1.6909116523E-01    1.6785826137E-01    1.6663420296E-01
    1.6541893259E-01    1.6421239310E-01    1.6301452755E-01    1.6182527924E-01
    1.6064459170E-01    1.5947240870E-01    1.5830867424E-01    1.5715333255E-01
    1.5600632812E-01    1.5486760566E-01    1.5373711014E-01    1.5261478675E-01
    1.5150058093E-01    1.5039443838E-01    1.4929630503E-01    1.4820612705E-01
    1.4712385086E-01    1.4604942315E-01    1.4498279083E-01    1.4392390108E-01
    1.4287270130E-01    1.4182913918E-01    1.4079316263E-01    1.3976471983E-01
    1.3874375921E-01    1.3773022946E-01    1.3672407949E-01    1.3572525852E-01
    1.3473371597E-01    1.3374940157E-01    1.3277226525E-01    1.3180225725E-01
    1.3083932803E-01    1.2988342833E-01    1.2893450913E-01    1.2799252168E-01
    1.2705741749E-01    1.2612914833E-01    1.2520766623E-01    1.2429292347E-01
    1.2338487259E-01    1.2248346641E-01    1.2158865799E-01    1.2070040066E-01
    1.1981864801E-01    1.1894335390E-01    1.1807447243E-01    1.1721195797E-01
    1.1635576517E-01    1.1550584891E-01    1.1466216436E-01    1.1382466692E-01
    1.1299331229E-01    1.1216805639E-01    1.1134885544E-01    1.1053566588E-01
    1.0972844445E-01    1.0892714813E-01    1.0813173415E-01    1.0734216002E-01
    1.0655838350E-01    1.0578036262E-01    1.0500805565E-01    1.0424142112E-01
    1.0348041785E-01    1.0272500487E-01    1.0197514151E-01    1.0123078733E-01
    1.0049190215E-01    9.9758446063E-02    9.9030379398E-02    9.8307662748E-02
    9.7590256958E-02    9.6878123129E-02    9.6171222612E-02    9.5469517014E-02
    9.4772968191E-02    9.4081538251E-02    9.3395189554E-02    9.2713884709E-02
    9.2037586574E-02    9.1366258255E-02    9.0699863107E-02    9.0038364730E-02
    8.9381726973E-02    8.8729913927E-02    8.8082889930E-02    8.7440619562E-02
    8.6803067647E-02    8.6170199251E-02    8.5541979680E-02    8.4918374480E-02
    8.4299349437E-02    8.3684870577E-02    8.3074904159E-02    8.2469416681E-02
    8.1868374878E-02    8.1271745717E-02    8.0679496398E-02    8.0091594355E-02
    7.9508007252E-02    7.8928702986E-02    7.8353649680E-02    7.7782815687E-02
    7.7216169587E-02    7.6653680185E-02    7.6095316513E-02    7.5541047825E-02
    7.4990843599E-02    7.4444673534E-02    7.3902507549E-02    7.3364315785E-02
    7.2830068598E-02    7.2299736563E-02    7.1773290470E-02    7.1250701325E-02
    7.0731940346E-02    7.0216978966E-02    6.9705788827E-02    6.9198341781E-02
    6.8694609890E-02    6.8194565424E-02    6.7698180859E-02    6.7205428875E-02
    6.6716282358E-02    6.6230714397E-02    6.5748698280E-02    6.5270207499E-02
    6.4795215742E-02    6.4323696897E-02    6.3855625048E-02    6.3390974475E-02
    6.2929719652E-02    6.2471835246E-02    6.2017296116E-02    6.1566077311E-02
    6.1118154070E-02    6.0673501820E-02    6.0232096175E-02    5.9793912934E-02
    5.9358928081E-02    5.8927117784E-02    5.8498458390E-02    5.8072926430E-02
    5.7650498613E-02    5.7231151826E-02    5.6814863133E-02    5.6401609774E-02
    5.5991369165E-02    5.5584118892E-02    5.5179836716E-02    5.4778500567E-02
    5.4380088547E-02    5.3984578923E-02    5.3591950132E-02    5.3202180776E-02
    5.2815249622E-02    5.2431135599E-02    5.2049817802E-02    5.1671275483E-02
    5.1295488057E-02    5.0922435096E-02    5.0552096331E-02    5.0184451649E-02
    4.9819481091E-02    4.9457164854E-02    4.9097483286E-02    4.8740416889E-02
    4.8385946313E-02    4.8034052360E-02    4.7684715979E-02    4.7337918265E-02
    4.6993640461E-02    4.6651863954E-02    4.6312570275E-02    4.5975741097E-02
    4.5641358236E-02    4.5309403646E-02    4.4979859423E-02    4.4652707800E-02
    4.4327931145E-02    4.4005511966E-02    4.3685432904E-02    4.3367676732E-02
    4.3052226360E-02    4.2739064825E-02    4.2428175300E-02    4.2119541082E-02
    4.1813145601E-02    4.1508972412E-02    4.1207005198E-02    4.0907227766E-02
    4.0609624050E-02    4.0314178106E-02    4.0020874110E-02    3.9729696365E-02
    3.9440629290E-02    3.9153657424E-02    3.8868765427E-02    3.8585938075E-02
    3.8305160260E-02    3.8026416991E-02    3.7749693391E-02    3.7474974697E-02
    3.7202246259E-02    3.6931493538E-02    3.6662702107E-02    3.6395857648E-02
    3.6130945955E-02    3.5867952926E-02    3.5606864571E-02    3.5347667002E-02
    3.5090346439E-02    3.4834889208E-02    3.4581281737E-02    3.4329510557E-02
    3.4079562301E-02    3.3831423706E-02    3.3585081605E-02    3.3340522936E-02
    3.3097734731E-02    3.2856704123E-02    3.2617418342E-02    3.2379864712E-02
    3.2144030656E-02    3.1909903689E-02    3.1677471423E-02    3.1446721561E-02
    3.1217641898E-02    3.0990220323E-02    3.0764444815E-02    3.0540303443E-02
    3.0317784366E-02    3.0096875830E-02    2.9877566172E-02    2.9659843815E-02
    2.9443697267E-02    2.9229115124E-02    2.9016086067E-02    2.8804598860E-02
    2.8594642353E-02    2.8386205477E-02    2.8179277247E-02    2.7973846758E-02
    2.7769903189E-02    2.7567435796E-02    2.7366433916E-02    2.7166886968E-02
    2.6968784444E-02    2.6772115919E-02    2.6576871042E-02    2.6383039540E-02
    2.6190611216E-02    2.5999575947E-02    2.5809923686E-02    2.5621644461E-02
    2.5434728371E-02    2.5249165589E-02    2.5064946362E-02    2.4882061007E-02
    2.4700499912E-02    2.4520253538E-02    2.4341312412E-02    2.4163667134E-02
    2.3987308373E-02    2.3812226863E-02    2.3638413409E-02    2.3465858883E-02
    2.3294554222E-02    2.3124490431E-02    2.2955658580E-02    2.2788049805E-02
    2.2621655305E-02    2.2456466344E-02    2.2292474251E-02    2.2129670417E-02
    2.1968046294E-02    2.1807593400E-02    2.1648303311E-02    2.1490167666E-02
    2.1333178166E-02    2.1177326569E-02    2.1022604695E-02    2.0869004423E-02
    2.0716517691E-02    2.0565136494E-02    2.0414852887E-02    2.0265658982E-02
    2.0117546947E-02    1.9970509007E-02    1.9824537444E-02    1.9679624595E-02
    1.9535762852E-02    1.9392944662E-02    1.9251162528E-02    1.9110409006E-02
    1.8970676704E-02    1.8831958286E-02    1.8694246467E-02    1.8557534015E-02
    1.8421813750E-02    1.8287078544E-02    1.8153321320E-02    1.8020535051E-02
    1.7888712762E-02    1.7757847526E-02    1.7627932469E-02    1.7498960762E-02
    1.7370925629E-02    1.7243820340E-02    1.7117638214E-02    1.6992372618E-02
    1.6868016967E-02    1.6744564722E-02    1.6622009392E-02    1.6500344531E-02
    1.6379563740E-02    1.6259660667E-02    1.6140629003E-02    1.6022462485E-02
    1.5905154895E-02    1.5788700060E-02    1.5673091850E-02    1.5558324179E-02
    1.5444391006E-02    1.5331286330E-02    1.5219004196E-02    1.5107538689E-02
    1.4996883938E-02    1.4887034112E-02    1.4777983424E-02    1.4669726127E-02
    1.4562256514E-02    1.4455568919E-02    1.4349657719E-02    1.4244517327E-02
    1.4140142199E-02    1.4036526828E-02    1.3933665749E-02    1.3831553533E-02
    1.3730184791E-02    1.3629554173E-02    1.3529656367E-02    1.3430486096E-02
    1.3332038125E-02    1.3234307253E-02    1.3137288317E-02    1.3040976191E-02
    1.2945365784E-02    1.2850452043E-02    1.2756229951E-02    1.2662694525E-02
    1.2569840819E-02    1.2477663921E-02    1.2386158954E-02    1.2295321077E-02
    1.2205145482E-02    1.2115627396E-02    1.2026762079E-02    1.1938544826E-02
    1.1850970964E-02    1.1764035855E-02    1.1677734892E-02    1.1592063501E-02
    1.1507017142E-02    1.1422591306E-02    1.1338781517E-02    1.1255583330E-02
    1.1172992332E-02    1.1091004140E-02    1.1009614405E-02    1.0928818806E-02
    1.0848613054E-02    1.0768992891E-02    1.0689954088E-02    1.0611492447E-02
    1.0533603800E-02    1.0456284008E-02    1.0379528961E-02    1.0303334579E-02
    1.0227696812E-02    1.0152611636E-02    1.0078075059E-02    1.0004083113E-02
    9.9306318638E-03    9.8577174002E-03    9.7853358416E-03    9.7134833340E-03
    9.6421560511E-03    9.5713501938E-03    9.5010619899E-03    9.4312876942E-03
    9.3620235880E-03    9.2932659792E-03    9.2250112018E-03    9.1572556161E-03
    9.0899956081E-03    9.0232275898E-03    8.9569479984E-03    8.8911532967E-03
    8.8258399727E-03    8.7610045393E-03    8.6966435342E-03    8.6327535200E-03
    8.5693310835E-03    8.5063728360E-03    8.4438754129E-03    8.3818354737E-03
    8.3202497014E-03    8.2591148029E-03    8.1984275086E-03    8.1381845720E-03
    8.0783827700E-03    8.0190189024E-03    7.9600897917E-03    7.9015922831E-03
    7.8435232446E-03    7.7858795662E-03    7.7286581603E-03    7.6718559612E-03
    7.6154699253E-03    7.5594970304E-03    7.5039342762E-03    7.4487786837E-03
    7.3940272952E-03    7.3396771741E-03    7.2857254049E-03    7.2321690927E-03
    7.1790053636E-03    7.1262313639E-03    7.0738442607E-03    7.0218412410E-03
    6.9702195122E-03    6.9189763015E-03    6.8681088560E-03    6.8176144424E-03
    6.7674903473E-03    6.7177338762E-03    6.6683423544E-03    6.6193131261E-03
    6.5706435544E-03    6.5223310216E-03    6.4743729285E-03    6.4267666946E-03
    6.3795097581E-03    6.3325995752E-03    6.2860336206E-03    6.2398093870E-03
    6.1939243851E-03    6.1483761435E-03    6.1031622084E-03    6.0582801439E-03
    6.0137275312E-03    5.9695019691E-03    5.9256010736E-03    5.8820224778E-03
    5.8387638318E-03    5.7958228026E-03    5.7531970739E-03    5.7108843461E-03
    5.6688823362E-03    5.6271887774E-03    5.5858014194E-03    5.5447180280E-03
    5.5039363850E-03    5.4634542883E-03    5.4232695515E-03    5.3833800041E-03
    5.3437834910E-03    5.3044778728E-03    5.2654610255E-03    5.2267308402E-03
    5.1882852233E-03    5.1501220965E-03    5.1122393961E-03    5.0746350734E-03
    5.0373070946E-03    5.0002534405E-03    4.9634721064E-03    4.9269611019E-03
    4.8907184514E-03    4.8547421931E-03    4.8190303795E-03    4.7835810774E-03
    4.7483923671E-03    4.7134623431E-03    4.6787891135E-03    4.6443708002E-03
    4.6102055385E-03    4.5762914772E-03    4.5426267786E-03    4.5092096181E-03
    4.4760381845E-03    4.4431106794E-03    4.4104253177E-03    4.3779803271E-03
    4.3457739479E-03    4.3138044335E-03    4.2820700496E-03    4.2505690747E-03
    4.2192997996E-03    4.1882605276E-03    4.1574495741E-03    4.1268652669E-03
    4.0965059458E-03    4.0663699625E-03    4.0364556809E-03    4.0067614766E-03
    3.9772857369E-03    3.9480268610E-03    3.9189832596E-03    3.8901533547E-03
    3.8615355802E-03    3.8331283809E-03    3.8049302132E-03    3.7769395445E-03
    3.7491548534E-03    3.7215746295E-03    3.6941973735E-03    3.6670215968E-03
    3.6400458217E-03    3.6132685812E-03    3.5866884189E-03    3.5603038891E-03
    3.5341135566E-03    3.5081159964E-03    3.4823097941E-03    3.4566935456E-03
    3.4312658567E-03    3.4060253437E-03    3.3809706326E-03    3.3561003598E-03
    3.3314131713E-03    3.3069077230E-03    3.2825826807E-03    3.2584367199E-03
    3.2344685254E-03    3.2106767921E-03    3.1870602241E-03    3.1636175349E-03
    3.1403474474E-03    3.1172486939E-03    3.0943200158E-03    3.0715601639E-03
    3.0489678978E-03    3.0265419863E-03    3.0042812071E-03    2.9821843469E-03
    2.9602502012E-03    2.9384775742E-03    2.9168652790E-03    2.8954121371E-03
    2.8741169789E-03    2.8529786430E-03    2.8319959768E-03    2.8111678358E-03
    2.7904930841E-03    2.7699705939E-03    2.7495992458E-03    2.7293779285E-03
    2.7093055386E-03    2.6893809812E-03    2.6696031690E-03    2.6499710228E-03
    2.6304834714E-03    2.6111394511E-03    2.5919379062E-03    2.5728777887E-03
    2.5539580584E-03    2.5351776822E-03    2.5165356352E-03    2.4980308995E-03
    2.4796624648E-03    2.4614293283E-03    2.4433304944E-03    2.4253649747E-03
    2.4075317883E-03    2.3898299613E-03    2.3722585269E-03    2.3548165254E-03
    2.3375030041E-03    2.3203170174E-03    2.3032576265E-03    2.2863238994E-03
    2.2695149112E-03    2.2528297434E-03    2.2362674846E-03    2.2198272297E-03
    2.2035080806E-03    2.1873091454E-03    2.1712295391E-03    2.1552683829E-03
    2.1394248047E-03    2.1236979384E-03    2.1080869247E-03    2.0925909102E-03
    2.0772090481E-03    2.0619404975E-03    2.0467844239E-03    2.0317399988E-03
    2.0168063998E-03    2.0019828105E-03    1.9872684206E-03    1.9726624255E-03
    1.9581640268E-03    1.9437724317E-03    1.9294868534E-03    1.9153065108E-03
    1.9012306285E-03    1.8872584369E-03    1.8733891719E-03    1.8596220750E-03
    1.8459563935E-03    1.8323913800E-03    1.8189262927E-03    1.8055603951E-03
    1.7922929563E-03    1.7791232507E-03    1.7660505579E-03    1.7530741629E-03
    1.7401933560E-03    1.7274074327E-03    1.7147156936E-03    1.7021174444E-03
    1.6896119961E-03    1.6771986645E-03    1.6648767707E-03    1.6526456405E-03
    1.6405046049E-03    1.6284529998E-03    1.6164901657E-03    1.6046154484E-03
    1.5928281980E-03    1.5811277698E-03    1.5695135237E-03    1.5579848242E-03
    1.5465410406E-03    1.5351815468E-03    1.5239057213E-03    1.5127129471E-03
    1.5016026120E-03    1.4905741079E-03    1.4796268315E-03    1.4687601838E-03
    1.4579735703E-03    1.4472664007E-03    1.4366380892E-03    1.4260880543E-03
    1.4156157187E-03    1.4052205094E-03    1.3949018575E-03    1.3846591986E-03
    1.3744919722E-03    1.3643996218E-03    1.3543815954E-03    1.3444373447E-03
    1.3345663256E-03    1.3247679980E-03    1.3150418257E-03    1.3053872766E-03
    1.2958038224E-03    1.2862909387E-03    1.2768481049E-03    1.2674748045E-03
    1.2581705244E-03    1.2489347556E-03    1.2397669928E-03    1.2306667343E-03
    1.2216334822E-03    1.2126667422E-03    1.2037660237E-03    1.1949308397E-03
    1.1861607068E-03    1.1774551450E-03    1.1688136782E-03    1.1602358334E-03
    1.1517211414E-03    1.1432691363E-03    1.1348793556E-03    1.1265513403E-03
    1.1182846349E-03    1.1100787870E-03    1.1019333476E-03    1.0938478712E-03
    1.0858219154E-03    1.0778550410E-03    1.0699468123E-03    1.0620967966E-03
    1.0543045645E-03    1.0465696897E-03    1.0388917490E-03    1.0312703225E-03
    1.0237049931E-03    1.0161953472E-03    1.0087409738E-03    1.0013414653E-03
    9.9399641687E-04    9.8670542674E-04    9.7946809613E-04    9.7228402917E-04
    9.6515283293E-04    9.5807411736E-04    9.5104749531E-04    9.4407258247E-04
    9.3714899738E-04    9.3027636137E-04    9.2345429858E-04    9.1668243594E-04
    9.0996040311E-04    9.0328783248E-04    8.9666435918E-04    8.9008962099E-04
    8.8356325842E-04    8.7708491457E-04    8.7065423523E-04    8.6427086877E-04
    8.5793446618E-04    8.5164468099E-04    8.4540116932E-04    8.3920358983E-04
    8.3305160367E-04    8.2694487453E-04    8.2088306854E-04    8.1486585434E-04
    8.0889290297E-04    8.0296388795E-04    7.9707848516E-04    7.9123637290E-04
    7.8543723185E-04    7.7968074504E-04    7.7396659783E-04    7.6829447793E-04
    7.6266407531E-04    7.5707508229E-04    7.5152719340E-04    7.4602010548E-04
    7.4055351758E-04    7.3512713097E-04    7.2974064914E-04    7.2439377776E-04
    7.1908622467E-04    7.1381769989E-04    7.0858791555E-04    7.0339658594E-04
    6.9824342743E-04    6.9312815850E-04    6.8805049971E-04    6.8301017367E-04
    6.7800690506E-04    6.7304042059E-04    6.6811044896E-04    6.6321672091E-04
    6.5835896916E-04    6.5353692839E-04    6.4875033524E-04    6.4399892832E-04
    6.3928244815E-04    6.3460063717E-04    6.2995323973E-04    6.2534000205E-04
    6.2076067225E-04    6.1621500030E-04    6.1170273800E-04    6.0722363902E-04
    6.0277745881E-04    5.9836395466E-04    5.9398288562E-04    5.8963401256E-04
    5.8531709808E-04    5.8103190656E-04    5.7677820410E-04    5.7255575855E-04
    5.6836433945E-04    5.6420371806E-04    5.6007366733E-04    5.5597396188E-04
    5.5190437799E-04    5.4786469362E-04    5.4385468833E-04    5.3987414335E-04
    5.3592284149E-04    5.3200056719E-04    5.2810710647E-04    5.2424224694E-04
    5.2040577778E-04    5.1659748970E-04    5.1281717499E-04    5.0906462747E-04
    5.0533964247E-04    5.0164201683E-04    4.9797154891E-04    4.9432803854E-04
    4.9071128705E-04    4.8712109721E-04    4.8355727328E-04    4.8001962093E-04
    4.7650794730E-04    4.7302206094E-04    4.6956177181E-04    4.6612689127E-04
    4.6271723210E-04    4.5933260843E-04    4.5597283578E-04    4.5263773104E-04
    4.4932711244E-04    4.4604079956E-04    4.4277861331E-04    4.3954037592E-04
    4.3632591094E-04    4.3313504322E-04    4.2996759891E-04    4.2682340543E-04
    4.2370229148E-04    4.2060408705E-04    4.1752862335E-04    4.1447573286E-04
    4.1144524928E-04    4.0843700756E-04    4.0545084385E-04    4.0248659553E-04
    3.9954410116E-04    3.9662320051E-04    3.9372373452E-04    3.9084554531E-04
    3.8798847618E-04    3.8515237157E-04    3.8233707707E-04    3.7954243942E-04
    3.7676830648E-04    3.7401452725E-04    3.7128095184E-04    3.6856743146E-04
    3.6587381842E-04    3.6319996613E-04    3.6054572907E-04    3.5791096280E-04
    3.5529552397E-04    3.5269927024E-04    3.5012206037E-04    3.4756375413E-04
    3.4502421234E-04    3.4250329686E-04    3.4000087054E-04    3.3751679726E-04
    3.3505094192E-04    3.3260317039E-04    3.3017334955E-04    3.2776134725E-04
    3.2536703232E-04    3.2299027458E-04    3.2063094477E-04    3.1828891463E-04
    3.1596405681E-04    3.1365624491E-04    3.1136535349E-04    3.0909125799E-04
    3.0683383482E-04    3.0459296125E-04    3.0236851551E-04    3.0016037669E-04
    2.9796842479E-04    2.9579254069E-04    2.9363260615E-04    2.9148850381E-04
    2.8936011717E-04    2.8724733058E-04    2.8515002927E-04    2.8306809931E-04
    2.8100142758E-04    2.7894990184E-04    2.7691341064E-04    2.7489184339E-04
    2.7288509029E-04    2.7089304235E-04    2.6891559140E-04    2.6695263007E-04
    2.6500405176E-04    2.6306975067E-04    2.6114962179E-04    2.5924356088E-04
    2.5735146445E-04    2.5547322981E-04    2.5360875500E-04    2.5175793882E-04
    2.4992068082E-04    2.4809688129E-04    2.4628644125E-04    2.4448926247E-04
    2.4270524742E-04    2.4093429930E-04    2.3917632203E-04    2.3743122023E-04
    2.3569889924E-04    2.3397926507E-04    2.3227222445E-04    2.3057768480E-04
    2.2889555419E-04    2.2722574141E-04    2.2556815589E-04    2.2392270775E-04
    2.2228930776E-04    2.2066786736E-04    2.1905829863E-04    2.1746051432E-04
    2.1587442779E-04    2.1429995307E-04    2.1273700481E-04    2.1118549830E-04
    2.0964534944E-04    2.0811647476E-04    2.0659879140E-04    2.0509221713E-04
    2.0359667030E-04    2.0211206988E-04    2.0063833542E-04    1.9917538709E-04
    1.9772314563E-04    1.9628153237E-04    1.9485046921E-04    1.9342987865E-04
    1.9201968374E-04    1.9061980810E-04    1.8923017592E-04    1.8785071196E-04
    1.8648134151E-04    1.8512199042E-04    1.8377258509E-04    1.8243305248E-04
    1.8110332005E-04    1.7978331582E-04    1.7847296835E-04    1.7717220670E-04
    1.7588096047E-04    1.7459915978E-04    1.7332673526E-04    1.7206361805E-04
    1.7080973980E-04    1.6956503266E-04    1.6832942930E-04    1.6710286286E-04
    1.6588526698E-04    1.6467657580E-04
   </PP_CHI.5>
   <PP_CHI.6
       type="real"
       size="1338"
       columns="4"
       index="6"
       occupation=" 2.000"
       pseudo_energy="   -0.4523035641E+00"
       label="6S"
       l="0" >
    7.9040940459E-14   -6.9362009369E-03   -1.3867739643E-02   -2.0789956314E-02
   -2.7698196004E-02   -3.4587811050E-02   -4.1454163506E-02   -4.8292627573E-02
   -5.5098592033E-02   -6.1867462685E-02   -6.8594664781E-02   -7.5275645469E-02
   -8.1905876235E-02   -8.8480855350E-02   -9.4996110316E-02   -1.0144720032E-01
   -1.0782971868E-01   -1.1413929532E-01   -1.2037159920E-01   -1.2652234080E-01
   -1.3258727456E-01   -1.3856220135E-01   -1.4444297093E-01   -1.5022548439E-01
   -1.5590569665E-01   -1.6147961884E-01   -1.6694332081E-01   -1.7229293354E-01
   -1.7752465158E-01   -1.8263473545E-01   -1.8761951409E-01   -1.9247538723E-01
   -1.9719882778E-01   -2.0178638419E-01   -2.0623468281E-01   -2.1054043020E-01
   -2.1470041545E-01   -2.1871151244E-01   -2.2257068207E-01   -2.2627497451E-01
   -2.2982153135E-01   -2.3320758777E-01   -2.3643047460E-01   -2.3948762041E-01
   -2.4237655351E-01   -2.4509490392E-01   -2.4764040526E-01   -2.5001089664E-01
   -2.5220432440E-01   -2.5421874388E-01   -2.5605232110E-01   -2.5770333432E-01
   -2.5917017556E-01   -2.6045135211E-01   -2.6154548784E-01   -2.6245132451E-01
   -2.6316772300E-01   -2.6369366439E-01   -2.6402825101E-01   -2.6417070736E-01
   -2.6412038098E-01   -2.6387674315E-01   -2.6343938953E-01   -2.6280804074E-01
   -2.6198254272E-01   -2.6096286710E-01   -2.5974911139E-01   -2.5834149905E-01
   -2.5674037953E-01   -2.5494622807E-01   -2.5295964550E-01   -2.5078135781E-01
   -2.4841221574E-01   -2.4585319408E-01   -2.4310539102E-01   -2.4017002721E-01
   -2.3704844486E-01   -2.3374210660E-01   -2.3025259427E-01   -2.2658160757E-01
   -2.2273096260E-01   -2.1870259030E-01   -2.1449853470E-01   -2.1012095114E-01
   -2.0557210432E-01   -2.0085436624E-01   -1.9597021404E-01   -1.9092222772E-01
   -1.8571308779E-01   -1.8034557271E-01   -1.7482255638E-01   -1.6914700535E-01
   -1.6332197614E-01   -1.5735061225E-01   -1.5123614126E-01   -1.4498187173E-01
   -1.3859119006E-01   -1.3206755728E-01   -1.2541450573E-01   -1.1863563572E-01
   -1.1173461207E-01   -1.0471516063E-01   -9.7581064714E-02   -9.0336161510E-02
   -8.2984338425E-02   -7.5529529393E-02   -6.7975711146E-02   -6.0326899455E-02
   -5.2587145342E-02   -4.4760531279E-02   -3.6851167362E-02   -2.8863187479E-02
   -2.0800745475E-02   -1.2668011315E-02   -4.4691672568E-03    3.7915959707E-03
    1.2110082966E-02    2.0482097438E-02    2.8903445950E-02    3.7369941651E-02
    4.5877407945E-02    5.4421682139E-02    6.2998619030E-02    7.1604094444E-02
    8.0234008719E-02    8.8884290127E-02    9.7550898221E-02    1.0622982713E-01
    1.1491710874E-01    1.2360881588E-01    1.3230106530E-01    1.4099002067E-01
    1.4967189546E-01    1.5834295570E-01    1.6699952266E-01    1.7563797545E-01
    1.8425475347E-01    1.9284635882E-01    2.0140935857E-01    2.0994038687E-01
    2.1843614709E-01    2.2689341366E-01    2.3530903397E-01    2.4367993004E-01
    2.5200310012E-01    2.6027562018E-01    2.6849464524E-01    2.7665741067E-01
    2.8476123322E-01    2.9280351213E-01    3.0078172993E-01    3.0869345327E-01
    3.1653633355E-01    3.2430810744E-01    3.3200659736E-01    3.3962971172E-01
    3.4717544520E-01    3.5464187874E-01    3.6202717964E-01    3.6932960133E-01
    3.7654748319E-01    3.8367925023E-01    3.9072341264E-01    3.9767856526E-01
    4.0454338697E-01    4.1131663997E-01    4.1799716902E-01    4.2458390048E-01
    4.3107584141E-01    4.3747207850E-01    4.4377177697E-01    4.4997417932E-01
    4.5607860416E-01    4.6208444480E-01    4.6799116793E-01    4.7379831214E-01
    4.7950548643E-01    4.8511236868E-01    4.9061870404E-01    4.9602430331E-01
    5.0132904125E-01    5.0653285488E-01    5.1163574175E-01    5.1663775816E-01
    5.2153901737E-01    5.2633968778E-01    5.3103999114E-01    5.3564020063E-01
    5.4014063912E-01    5.4454167719E-01    5.4884373136E-01    5.5304726219E-01
    5.5715277241E-01    5.6116080510E-01    5.6507194181E-01    5.6888680077E-01
    5.7260603503E-01    5.7623033068E-01    5.7976040508E-01    5.8319700508E-01
    5.8654090531E-01    5.8979290643E-01    5.9295383352E-01    5.9602453436E-01
    5.9900587787E-01    6.0189875250E-01    6.0470406469E-01    6.0742273736E-01
    6.1005570846E-01    6.1260392951E-01    6.1506836421E-01    6.1744998713E-01
    6.1974978238E-01    6.2196874233E-01    6.2410786641E-01    6.2616815994E-01
    6.2815063301E-01    6.3005629934E-01    6.3188617531E-01    6.3364127892E-01
    6.3532262884E-01    6.3693124353E-01    6.3846814035E-01    6.3993433476E-01
    6.4133083952E-01    6.4265866400E-01    6.4391881345E-01    6.4511228837E-01
    6.4624008390E-01    6.4730318924E-01    6.4830258717E-01    6.4923925348E-01
    6.5011415659E-01    6.5092825708E-01    6.5168250736E-01    6.5237785127E-01
    6.5301522380E-01    6.5359555079E-01    6.5411974867E-01    6.5458872426E-01
    6.5500337457E-01    6.5536458659E-01    6.5567323719E-01    6.5593019299E-01
    6.5613631025E-01    6.5629243479E-01    6.5639940198E-01    6.5645803663E-01
    6.5646915303E-01    6.5643355492E-01    6.5635203553E-01    6.5622537756E-01
    6.5605435328E-01    6.5583972455E-01    6.5558224289E-01    6.5528264957E-01
    6.5494167567E-01    6.5456004221E-01    6.5413846022E-01    6.5367763087E-01
    6.5317824555E-01    6.5264098606E-01    6.5206652466E-01    6.5145552427E-01
    6.5080863853E-01    6.5012651204E-01    6.4940978041E-01    6.4865907046E-01
    6.4787500034E-01    6.4705817970E-01    6.4620920997E-01    6.4532868476E-01
    6.4441719042E-01    6.4347530644E-01    6.4250360539E-01    6.4150265297E-01
    6.4047300792E-01    6.3941522218E-01    6.3832984101E-01    6.3721740294E-01
    6.3607843990E-01    6.3491347723E-01    6.3372303377E-01    6.3250762189E-01
    6.3126774759E-01    6.3000391050E-01    6.2871660398E-01    6.2740631518E-01
    6.2607352505E-01    6.2471870847E-01    6.2334233423E-01    6.2194486515E-01
    6.2052675812E-01    6.1908846411E-01    6.1763042832E-01    6.1615309015E-01
    6.1465688330E-01    6.1314223581E-01    6.1160957013E-01    6.1005930317E-01
    6.0849184637E-01    6.0690760570E-01    6.0530698178E-01    6.0369036993E-01
    6.0205816015E-01    6.0041073728E-01    5.9874848098E-01    5.9707176579E-01
    5.9538096122E-01    5.9367643178E-01    5.9195853700E-01    5.9022763156E-01
    5.8848406526E-01    5.8672818312E-01    5.8496032540E-01    5.8318082770E-01
    5.8139002093E-01    5.7958823144E-01    5.7777578101E-01    5.7595298694E-01
    5.7412016206E-01    5.7227761482E-01    5.7042564929E-01    5.6856456523E-01
    5.6669465816E-01    5.6481621935E-01    5.6292953591E-01    5.6103489083E-01
    5.5913256300E-01    5.5722282728E-01    5.5530595452E-01    5.5338221162E-01
    5.5145186156E-01    5.4951516347E-01    5.4757237264E-01    5.4562374055E-01
    5.4366951497E-01    5.4170993994E-01    5.3974525583E-01    5.3777569940E-01
    5.3580150380E-01    5.3382289865E-01    5.3184011004E-01    5.2985336061E-01
    5.2786286954E-01    5.2586885262E-01    5.2387152228E-01    5.2187108762E-01
    5.1986775446E-01    5.1786172535E-01    5.1585319963E-01    5.1384237346E-01
    5.1182943985E-01    5.0981458868E-01    5.0779800676E-01    5.0577987787E-01
    5.0376038275E-01    5.0173969916E-01    4.9971800193E-01    4.9769546297E-01
    4.9567225129E-01    4.9364853306E-01    4.9162447164E-01    4.8960022759E-01
    4.8757595871E-01    4.8555182008E-01    4.8352796407E-01    4.8150454041E-01
    4.7948169616E-01    4.7745957581E-01    4.7543832124E-01    4.7341807181E-01
    4.7139896433E-01    4.6938113316E-01    4.6736471017E-01    4.6534982480E-01
    4.6333660409E-01    4.6132517271E-01    4.5931565297E-01    4.5730816487E-01
    4.5530282609E-01    4.5329975209E-01    4.5129905604E-01    4.4930084893E-01
    4.4730523954E-01    4.4531233452E-01    4.4332223835E-01    4.4133505343E-01
    4.3935088005E-01    4.3736981648E-01    4.3539195893E-01    4.3341740160E-01
    4.3144623674E-01    4.2947855461E-01    4.2751444356E-01    4.2555399003E-01
    4.2359727856E-01    4.2164439185E-01    4.1969541076E-01    4.1775041435E-01
    4.1580947988E-01    4.1387268284E-01    4.1194009701E-01    4.1001179442E-01
    4.0808784542E-01    4.0616831870E-01    4.0425328129E-01    4.0234279860E-01
    4.0043693442E-01    3.9853575099E-01    3.9663930897E-01    3.9474766749E-01
    3.9286088416E-01    3.9097901510E-01    3.8910211496E-01    3.8723023694E-01
    3.8536343280E-01    3.8350175290E-01    3.8164524621E-01    3.7979396034E-01
    3.7794794153E-01    3.7610723472E-01    3.7427188352E-01    3.7244193027E-01
    3.7061741604E-01    3.6879838063E-01    3.6698486265E-01    3.6517689946E-01
    3.6337452726E-01    3.6157778106E-01    3.5978669473E-01    3.5800130100E-01
    3.5622163146E-01    3.5444771665E-01    3.5267958599E-01    3.5091726786E-01
    3.4916078958E-01    3.4741017744E-01    3.4566545673E-01    3.4392665176E-01
    3.4219378583E-01    3.4046688131E-01    3.3874595960E-01    3.3703104120E-01
    3.3532214568E-01    3.3361929173E-01    3.3192249714E-01    3.3023177886E-01
    3.2854715297E-01    3.2686863474E-01    3.2519623861E-01    3.2352997821E-01
    3.2186986640E-01    3.2021591525E-01    3.1856813608E-01    3.1692653946E-01
    3.1529113524E-01    3.1366193253E-01    3.1203893977E-01    3.1042216468E-01
    3.0881161432E-01    3.0720729508E-01    3.0560921270E-01    3.0401737229E-01
    3.0243177833E-01    3.0085243468E-01    2.9927934461E-01    2.9771251081E-01
    2.9615193537E-01    2.9459761983E-01    2.9304956518E-01    2.9150777186E-01
    2.8997223979E-01    2.8844296837E-01    2.8691995649E-01    2.8540320254E-01
    2.8389270442E-01    2.8238845956E-01    2.8089046494E-01    2.7939871706E-01
    2.7791321198E-01    2.7643394534E-01    2.7496091235E-01    2.7349410777E-01
    2.7203352601E-01    2.7057916105E-01    2.6913100647E-01    2.6768905551E-01
    2.6625330100E-01    2.6482373543E-01    2.6340035093E-01    2.6198313929E-01
    2.6057209197E-01    2.5916720008E-01    2.5776845442E-01    2.5637584550E-01
    2.5498936348E-01    2.5360899827E-01    2.5223473945E-01    2.5086657636E-01
    2.4950449801E-01    2.4814849320E-01    2.4679855043E-01    2.4545465795E-01
    2.4411680378E-01    2.4278497569E-01    2.4145916122E-01    2.4013934765E-01
    2.3882552209E-01    2.3751767139E-01    2.3621578223E-01    2.3491984104E-01
    2.3362983408E-01    2.3234574742E-01    2.3106756694E-01    2.2979527832E-01
    2.2852886709E-01    2.2726831858E-01    2.2601361799E-01    2.2476475033E-01
    2.2352170046E-01    2.2228445309E-01    2.2105299280E-01    2.1982730401E-01
    2.1860737099E-01    2.1739317791E-01    2.1618470879E-01    2.1498194754E-01
    2.1378487792E-01    2.1259348362E-01    2.1140774817E-01    2.1022765503E-01
    2.0905318753E-01    2.0788432893E-01    2.0672106235E-01    2.0556337086E-01
    2.0441123741E-01    2.0326464487E-01    2.0212357605E-01    2.0098801364E-01
    1.9985794030E-01    1.9873333858E-01    1.9761419097E-01    1.9650047991E-01
    1.9539218775E-01    1.9428929679E-01    1.9319178928E-01    1.9209964740E-01
    1.9101285330E-01    1.8993138904E-01    1.8885523668E-01    1.8778437819E-01
    1.8671879553E-01    1.8565847061E-01    1.8460338529E-01    1.8355352141E-01
    1.8250886077E-01    1.8146938514E-01    1.8043507626E-01    1.7940591584E-01
    1.7838188557E-01    1.7736296711E-01    1.7634914211E-01    1.7534039219E-01
    1.7433669896E-01    1.7333804400E-01    1.7234440889E-01    1.7135577521E-01
    1.7037212449E-01    1.6939343830E-01    1.6841969815E-01    1.6745088559E-01
    1.6648698214E-01    1.6552796933E-01    1.6457382867E-01    1.6362454169E-01
    1.6268008992E-01    1.6174045487E-01    1.6080561809E-01    1.5987556110E-01
    1.5895026544E-01    1.5802971267E-01    1.5711388434E-01    1.5620276201E-01
    1.5529632727E-01    1.5439456171E-01    1.5349744692E-01    1.5260496453E-01
    1.5171709617E-01    1.5083382348E-01    1.4995512813E-01    1.4908099181E-01
    1.4821139620E-01    1.4734632304E-01    1.4648575406E-01    1.4562967102E-01
    1.4477805572E-01    1.4393088995E-01    1.4308815555E-01    1.4224983437E-01
    1.4141590829E-01    1.4058635921E-01    1.3976116908E-01    1.3894031984E-01
    1.3812379348E-01    1.3731157201E-01    1.3650363749E-01    1.3569997197E-01
    1.3490055757E-01    1.3410537642E-01    1.3331441068E-01    1.3252764255E-01
    1.3174505425E-01    1.3096662805E-01    1.3019234623E-01    1.2942219114E-01
    1.2865614512E-01    1.2789419058E-01    1.2713630995E-01    1.2638248568E-01
    1.2563270029E-01    1.2488693632E-01    1.2414517633E-01    1.2340740294E-01
    1.2267359879E-01    1.2194374659E-01    1.2121782904E-01    1.2049582892E-01
    1.1977772902E-01    1.1906351219E-01    1.1835316130E-01    1.1764665928E-01
    1.1694398909E-01    1.1624513372E-01    1.1555007622E-01    1.1485879966E-01
    1.1417128718E-01    1.1348752193E-01    1.1280748711E-01    1.1213116599E-01
    1.1145854183E-01    1.1078959799E-01    1.1012431782E-01    1.0946268474E-01
    1.0880468223E-01    1.0815029376E-01    1.0749950290E-01    1.0685229323E-01
    1.0620864839E-01    1.0556855204E-01    1.0493198792E-01    1.0429893979E-01
    1.0366939145E-01    1.0304332676E-01    1.0242072961E-01    1.0180158396E-01
    1.0118587378E-01    1.0057358313E-01    9.9964696059E-02    9.9359196708E-02
    9.8757069245E-02    9.8158297883E-02    9.7562866885E-02    9.6970760558E-02
    9.6381963255E-02    9.5796459377E-02    9.5214233369E-02    9.4635269724E-02
    9.4059552981E-02    9.3487067725E-02    9.2917798590E-02    9.2351730254E-02
    9.1788847443E-02    9.1229134932E-02    9.0672577539E-02    9.0119160133E-02
    8.9568867627E-02    8.9021684986E-02    8.8477597216E-02    8.7936589377E-02
    8.7398646572E-02    8.6863753953E-02    8.6331896721E-02    8.5803060123E-02
    8.5277229455E-02    8.4754390059E-02    8.4234527329E-02    8.3717626702E-02
    8.3203673666E-02    8.2692653757E-02    8.2184552559E-02    8.1679355703E-02
    8.1177048869E-02    8.0677617786E-02    8.0181048231E-02    7.9687326028E-02
    7.9196437051E-02    7.8708367222E-02    7.8223102512E-02    7.7740628939E-02
    7.7260932570E-02    7.6783999521E-02    7.6309815957E-02    7.5838368091E-02
    7.5369642184E-02    7.4903624547E-02    7.4440301538E-02    7.3979659565E-02
    7.3521685084E-02    7.3066364600E-02    7.2613684666E-02    7.2163631885E-02
    7.1716192906E-02    7.1271354431E-02    7.0829103207E-02    7.0389426030E-02
    6.9952309747E-02    6.9517741252E-02    6.9085707487E-02    6.8656195445E-02
    6.8229192165E-02    6.7804684736E-02    6.7382660297E-02    6.6963106032E-02
    6.6546009177E-02    6.6131357016E-02    6.5719136879E-02    6.5309336148E-02
    6.4901942251E-02    6.4496942666E-02    6.4094324919E-02    6.3694076585E-02
    6.3296185285E-02    6.2900638692E-02    6.2507424524E-02    6.2116530550E-02
    6.1727944586E-02    6.1341654496E-02    6.0957648192E-02    6.0575913637E-02
    6.0196438838E-02    5.9819211853E-02    5.9444220787E-02    5.9071453793E-02
    5.8700899072E-02    5.8332544873E-02    5.7966379492E-02    5.7602391276E-02
    5.7240568615E-02    5.6880899951E-02    5.6523373770E-02    5.6167978609E-02
    5.5814703051E-02    5.5463535725E-02    5.5114465310E-02    5.4767480531E-02
    5.4422570161E-02    5.4079723019E-02    5.3738927972E-02    5.3400173935E-02
    5.3063449868E-02    5.2728744781E-02    5.2396047726E-02    5.2065347808E-02
    5.1736634174E-02    5.1409896019E-02    5.1085122586E-02    5.0762303162E-02
    5.0441427084E-02    5.0122483732E-02    4.9805462534E-02    4.9490352963E-02
    4.9177144540E-02    4.8865826831E-02    4.8556389448E-02    4.8248822048E-02
    4.7943114337E-02    4.7639256062E-02    4.7337237019E-02    4.7037047049E-02
    4.6738676038E-02    4.6442113918E-02    4.6147350665E-02    4.5854376301E-02
    4.5563180893E-02    4.5273754554E-02    4.4986087440E-02    4.4700169752E-02
    4.4415991738E-02    4.4133543689E-02    4.3852815939E-02    4.3573798869E-02
    4.3296482904E-02    4.3020858511E-02    4.2746916203E-02    4.2474646537E-02
    4.2204040113E-02    4.1935087576E-02    4.1667779613E-02    4.1402106956E-02
    4.1138060380E-02    4.0875630703E-02    4.0614808787E-02    4.0355585536E-02
    4.0097951898E-02    3.9841898864E-02    3.9587417467E-02    3.9334498784E-02
    3.9083133933E-02    3.8833314074E-02    3.8585030413E-02    3.8338274194E-02
    3.8093036706E-02    3.7849309278E-02    3.7607083281E-02    3.7366350131E-02
    3.7127101281E-02    3.6889328228E-02    3.6653022510E-02    3.6418175707E-02
    3.6184779440E-02    3.5952825369E-02    3.5722305198E-02    3.5493210669E-02
    3.5265533566E-02    3.5039265715E-02    3.4814398979E-02    3.4590925265E-02
    3.4368836516E-02    3.4148124720E-02    3.3928781901E-02    3.3710800125E-02
    3.3494171496E-02    3.3278888158E-02    3.3064942296E-02    3.2852326132E-02
    3.2641031929E-02    3.2431051987E-02    3.2222378648E-02    3.2015004290E-02
    3.1808921330E-02    3.1604122225E-02    3.1400599469E-02    3.1198345595E-02
    3.0997353173E-02    3.0797614812E-02    3.0599123160E-02    3.0401870900E-02
    3.0205850754E-02    3.0011055482E-02    2.9817477881E-02    2.9625110784E-02
    2.9433947063E-02    2.9243979624E-02    2.9055201414E-02    2.8867605414E-02
    2.8681184641E-02    2.8495932149E-02    2.8311841030E-02    2.8128904409E-02
    2.7947115450E-02    2.7766467351E-02    2.7586953346E-02    2.7408566705E-02
    2.7231300734E-02    2.7055148772E-02    2.6880104196E-02    2.6706160416E-02
    2.6533310879E-02    2.6361549064E-02    2.6190868486E-02    2.6021262696E-02
    2.5852725277E-02    2.5685249848E-02    2.5518830060E-02    2.5353459600E-02
    2.5189132188E-02    2.5025841578E-02    2.4863581557E-02    2.4702345945E-02
    2.4542128598E-02    2.4382923401E-02    2.4224724276E-02    2.4067525174E-02
    2.3911320083E-02    2.3756103020E-02    2.3601868036E-02    2.3448609214E-02
    2.3296320670E-02    2.3144996551E-02    2.2994631036E-02    2.2845218338E-02
    2.2696752697E-02    2.2549228389E-02    2.2402639720E-02    2.2256981026E-02
    2.2112246676E-02    2.1968431068E-02    2.1825528633E-02    2.1683533831E-02
    2.1542441154E-02    2.1402245122E-02    2.1262940289E-02    2.1124521236E-02
    2.0986982575E-02    2.0850318950E-02    2.0714525030E-02    2.0579595519E-02
    2.0445525147E-02    2.0312308675E-02    2.0179940893E-02    2.0048416618E-02
    1.9917730701E-02    1.9787878016E-02    1.9658853469E-02    1.9530651995E-02
    1.9403268556E-02    1.9276698143E-02    1.9150935774E-02    1.9025976498E-02
    1.8901815389E-02    1.8778447550E-02    1.8655868112E-02    1.8534072233E-02
    1.8413055098E-02    1.8292811920E-02    1.8173337940E-02    1.8054628424E-02
    1.7936678667E-02    1.7819483990E-02    1.7703039739E-02    1.7587341290E-02
    1.7472384042E-02    1.7358163422E-02    1.7244674883E-02    1.7131913905E-02
    1.7019875991E-02    1.6908556673E-02    1.6797951507E-02    1.6688056075E-02
    1.6578865983E-02    1.6470376866E-02    1.6362584379E-02    1.6255484207E-02
    1.6149072056E-02    1.6043343660E-02    1.5938294775E-02    1.5833921183E-02
    1.5730218691E-02    1.5627183128E-02    1.5524810350E-02    1.5423096235E-02
    1.5322036686E-02    1.5221627629E-02    1.5121865015E-02    1.5022744818E-02
    1.4924263034E-02    1.4826415685E-02    1.4729198814E-02    1.4632608489E-02
    1.4536640800E-02    1.4441291859E-02    1.4346557802E-02    1.4252434787E-02
    1.4158918997E-02    1.4066006633E-02    1.3973693922E-02    1.3881977112E-02
    1.3790852472E-02    1.3700316294E-02    1.3610364892E-02    1.3520994603E-02
    1.3432201782E-02    1.3343982809E-02    1.3256334084E-02    1.3169252028E-02
    1.3082733084E-02    1.2996773715E-02    1.2911370407E-02    1.2826519664E-02
    1.2742218013E-02    1.2658462001E-02    1.2575248195E-02    1.2492573184E-02
    1.2410433575E-02    1.2328825997E-02    1.2247747098E-02    1.2167193547E-02
    1.2087162032E-02    1.2007649261E-02    1.1928651963E-02    1.1850166884E-02
    1.1772190792E-02    1.1694720473E-02    1.1617752732E-02    1.1541284394E-02
    1.1465312303E-02    1.1389833321E-02    1.1314844331E-02    1.1240342232E-02
    1.1166323943E-02    1.1092786402E-02    1.1019726564E-02    1.0947141405E-02
    1.0875027916E-02    1.0803383109E-02    1.0732204012E-02    1.0661487672E-02
    1.0591231153E-02    1.0521431537E-02    1.0452085926E-02    1.0383191435E-02
    1.0314745201E-02    1.0246744375E-02    1.0179186128E-02    1.0112067646E-02
    1.0045386132E-02    9.9791388088E-03    9.9133229131E-03    9.8479356997E-03
    9.7829744401E-03    9.7184364220E-03    9.6543189500E-03    9.5906193450E-03
    9.5273349443E-03    9.4644631013E-03    9.4020011857E-03    9.3399465833E-03
    9.2782966957E-03    9.2170489406E-03    9.1562007513E-03    9.0957495770E-03
    9.0356928825E-03    8.9760281480E-03    8.9167528692E-03    8.8578645573E-03
    8.7993607386E-03    8.7412389548E-03    8.6834967624E-03    8.6261317331E-03
    8.5691414536E-03    8.5125235254E-03    8.4562755647E-03    8.4003952023E-03
    8.3448800839E-03    8.2897278695E-03    8.2349362334E-03    8.1805028646E-03
    8.1264254660E-03    8.0727017551E-03    8.0193294631E-03    7.9663063353E-03
    7.9136301313E-03    7.8612986241E-03    7.8093096008E-03    7.7576608620E-03
    7.7063502220E-03    7.6553755088E-03    7.6047345636E-03    7.5544252412E-03
    7.5044454095E-03    7.4547929499E-03    7.4054657569E-03    7.3564617378E-03
    7.3077788133E-03    7.2594149168E-03    7.2113679946E-03    7.1636360058E-03
    7.1162169223E-03    7.0691087284E-03    7.0223094212E-03    6.9758170102E-03
    6.9296295173E-03    6.8837449766E-03    6.8381614349E-03    6.7928769507E-03
    6.7478895949E-03    6.7031974504E-03    6.6587986121E-03    6.6146911868E-03
    6.5708732932E-03    6.5273430617E-03    6.4840986343E-03    6.4411381649E-03
    6.3984598189E-03    6.3560617729E-03    6.3139422154E-03    6.2720993459E-03
    6.2305313753E-03    6.1892365259E-03    6.1482130310E-03    6.1074591349E-03
    6.0669730932E-03    6.0267531722E-03    5.9867976493E-03    5.9471048126E-03
    5.9076729611E-03    5.8685004045E-03    5.8295854629E-03    5.7909264673E-03
    5.7525217592E-03    5.7143696902E-03    5.6764686226E-03    5.6388169291E-03
    5.6014129925E-03    5.5642552057E-03    5.5273419721E-03    5.4906717048E-03
    5.4542428272E-03    5.4180537726E-03    5.3821029840E-03    5.3463889147E-03
    5.3109100272E-03    5.2756647943E-03    5.2406516981E-03    5.2058692304E-03
    5.1713158925E-03    5.1369901955E-03    5.1028906594E-03    5.0690158142E-03
    5.0353641986E-03    5.0019343612E-03    4.9687248592E-03    4.9357342594E-03
    4.9029611376E-03    4.8704040785E-03    4.8380616759E-03    4.8059325325E-03
    4.7740152600E-03    4.7423084788E-03    4.7108108180E-03    4.6795209158E-03
    4.6484374185E-03    4.6175589815E-03    4.5868842685E-03    4.5564119518E-03
    4.5261407123E-03    4.4960692389E-03    4.4661962293E-03    4.4365203893E-03
    4.4070404330E-03    4.3777550825E-03    4.3486630685E-03    4.3197631293E-03
    4.2910540117E-03    4.2625344701E-03    4.2342032672E-03    4.2060591734E-03
    4.1781009670E-03    4.1503274343E-03    4.1227373689E-03    4.0953295727E-03
    4.0681028548E-03    4.0410560321E-03    4.0141879292E-03    3.9874973779E-03
    3.9609832179E-03    3.9346442960E-03    3.9084794665E-03    3.8824875910E-03
    3.8566675386E-03    3.8310181853E-03    3.8055384146E-03    3.7802271171E-03
    3.7550831905E-03    3.7301055394E-03    3.7052930758E-03    3.6806447183E-03
    3.6561593927E-03    3.6318360317E-03    3.6076735747E-03    3.5836709680E-03
    3.5598271647E-03    3.5361411246E-03    3.5126118141E-03    3.4892382066E-03
    3.4660192816E-03    3.4429540255E-03    3.4200414312E-03    3.3972804979E-03
    3.3746702315E-03    3.3522096441E-03    3.3298977543E-03    3.3077335869E-03
    3.2857161732E-03    3.2638445503E-03    3.2421177621E-03    3.2205348582E-03
    3.1990948946E-03    3.1777969332E-03    3.1566400421E-03    3.1356232954E-03
    3.1147457730E-03    3.0940065610E-03    3.0734047513E-03    3.0529394415E-03
    3.0326097353E-03    3.0124147421E-03    2.9923535770E-03    2.9724253607E-03
    2.9526292199E-03    2.9329642868E-03    2.9134296991E-03    2.8940246001E-03
    2.8747481389E-03    2.8555994699E-03    2.8365777529E-03    2.8176821532E-03
    2.7989118417E-03    2.7802659944E-03    2.7617437928E-03    2.7433444236E-03
    2.7250670789E-03    2.7069109559E-03    2.6888752571E-03    2.6709591902E-03
    2.6531619678E-03    2.6354828079E-03    2.6179209334E-03    2.6004755724E-03
    2.5831459578E-03    2.5659313277E-03    2.5488309249E-03    2.5318439973E-03
    2.5149697976E-03    2.4982075834E-03    2.4815566172E-03    2.4650161661E-03
    2.4485855020E-03    2.4322639018E-03    2.4160506467E-03    2.3999450229E-03
    2.3839463210E-03    2.3680538364E-03    2.3522668689E-03    2.3365847231E-03
    2.3210067079E-03    2.3055321368E-03    2.2901603278E-03    2.2748906032E-03
    2.2597222898E-03    2.2446547189E-03    2.2296872260E-03    2.2148191508E-03
    2.2000498377E-03    2.1853786351E-03    2.1708048956E-03    2.1563279761E-03
    2.1419472378E-03    2.1276620459E-03    2.1134717698E-03    2.0993757830E-03
    2.0853734632E-03    2.0714641919E-03    2.0576473550E-03    2.0439223420E-03
    2.0302885467E-03    2.0167453667E-03    2.0032922036E-03    1.9899284629E-03
    1.9766535539E-03    1.9634668899E-03    1.9503678878E-03    1.9373559687E-03
    1.9244305571E-03    1.9115910814E-03    1.8988369737E-03    1.8861676700E-03
    1.8735826097E-03    1.8610812361E-03    1.8486629959E-03    1.8363273397E-03
    1.8240737216E-03    1.8119015990E-03    1.7998104333E-03    1.7877996890E-03
    1.7758688345E-03    1.7640173413E-03    1.7522446847E-03    1.7405503432E-03
    1.7289337987E-03    1.7173945367E-03    1.7059320459E-03    1.6945458184E-03
    1.6832353496E-03    1.6720001383E-03    1.6608396865E-03    1.6497534994E-03
    1.6387410856E-03    1.6278019567E-03    1.6169356278E-03    1.6061416170E-03
    1.5954194455E-03    1.5847686377E-03    1.5741887212E-03    1.5636792267E-03
    1.5532396877E-03    1.5428696412E-03    1.5325686268E-03    1.5223361875E-03
    1.5121718691E-03    1.5020752203E-03    1.4920457929E-03    1.4820831417E-03
    1.4721868243E-03    1.4623564013E-03    1.4525914359E-03    1.4428914946E-03
    1.4332561465E-03    1.4236849636E-03    1.4141775205E-03    1.4047333950E-03
    1.3953521673E-03    1.3860334207E-03    1.3767767408E-03    1.3675817163E-03
    1.3584479384E-03    1.3493750012E-03    1.3403625012E-03    1.3314100378E-03
    1.3225172128E-03    1.3136836308E-03    1.3049088989E-03    1.2961926269E-03
    1.2875344269E-03    1.2789339140E-03    1.2703907053E-03    1.2619044209E-03
    1.2534746831E-03    1.2451011168E-03    1.2367833494E-03    1.2285210105E-03
    1.2203137326E-03    1.2121611501E-03    1.2040629003E-03    1.1960186225E-03
    1.1880279585E-03    1.1800905527E-03
   </PP_CHI.6>
 </PP_PSWFC>
 <PP_NLCC type="real"  size="1338" columns="4">
    4.6967092778E+00    4.6957639583E+00    4.6929290686E+00    4.6882078138E+00
    4.6816055291E+00    4.6731296706E+00    4.6627898022E+00    4.6505975786E+00
    4.6365667248E+00    4.6207130118E+00    4.6030542290E+00    4.5836101528E+00
    4.5624025120E+00    4.5394549498E+00    4.5147929824E+00    4.4884439543E+00
    4.4604369915E+00    4.4308029500E+00    4.3995743633E+00    4.3667853859E+00
    4.3324717348E+00    4.2966706283E+00    4.2594207227E+00    4.2207620464E+00
    4.1807359327E+00    4.1393849500E+00    4.0967528305E+00    4.0528843976E+00
    4.0078254916E+00    3.9616228942E+00    3.9143242520E+00    3.8659779990E+00
    3.8166332784E+00    3.7663398641E+00    3.7151480811E+00    3.6631087265E+00
    3.6102729894E+00    3.5566923723E+00    3.5024186111E+00    3.4475035972E+00
    3.3919992986E+00    3.3359576827E+00    3.2794306400E+00    3.2224699082E+00
    3.1651269981E+00    3.1074531202E+00    3.0494991138E+00    2.9913153762E+00
    2.9329517950E+00    2.8744576812E+00    2.8158817052E+00    2.7572718337E+00
    2.6986752702E+00    2.6401383961E+00    2.5817067158E+00    2.5234248027E+00
    2.4653362491E+00    2.4074836176E+00    2.3499083957E+00    2.2926509528E+00
    2.2357505003E+00    2.1792450541E+00    2.1231714002E+00    2.0675650628E+00
    2.0124602758E+00    1.9578899564E+00    1.9038856824E+00    1.8504776720E+00
    1.7976947662E+00    1.7455644144E+00    1.6941126628E+00    1.6433641458E+00
    1.5933420791E+00    1.5440682574E+00    1.4955630528E+00    1.4478454172E+00
    1.4009328868E+00    1.3548415889E+00    1.3095862515E+00    1.2651802151E+00
    1.2216354467E+00    1.1789625564E+00    1.1371708156E+00    1.0962681773E+00
    1.0562612991E+00    1.0171555670E+00    9.7895512184E-01    9.4166288663E-01
    9.0528059614E-01    8.6980882752E-01    8.3524703242E-01    8.0159357042E-01
    7.6884574346E-01    7.3699983147E-01    7.0605112885E-01    6.7599398186E-01
    6.4682182665E-01    6.1852722801E-01    5.9110191863E-01    5.6453683875E-01
    5.3882217616E-01    5.1394740647E-01    4.8990133347E-01    4.6667212951E-01
    4.4424737595E-01    4.2261410331E-01    4.0175883132E-01    3.8166760864E-01
    3.6232605214E-01    3.4371938578E-01    3.2583247897E-01    3.0864988423E-01
    2.9215587429E-01    2.7633447839E-01    2.6116951782E-01    2.4664464060E-01
    2.3274335529E-01    2.1944906379E-01    2.0674509325E-01    1.9461472687E-01
    1.8304123368E-01    1.7200789721E-01    1.6149804306E-01    1.5149506530E-01
    1.4198245172E-01    1.3294380789E-01    1.2436288003E-01    1.1622357667E-01
    1.0850998909E-01    1.0120641062E-01    9.4297354581E-02    8.7767571187E-02
    8.1602063119E-02    7.5786099971E-02    7.0305231500E-02    6.5145299717E-02
    6.0292449831E-02    5.5733140067E-02    5.1454150387E-02    4.7442590132E-02
    4.3685904608E-02    4.0171880657E-02    3.6888651235E-02    3.3824699023E-02
    3.0968859118E-02    2.8310320826E-02    2.5838628599E-02    2.3543682147E-02
    2.1415735772E-02    1.9445396940E-02    1.7623624162E-02    1.5941724188E-02
    1.4391348574E-02    1.2964489661E-02    1.1653475987E-02    1.0450967191E-02
    9.3499484355E-03    8.3437243885E-03    7.4259128036E-03    6.5904377326E-03
    5.8315224087E-03    5.1436818357E-03    4.5217151175E-03    3.9606975615E-03
    3.4559725895E-03    3.0031434873E-03    2.5980650239E-03    2.2368349704E-03
    1.9157855466E-03    1.6314748227E-03    1.3806781020E-03    1.1603793099E-03
    9.6776241196E-04    8.0020288374E-04    6.5525925308E-04    5.3066473425E-04
    4.2431897245E-04    3.3427991540E-04    2.5875582759E-04    1.9609746164E-04
    1.4479039968E-04    1.0344757656E-04    7.0801995328E-05    4.5699644533E-05
    2.7092625204E-05    1.4032494728E-05    5.6638334183E-06    1.2180386430E-06
    7.3502780849E-09    1.4191103185E-06    4.9102584992E-06    1.0002064890E-05
    1.6275099587E-05    2.3364438796E-05    3.0955105854E-05    3.8777745036E-05
    4.6604525304E-05    5.4245270574E-05    6.1543812477E-05    6.8374561105E-05
    7.4639288730E-05    8.0264121082E-05    8.5196730376E-05    8.9403723966E-05
    9.2868222181E-05    9.5587618670E-05    9.7571516393E-05    9.8839832164E-05
    9.9421062610E-05    9.9350704218E-05    9.8669820183E-05    9.7423746655E-05
    9.5660931040E-05    9.3431895032E-05    9.0788315105E-05    8.7782213294E-05
    8.4465251184E-05    8.0888120187E-05    7.7100021310E-05    7.3148227812E-05
    6.9077724313E-05    6.4930916123E-05    6.0747402793E-05    5.6563810084E-05
    5.2413674807E-05    4.8327377202E-05    4.4332115795E-05    4.0451919933E-05
    3.6707695403E-05    3.3117298835E-05    2.9695636850E-05    2.6454786160E-05
    2.3404131061E-05    2.0550515025E-05    1.7898403381E-05    1.5450054263E-05
    1.3205695240E-05    1.1163703320E-05    9.3207862344E-06    7.6721630450E-06
    6.2117424342E-06    4.9322971760E-06    3.8256334880E-06    2.8827541089E-06
    2.0940141929E-06    1.4492692306E-06    9.3801429471E-07    5.4951417594E-07
    2.7292402943E-07    9.7400236813E-08    1.2201393335E-08    6.7793828134E-09
    7.0860557541E-08    1.9451719647E-07    3.6822945667E-07    5.8293806339E-07
    8.3008810237E-07    1.1016642972E-06    1.3902181722E-06    1.6888875852E-06
    1.9914091074E-06    2.2921237467E-06    2.5859765515E-06    2.8685106115E-06
    3.1358559975E-06    3.3847141672E-06    3.6123383629E-06    3.8165105293E-06
    3.9955152364E-06    4.1481111148E-06    4.2735002675E-06    4.3712960888E-06
    4.4414899520E-06    4.4844171288E-06    4.5007223307E-06    4.4913252335E-06
    4.4573862621E-06    4.4002729780E-06    4.3215272923E-06    4.2228337431E-06
    4.1059890733E-06    3.9728732311E-06    3.8254220015E-06    3.6656013526E-06
    3.4953836047E-06    3.3167255204E-06    3.1315483204E-06    2.9417197125E-06
    2.7490378946E-06    2.5552175515E-06    2.3618778191E-06    2.1705321507E-06
    1.9825800725E-06    1.7993007124E-06    1.6218480652E-06    1.4512478776E-06
    1.2883960704E-06    1.1340585937E-06    9.8887260042E-07    8.5334883580E-07
    7.2787511954E-07    6.1272081057E-07    5.0804213417E-07    4.1388825958E-07
    3.3020800810E-07    2.5685709102E-07    1.9360575171E-07    1.4014673380E-07
    9.6103442658E-08    6.1038243847E-08    3.4460772794E-08    1.5836206489E-08
    4.5933951685E-09    1.3280207979E-10    1.8341808950E-09    9.0639328101E-09
    2.1182106770E-08    3.7548978498E-08    5.7531204529E-08    8.0507482350E-08
    1.0587374183E-07    1.3304779790E-07    1.6147351220E-07    1.9062439918E-07
    2.2000673473E-07    2.4916211994E-07    2.7766955624E-07    3.0514700560E-07
    3.3125248776E-07    3.5568470640E-07    3.7818325240E-07    3.9852839025E-07
    4.1654047282E-07    4.3207900084E-07    4.4504136946E-07    4.5536132605E-07
    4.6300717783E-07    4.6797977922E-07    4.7031033324E-07    4.7005804065E-07
    4.6730762579E-07    4.6216677598E-07    4.5476351627E-07    4.4524355951E-07
    4.3376764476E-07    4.2050890728E-07    4.0565028246E-07    3.8938199121E-07
    3.7189909681E-07    3.5339918543E-07    3.3408014734E-07    3.1413811530E-07
    2.9376552609E-07    2.7314936118E-07    2.5246952913E-07    2.3189743620E-07
    2.1159471311E-07    1.9171212917E-07    1.7238867083E-07    1.5375079921E-07
    1.3591187387E-07    1.1897174150E-07    1.0301648613E-07    8.8118326496E-08
    7.4335663631E-08    6.1713256194E-08    5.0282528571E-08    4.0061986996E-08
    3.1057790359E-08    2.3264172044E-08    1.6668049732E-08    1.1235696036E-08
    6.9131499513E-09    3.6782414475E-09    1.5467359571E-09    4.3531582557E-10
    1.4061192323E-11   -6.8815073935E-11   -2.0124638857E-11    2.0913364606E-11
    1.5850392850E-11   -2.7591606478E-12   -4.3638241080E-12    0.0000000000E+00
    0.0000000000E+00    0.0000000000E+00    0.0000000000E+00    0.0000000000E+00
    0.0000000000E+00    0.0000000000E+00    0.0000000000E+00    0.0000000000E+00
    0.0000000000E+00    0.0000000000E+00    0.0000000000E+00    0.0000000000E+00
    0.0000000000E+00    0.0000000000E+00    0.0000000000E+00    0.0000000000E+00
    0.0000000000E+00    0.0000000000E+00    0.0000000000E+00    0.0000000000E+00
    0.0000000000E+00    0.0000000000E+00    0.0000000000E+00    0.0000000000E+00
    0.0000000000E+00    0.0000000000E+00    0.0000000000E+00    0.0000000000E+00
    0.0000000000E+00    0.0000000000E+00    0.0000000000E+00    0.0000000000E+00
    0.0000000000E+00    0.0000000000E+00    0.0000000000E+00    0.0000000000E+00
    0.0000000000E+00    0.0000000000E+00    0.0000000000E+00    0.0000000000E+00
    0.0000000000E+00    0.0000000000E+00    0.0000000000E+00    0.0000000000E+00
    0.0000000000E+00    0.0000000000E+00    0.0000000000E+00    0.0000000000E+00
    0.0000000000E+00    0.0000000000E+00    0.0000000000E+00    0.0000000000E+00
    0.0000000000E+00    0.0000000000E+00    0.0000000000E+00    0.0000000000E+00
    0.0000000000E+00    0.0000000000E+00    0.0000000000E+00    0.0000000000E+00
    0.0000000000E+00    0.0000000000E+00    0.0000000000E+00    0.0000000000E+00
    0.0000000000E+00    0.0000000000E+00    0.0000000000E+00    0.0000000000E+00
    0.0000000000E+00    0.0000000000E+00    0.0000000000E+00    0.0000000000E+00
    0.0000000000E+00    0.0000000000E+00    0.0000000000E+00    0.0000000000E+00
    0.0000000000E+00    0.0000000000E+00    0.0000000000E+00    0.0000000000E+00
    0.0000000000E+00    0.0000000000E+00    0.0000000000E+00    0.0000000000E+00
    0.0000000000E+00    0.0000000000E+00    0.0000000000E+00    0.0000000000E+00
    0.0000000000E+00    0.0000000000E+00    0.0000000000E+00    0.0000000000E+00
    0.0000000000E+00    0.0000000000E+00    0.0000000000E+00    0.0000000000E+00
    0.0000000000E+00    0.0000000000E+00    0.0000000000E+00    0.0000000000E+00
    0.0000000000E+00    0.0000000000E+00    0.0000000000E+00    0.0000000000E+00
    0.0000000000E+00    0.0000000000E+00    0.0000000000E+00    0.0000000000E+00
    0.0000000000E+00    0.0000000000E+00    0.0000000000E+00    0.0000000000E+00
    0.0000000000E+00    0.0000000000E+00    0.0000000000E+00    0.0000000000E+00
    0.0000000000E+00    0.0000000000E+00    0.0000000000E+00    0.0000000000E+00
    0.0000000000E+00    0.0000000000E+00    0.0000000000E+00    0.0000000000E+00
    0.0000000000E+00    0.0000000000E+00    0.0000000000E+00    0.0000000000E+00
    0.0000000000E+00    0.0000000000E+00    0.0000000000E+00    0.0000000000E+00
    0.0000000000E+00    0.0000000000E+00    0.0000000000E+00    0.0000000000E+00
    0.0000000000E+00    0.0000000000E+00    0.0000000000E+00    0.0000000000E+00
    0.0000000000E+00    0.0000000000E+00    0.0000000000E+00    0.0000000000E+00
    0.0000000000E+00    0.0000000000E+00    0.0000000000E+00    0.0000000000E+00
    0.0000000000E+00    0.0000000000E+00    0.0000000000E+00    0.0000000000E+00
    0.0000000000E+00    0.0000000000E+00    0.0000000000E+00    0.0000000000E+00
    0.0000000000E+00    0.0000000000E+00    0.0000000000E+00    0.0000000000E+00
    0.0000000000E+00    0.0000000000E+00    0.0000000000E+00    0.0000000000E+00
    0.0000000000E+00    0.0000000000E+00    0.0000000000E+00    0.0000000000E+00
    0.0000000000E+00    0.0000000000E+00    0.0000000000E+00    0.0000000000E+00
    0.0000000000E+00    0.0000000000E+00    0.0000000000E+00    0.0000000000E+00
    0.0000000000E+00    0.0000000000E+00    0.0000000000E+00    0.0000000000E+00
    0.0000000000E+00    0.0000000000E+00    0.0000000000E+00    0.0000000000E+00
    0.0000000000E+00    0.0000000000E+00    0.0000000000E+00    0.0000000000E+00
    0.0000000000E+00    0.0000000000E+00    0.0000000000E+00    0.0000000000E+00
    0.0000000000E+00    0.0000000000E+00    0.0000000000E+00    0.0000000000E+00
    0.0000000000E+00    0.0000000000E+00    0.0000000000E+00    0.0000000000E+00
    0.0000000000E+00    0.0000000000E+00    0.0000000000E+00    0.0000000000E+00
    0.0000000000E+00    0.0000000000E+00    0.0000000000E+00    0.0000000000E+00
    0.0000000000E+00    0.0000000000E+00    0.0000000000E+00    0.0000000000E+00
    0.0000000000E+00    0.0000000000E+00    0.0000000000E+00    0.0000000000E+00
    0.0000000000E+00    0.0000000000E+00    0.0000000000E+00    0.0000000000E+00
    0.0000000000E+00    0.0000000000E+00    0.0000000000E+00    0.0000000000E+00
    0.0000000000E+00    0.0000000000E+00    0.0000000000E+00    0.0000000000E+00
    0.0000000000E+00    0.0000000000E+00    0.0000000000E+00    0.0000000000E+00
    0.0000000000E+00    0.0000000000E+00    0.0000000000E+00    0.0000000000E+00
    0.0000000000E+00    0.0000000000E+00    0.0000000000E+00    0.0000000000E+00
    0.0000000000E+00    0.0000000000E+00    0.0000000000E+00    0.0000000000E+00
    0.0000000000E+00    0.0000000000E+00    0.0000000000E+00    0.0000000000E+00
    0.0000000000E+00    0.0000000000E+00    0.0000000000E+00    0.0000000000E+00
    0.0000000000E+00    0.0000000000E+00    0.0000000000E+00    0.0000000000E+00
    0.0000000000E+00    0.0000000000E+00    0.0000000000E+00    0.0000000000E+00
    0.0000000000E+00    0.0000000000E+00    0.0000000000E+00    0.0000000000E+00
    0.0000000000E+00    0.0000000000E+00    0.0000000000E+00    0.0000000000E+00
    0.0000000000E+00    0.0000000000E+00    0.0000000000E+00    0.0000000000E+00
    0.0000000000E+00    0.0000000000E+00    0.0000000000E+00    0.0000000000E+00
    0.0000000000E+00    0.0000000000E+00    0.0000000000E+00    0.0000000000E+00
    0.0000000000E+00    0.0000000000E+00    0.0000000000E+00    0.0000000000E+00
    0.0000000000E+00    0.0000000000E+00    0.0000000000E+00    0.0000000000E+00
    0.0000000000E+00    0.0000000000E+00    0.0000000000E+00    0.0000000000E+00
    0.0000000000E+00    0.0000000000E+00    0.0000000000E+00    0.0000000000E+00
    0.0000000000E+00    0.0000000000E+00    0.0000000000E+00    0.0000000000E+00
    0.0000000000E+00    0.0000000000E+00    0.0000000000E+00    0.0000000000E+00
    0.0000000000E+00    0.0000000000E+00    0.0000000000E+00    0.0000000000E+00
    0.0000000000E+00    0.0000000000E+00    0.0000000000E+00    0.0000000000E+00
    0.0000000000E+00    0.0000000000E+00    0.0000000000E+00    0.0000000000E+00
    0.0000000000E+00    0.0000000000E+00    0.0000000000E+00    0.0000000000E+00
    0.0000000000E+00    0.0000000000E+00    0.0000000000E+00    0.0000000000E+00
    0.0000000000E+00    0.0000000000E+00    0.0000000000E+00    0.0000000000E+00
    0.0000000000E+00    0.0000000000E+00    0.0000000000E+00    0.0000000000E+00
    0.0000000000E+00    0.0000000000E+00    0.0000000000E+00    0.0000000000E+00
    0.0000000000E+00    0.0000000000E+00    0.0000000000E+00    0.0000000000E+00
    0.0000000000E+00    0.0000000000E+00    0.0000000000E+00    0.0000000000E+00
    0.0000000000E+00    0.0000000000E+00    0.0000000000E+00    0.0000000000E+00
    0.0000000000E+00    0.0000000000E+00    0.0000000000E+00    0.0000000000E+00
    0.0000000000E+00    0.0000000000E+00    0.0000000000E+00    0.0000000000E+00
    0.0000000000E+00    0.0000000000E+00    0.0000000000E+00    0.0000000000E+00
    0.0000000000E+00    0.0000000000E+00    0.0000000000E+00    0.0000000000E+00
    0.0000000000E+00    0.0000000000E+00    0.0000000000E+00    0.0000000000E+00
    0.0000000000E+00    0.0000000000E+00    0.0000000000E+00    0.0000000000E+00
    0.0000000000E+00    0.0000000000E+00    0.0000000000E+00    0.0000000000E+00
    0.0000000000E+00    0.0000000000E+00    0.0000000000E+00    0.0000000000E+00
    0.0000000000E+00    0.0000000000E+00    0.0000000000E+00    0.0000000000E+00
    0.0000000000E+00    0.0000000000E+00    0.0000000000E+00    0.0000000000E+00
    0.0000000000E+00    0.0000000000E+00    0.0000000000E+00    0.0000000000E+00
    0.0000000000E+00    0.0000000000E+00    0.0000000000E+00    0.0000000000E+00
    0.0000000000E+00    0.0000000000E+00    0.0000000000E+00    0.0000000000E+00
    0.0000000000E+00    0.0000000000E+00    0.0000000000E+00    0.0000000000E+00
    0.0000000000E+00    0.0000000000E+00    0.0000000000E+00    0.0000000000E+00
    0.0000000000E+00    0.0000000000E+00    0.0000000000E+00    0.0000000000E+00
    0.0000000000E+00    0.0000000000E+00    0.0000000000E+00    0.0000000000E+00
    0.0000000000E+00    0.0000000000E+00    0.0000000000E+00    0.0000000000E+00
    0.0000000000E+00    0.0000000000E+00    0.0000000000E+00    0.0000000000E+00
    0.0000000000E+00    0.0000000000E+00    0.0000000000E+00    0.0000000000E+00
    0.0000000000E+00    0.0000000000E+00    0.0000000000E+00    0.0000000000E+00
    0.0000000000E+00    0.0000000000E+00    0.0000000000E+00    0.0000000000E+00
    0.0000000000E+00    0.0000000000E+00    0.0000000000E+00    0.0000000000E+00
    0.0000000000E+00    0.0000000000E+00    0.0000000000E+00    0.0000000000E+00
    0.0000000000E+00    0.0000000000E+00    0.0000000000E+00    0.0000000000E+00
    0.0000000000E+00    0.0000000000E+00    0.0000000000E+00    0.0000000000E+00
    0.0000000000E+00    0.0000000000E+00    0.0000000000E+00    0.0000000000E+00
    0.0000000000E+00    0.0000000000E+00    0.0000000000E+00    0.0000000000E+00
    0.0000000000E+00    0.0000000000E+00    0.0000000000E+00    0.0000000000E+00
    0.0000000000E+00    0.0000000000E+00    0.0000000000E+00    0.0000000000E+00
    0.0000000000E+00    0.0000000000E+00    0.0000000000E+00    0.0000000000E+00
    0.0000000000E+00    0.0000000000E+00    0.0000000000E+00    0.0000000000E+00
    0.0000000000E+00    0.0000000000E+00    0.0000000000E+00    0.0000000000E+00
    0.0000000000E+00    0.0000000000E+00    0.0000000000E+00    0.0000000000E+00
    0.0000000000E+00    0.0000000000E+00    0.0000000000E+00    0.0000000000E+00
    0.0000000000E+00    0.0000000000E+00    0.0000000000E+00    0.0000000000E+00
    0.0000000000E+00    0.0000000000E+00    0.0000000000E+00    0.0000000000E+00
    0.0000000000E+00    0.0000000000E+00    0.0000000000E+00    0.0000000000E+00
    0.0000000000E+00    0.0000000000E+00    0.0000000000E+00    0.0000000000E+00
    0.0000000000E+00    0.0000000000E+00    0.0000000000E+00    0.0000000000E+00
    0.0000000000E+00    0.0000000000E+00    0.0000000000E+00    0.0000000000E+00
    0.0000000000E+00    0.0000000000E+00    0.0000000000E+00    0.0000000000E+00
    0.0000000000E+00    0.0000000000E+00    0.0000000000E+00    0.0000000000E+00
    0.0000000000E+00    0.0000000000E+00    0.0000000000E+00    0.0000000000E+00
    0.0000000000E+00    0.0000000000E+00    0.0000000000E+00    0.0000000000E+00
    0.0000000000E+00    0.0000000000E+00    0.0000000000E+00    0.0000000000E+00
    0.0000000000E+00    0.0000000000E+00    0.0000000000E+00    0.0000000000E+00
    0.0000000000E+00    0.0000000000E+00    0.0000000000E+00    0.0000000000E+00
    0.0000000000E+00    0.0000000000E+00    0.0000000000E+00    0.0000000000E+00
    0.0000000000E+00    0.0000000000E+00    0.0000000000E+00    0.0000000000E+00
    0.0000000000E+00    0.0000000000E+00    0.0000000000E+00    0.0000000000E+00
    0.0000000000E+00    0.0000000000E+00    0.0000000000E+00    0.0000000000E+00
    0.0000000000E+00    0.0000000000E+00    0.0000000000E+00    0.0000000000E+00
    0.0000000000E+00    0.0000000000E+00    0.0000000000E+00    0.0000000000E+00
    0.0000000000E+00    0.0000000000E+00    0.0000000000E+00    0.0000000000E+00
    0.0000000000E+00    0.0000000000E+00    0.0000000000E+00    0.0000000000E+00
    0.0000000000E+00    0.0000000000E+00    0.0000000000E+00    0.0000000000E+00
    0.0000000000E+00    0.0000000000E+00    0.0000000000E+00    0.0000000000E+00
    0.0000000000E+00    0.0000000000E+00    0.0000000000E+00    0.0000000000E+00
    0.0000000000E+00    0.0000000000E+00    0.0000000000E+00    0.0000000000E+00
    0.0000000000E+00    0.0000000000E+00    0.0000000000E+00    0.0000000000E+00
    0.0000000000E+00    0.0000000000E+00    0.0000000000E+00    0.0000000000E+00
    0.0000000000E+00    0.0000000000E+00    0.0000000000E+00    0.0000000000E+00
    0.0000000000E+00    0.0000000000E+00    0.0000000000E+00    0.0000000000E+00
    0.0000000000E+00    0.0000000000E+00    0.0000000000E+00    0.0000000000E+00
    0.0000000000E+00    0.0000000000E+00    0.0000000000E+00    0.0000000000E+00
    0.0000000000E+00    0.0000000000E+00    0.0000000000E+00    0.0000000000E+00
    0.0000000000E+00    0.0000000000E+00    0.0000000000E+00    0.0000000000E+00
    0.0000000000E+00    0.0000000000E+00    0.0000000000E+00    0.0000000000E+00
    0.0000000000E+00    0.0000000000E+00    0.0000000000E+00    0.0000000000E+00
    0.0000000000E+00    0.0000000000E+00    0.0000000000E+00    0.0000000000E+00
    0.0000000000E+00    0.0000000000E+00    0.0000000000E+00    0.0000000000E+00
    0.0000000000E+00    0.0000000000E+00    0.0000000000E+00    0.0000000000E+00
    0.0000000000E+00    0.0000000000E+00    0.0000000000E+00    0.0000000000E+00
    0.0000000000E+00    0.0000000000E+00    0.0000000000E+00    0.0000000000E+00
    0.0000000000E+00    0.0000000000E+00    0.0000000000E+00    0.0000000000E+00
    0.0000000000E+00    0.0000000000E+00    0.0000000000E+00    0.0000000000E+00
    0.0000000000E+00    0.0000000000E+00    0.0000000000E+00    0.0000000000E+00
    0.0000000000E+00    0.0000000000E+00    0.0000000000E+00    0.0000000000E+00
    0.0000000000E+00    0.0000000000E+00    0.0000000000E+00    0.0000000000E+00
    0.0000000000E+00    0.0000000000E+00    0.0000000000E+00    0.0000000000E+00
    0.0000000000E+00    0.0000000000E+00    0.0000000000E+00    0.0000000000E+00
    0.0000000000E+00    0.0000000000E+00    0.0000000000E+00    0.0000000000E+00
    0.0000000000E+00    0.0000000000E+00    0.0000000000E+00    0.0000000000E+00
    0.0000000000E+00    0.0000000000E+00    0.0000000000E+00    0.0000000000E+00
    0.0000000000E+00    0.0000000000E+00    0.0000000000E+00    0.0000000000E+00
    0.0000000000E+00    0.0000000000E+00    0.0000000000E+00    0.0000000000E+00
    0.0000000000E+00    0.0000000000E+00    0.0000000000E+00    0.0000000000E+00
    0.0000000000E+00    0.0000000000E+00    0.0000000000E+00    0.0000000000E+00
    0.0000000000E+00    0.0000000000E+00    0.0000000000E+00    0.0000000000E+00
    0.0000000000E+00    0.0000000000E+00    0.0000000000E+00    0.0000000000E+00
    0.0000000000E+00    0.0000000000E+00    0.0000000000E+00    0.0000000000E+00
    0.0000000000E+00    0.0000000000E+00    0.0000000000E+00    0.0000000000E+00
    0.0000000000E+00    0.0000000000E+00    0.0000000000E+00    0.0000000000E+00
    0.0000000000E+00    0.0000000000E+00    0.0000000000E+00    0.0000000000E+00
    0.0000000000E+00    0.0000000000E+00    0.0000000000E+00    0.0000000000E+00
    0.0000000000E+00    0.0000000000E+00    0.0000000000E+00    0.0000000000E+00
    0.0000000000E+00    0.0000000000E+00    0.0000000000E+00    0.0000000000E+00
    0.0000000000E+00    0.0000000000E+00    0.0000000000E+00    0.0000000000E+00
    0.0000000000E+00    0.0000000000E+00    0.0000000000E+00    0.0000000000E+00
    0.0000000000E+00    0.0000000000E+00    0.0000000000E+00    0.0000000000E+00
    0.0000000000E+00    0.0000000000E+00    0.0000000000E+00    0.0000000000E+00
    0.0000000000E+00    0.0000000000E+00    0.0000000000E+00    0.0000000000E+00
    0.0000000000E+00    0.0000000000E+00    0.0000000000E+00    0.0000000000E+00
    0.0000000000E+00    0.0000000000E+00    0.0000000000E+00    0.0000000000E+00
    0.0000000000E+00    0.0000000000E+00    0.0000000000E+00    0.0000000000E+00
    0.0000000000E+00    0.0000000000E+00    0.0000000000E+00    0.0000000000E+00
    0.0000000000E+00    0.0000000000E+00    0.0000000000E+00    0.0000000000E+00
    0.0000000000E+00    0.0000000000E+00    0.0000000000E+00    0.0000000000E+00
    0.0000000000E+00    0.0000000000E+00    0.0000000000E+00    0.0000000000E+00
    0.0000000000E+00    0.0000000000E+00    0.0000000000E+00    0.0000000000E+00
    0.0000000000E+00    0.0000000000E+00    0.0000000000E+00    0.0000000000E+00
    0.0000000000E+00    0.0000000000E+00    0.0000000000E+00    0.0000000000E+00
    0.0000000000E+00    0.0000000000E+00    0.0000000000E+00    0.0000000000E+00
    0.0000000000E+00    0.0000000000E+00    0.0000000000E+00    0.0000000000E+00
    0.0000000000E+00    0.0000000000E+00    0.0000000000E+00    0.0000000000E+00
    0.0000000000E+00    0.0000000000E+00    0.0000000000E+00    0.0000000000E+00
    0.0000000000E+00    0.0000000000E+00    0.0000000000E+00    0.0000000000E+00
    0.0000000000E+00    0.0000000000E+00    0.0000000000E+00    0.0000000000E+00
    0.0000000000E+00    0.0000000000E+00    0.0000000000E+00    0.0000000000E+00
    0.0000000000E+00    0.0000000000E+00    0.0000000000E+00    0.0000000000E+00
    0.0000000000E+00    0.0000000000E+00    0.0000000000E+00    0.0000000000E+00
    0.0000000000E+00    0.0000000000E+00    0.0000000000E+00    0.0000000000E+00
    0.0000000000E+00    0.0000000000E+00    0.0000000000E+00    0.0000000000E+00
    0.0000000000E+00    0.0000000000E+00    0.0000000000E+00    0.0000000000E+00
    0.0000000000E+00    0.0000000000E+00    0.0000000000E+00    0.0000000000E+00
    0.0000000000E+00    0.0000000000E+00    0.0000000000E+00    0.0000000000E+00
    0.0000000000E+00    0.0000000000E+00    0.0000000000E+00    0.0000000000E+00
    0.0000000000E+00    0.0000000000E+00    0.0000000000E+00    0.0000000000E+00
    0.0000000000E+00    0.0000000000E+00    0.0000000000E+00    0.0000000000E+00
    0.0000000000E+00    0.0000000000E+00    0.0000000000E+00    0.0000000000E+00
    0.0000000000E+00    0.0000000000E+00    0.0000000000E+00    0.0000000000E+00
    0.0000000000E+00    0.0000000000E+00    0.0000000000E+00    0.0000000000E+00
    0.0000000000E+00    0.0000000000E+00    0.0000000000E+00    0.0000000000E+00
    0.0000000000E+00    0.0000000000E+00    0.0000000000E+00    0.0000000000E+00
    0.0000000000E+00    0.0000000000E+00    0.0000000000E+00    0.0000000000E+00
    0.0000000000E+00    0.0000000000E+00    0.0000000000E+00    0.0000000000E+00
    0.0000000000E+00    0.0000000000E+00    0.0000000000E+00    0.0000000000E+00
    0.0000000000E+00    0.0000000000E+00    0.0000000000E+00    0.0000000000E+00
    0.0000000000E+00    0.0000000000E+00    0.0000000000E+00    0.0000000000E+00
    0.0000000000E+00    0.0000000000E+00    0.0000000000E+00    0.0000000000E+00
    0.0000000000E+00    0.0000000000E+00    0.0000000000E+00    0.0000000000E+00
    0.0000000000E+00    0.0000000000E+00    0.0000000000E+00    0.0000000000E+00
    0.0000000000E+00    0.0000000000E+00    0.0000000000E+00    0.0000000000E+00
    0.0000000000E+00    0.0000000000E+00    0.0000000000E+00    0.0000000000E+00
    0.0000000000E+00    0.0000000000E+00    0.0000000000E+00    0.0000000000E+00
    0.0000000000E+00    0.0000000000E+00    0.0000000000E+00    0.0000000000E+00
    0.0000000000E+00    0.0000000000E+00    0.0000000000E+00    0.0000000000E+00
    0.0000000000E+00    0.0000000000E+00    0.0000000000E+00    0.0000000000E+00
    0.0000000000E+00    0.0000000000E+00    0.0000000000E+00    0.0000000000E+00
    0.0000000000E+00    0.0000000000E+00    0.0000000000E+00    0.0000000000E+00
    0.0000000000E+00    0.0000000000E+00
 </PP_NLCC>
 <PP_RHOATOM type="real"  size="1338" columns="4">
    0.0000000000E+00    1.0235524974E-03    4.0962958250E-03    9.2244746909E-03
    1.6418454337E-02    2.5692656832E-02    3.7065472269E-02    5.0559145269E-02
    6.6199637284E-02    8.4016465309E-02    1.0404251771E-01    1.2631384800E-01
    1.5086944743E-01    1.7775099743E-01    2.0700260304E-01    2.3867050839E-01
    2.7280279556E-01    3.0944906820E-01    3.4866012121E-01    3.9048759796E-01
    4.3498363668E-01    4.8220050742E-01    5.3219024132E-01    5.8500425373E-01
    6.4069296299E-01    6.9930540646E-01    7.6088885547E-01    8.2548843108E-01
    8.9314672219E-01    9.6390340781E-01    1.0377948851E+00    1.1148539050E+00
    1.1951092169E+00    1.2785852240E+00    1.3653016511E+00    1.4552732260E+00
    1.5485093764E+00    1.6450139432E+00    1.7447849118E+00    1.8478141628E+00
    1.9540872425E+00    2.0635831555E+00    2.1762741797E+00    2.2921257036E+00
    2.4110960892E+00    2.5331365586E+00    2.6581911066E+00    2.7861964385E+00
    2.9170819355E+00    3.0507696451E+00    3.1871742990E+00    3.3262033582E+00
    3.4677570836E+00    3.6117286345E+00    3.7580041923E+00    3.9064631106E+00
    4.0569780907E+00    4.2094153819E+00    4.3636350057E+00    4.5194910036E+00
    4.6768317077E+00    4.8355000318E+00    4.9953337843E+00    5.1561659992E+00
    5.3178252866E+00    5.4801361987E+00    5.6429196123E+00    5.8059931257E+00
    5.9691714672E+00    6.1322669162E+00    6.2950897332E+00    6.4574485988E+00
    6.6191510585E+00    6.7800039731E+00    6.9398139729E+00    7.0983879133E+00
    7.2555333306E+00    7.4110588972E+00    7.5647748734E+00    7.7164935550E+00
    7.8660297147E+00    8.0132010367E+00    8.1578285422E+00    8.2997370041E+00
    8.4387553508E+00    8.5747170572E+00    8.7074605206E+00    8.8368294227E+00
    8.9626730739E+00    9.0848467410E+00    9.2032119563E+00    9.3176368072E+00
    9.4279962062E+00    9.5341721398E+00    9.6360538958E+00    9.7335382697E+00
    9.8265297472E+00    9.9149406651E+00    9.9986913490E+00    1.0077710227E+01
    1.0151933922E+01    1.0221307317E+01    1.0285783602E+01    1.0345324293E+01
    1.0399899234E+01    1.0449486568E+01    1.0494072693E+01    1.0533652197E+01
    1.0568227764E+01    1.0597810065E+01    1.0622417631E+01    1.0642076705E+01
    1.0656821070E+01    1.0666691869E+01    1.0671737400E+01    1.0672012904E+01
    1.0667580329E+01    1.0658508087E+01    1.0644870794E+01    1.0626749002E+01
    1.0604228920E+01    1.0577402121E+01    1.0546365246E+01    1.0511219700E+01
    1.0472071338E+01    1.0429030151E+01    1.0382209946E+01    1.0331728019E+01
    1.0277704839E+01    1.0220263712E+01    1.0159530464E+01    1.0095633117E+01
    1.0028701561E+01    9.9588672472E+00    9.8862628639E+00    9.8110220347E+00
    9.7332790137E+00    9.6531683897E+00    9.5708247984E+00    9.4863826416E+00
    9.3999758159E+00    9.3117374508E+00    9.2217996562E+00    9.1302932804E+00
    9.0373476794E+00    8.9430904967E+00    8.8476474552E+00    8.7511421603E+00
    8.6536959154E+00    8.5554275495E+00    8.4564532570E+00    8.3568864499E+00
    8.2568376226E+00    8.1564142282E+00    8.0557205687E+00    7.9548576955E+00
    7.8539233233E+00    7.7530117553E+00    7.6522138199E+00    7.5516168191E+00
    7.4513044879E+00    7.3513569640E+00    7.2518507683E+00    7.1528587956E+00
    7.0544503141E+00    6.9566909754E+00    6.8596428320E+00    6.7633643639E+00
    6.6679105129E+00    6.5733327244E+00    6.4796789959E+00    6.3869939325E+00
    6.2953188080E+00    6.2046916314E+00    6.1151472194E+00    6.0267172719E+00
    5.9394304537E+00    5.8533124778E+00    5.7683861936E+00    5.6846716770E+00
    5.6021863231E+00    5.5209449412E+00    5.4409598509E+00    5.3622409795E+00
    5.2847959610E+00    5.2086302344E+00    5.1337471429E+00    5.0601480332E+00
    4.9878323537E+00    4.9167977524E+00    4.8470401739E+00    4.7785539551E+00
    4.7113319192E+00    4.6453654689E+00    4.5806446771E+00    4.5171583755E+00
    4.4548942423E+00    4.3938388860E+00    4.3339779285E+00    4.2752960844E+00
    4.2177772388E+00    4.1614045221E+00    4.1061603820E+00    4.0520266533E+00
    3.9989846246E+00    3.9470151027E+00    3.8960984736E+00    3.8462147619E+00
    3.7973436863E+00    3.7494647134E+00    3.7025571082E+00    3.6565999826E+00
    3.6115723407E+00    3.5674531226E+00    3.5242212443E+00    3.4818556368E+00
    3.4403352819E+00    3.3996392458E+00    3.3597467113E+00    3.3206370069E+00
    3.2822896346E+00    3.2446842954E+00    3.2078009131E+00    3.1716196563E+00
    3.1361209584E+00    3.1012855364E+00    3.0670944081E+00    3.0335289069E+00
    3.0005706967E+00    2.9682017842E+00    2.9364045302E+00    2.9051616604E+00
    2.8744562736E+00    2.8442718504E+00    2.8145922595E+00    2.7854017640E+00
    2.7566850262E+00    2.7284271116E+00    2.7006134921E+00    2.6732300486E+00
    2.6462630724E+00    2.6196992665E+00    2.5935257454E+00    2.5677300351E+00
    2.5423000720E+00    2.5172242011E+00    2.4924911742E+00    2.4680901472E+00
    2.4440106766E+00    2.4202427163E+00    2.3967766131E+00    2.3736031027E+00
    2.3507133041E+00    2.3280987146E+00    2.3057512042E+00    2.2836630092E+00
    2.2618267259E+00    2.2402353035E+00    2.2188820377E+00    2.1977605623E+00
    2.1768648422E+00    2.1561891649E+00    2.1357281327E+00    2.1154766534E+00
    2.0954299325E+00    2.0755834631E+00    2.0559330175E+00    2.0364746376E+00
    2.0172046244E+00    1.9981195296E+00    1.9792161448E+00    1.9604914910E+00
    1.9419427809E+00    1.9235673754E+00    1.9053627171E+00    1.8873263143E+00
    1.8694557430E+00    1.8517486564E+00    1.8342027874E+00    1.8168159336E+00
    1.7995859569E+00    1.7825107842E+00    1.7655884030E+00    1.7488168602E+00
    1.7321942594E+00    1.7157187588E+00    1.6993885699E+00    1.6832019545E+00
    1.6671572239E+00    1.6512527363E+00    1.6354868952E+00    1.6198581480E+00
    1.6043649842E+00    1.5890059337E+00    1.5737795652E+00    1.5586844851E+00
    1.5437193358E+00    1.5288827941E+00    1.5141735703E+00    1.4995904068E+00
    1.4851320764E+00    1.4707973818E+00    1.4565851541E+00    1.4424942513E+00
    1.4285235581E+00    1.4146719839E+00    1.4009384627E+00    1.3873219512E+00
    1.3738214288E+00    1.3604358960E+00    1.3471643738E+00    1.3340059029E+00
    1.3209595429E+00    1.3080243714E+00    1.2951994834E+00    1.2824839905E+00
    1.2698770201E+00    1.2573777151E+00    1.2449852330E+00    1.2326987451E+00
    1.2205174365E+00    1.2084405048E+00    1.1964671602E+00    1.1845966246E+00
    1.1728281313E+00    1.1611609243E+00    1.1495942582E+00    1.1381273973E+00
    1.1267596155E+00    1.1154901959E+00    1.1043184303E+00    1.0932436187E+00
    1.0822650692E+00    1.0713820977E+00    1.0605940273E+00    1.0499001881E+00
    1.0392999167E+00    1.0287925566E+00    1.0183774584E+00    1.0080539779E+00
    9.9782147502E-01    9.8767931553E-01    9.7762687137E-01    9.6766351946E-01
    9.5778864128E-01    9.4800162292E-01    9.3830185494E-01    9.2868873214E-01
    9.1916165340E-01    9.0972002152E-01    9.0036324311E-01    8.9109072837E-01
    8.8190189105E-01    8.7279614825E-01    8.6377292035E-01    8.5483163087E-01
    8.4597170638E-01    8.3719257641E-01    8.2849367333E-01    8.1987443227E-01
    8.1133429107E-01    8.0287269017E-01    7.9448907254E-01    7.8618288363E-01
    7.7795357131E-01    7.6980058580E-01    7.6172337962E-01    7.5372140753E-01
    7.4579412653E-01    7.3794099576E-01    7.3016147652E-01    7.2245503217E-01
    7.1482112816E-01    7.0725923198E-01    6.9976881312E-01    6.9234934309E-01
    6.8500029533E-01    6.7772114528E-01    6.7051137030E-01    6.6337044968E-01
    6.5629786464E-01    6.4929309831E-01    6.4235563573E-01    6.3548496384E-01
    6.2868057149E-01    6.2194194943E-01    6.1526859031E-01    6.0865998867E-01
    6.0211564100E-01    5.9563504566E-01    5.8921770297E-01    5.8286311514E-01
    5.7657078635E-01    5.7034022271E-01    5.6417093228E-01    5.5806242511E-01
    5.5201421322E-01    5.4602581060E-01    5.4009673327E-01    5.3422649927E-01
    5.2841462865E-01    5.2266064352E-01    5.1696406806E-01    5.1132442851E-01
    5.0574125322E-01    5.0021407262E-01    4.9474241930E-01    4.8932582796E-01
    4.8396383548E-01    4.7865598087E-01    4.7340180538E-01    4.6820085243E-01
    4.6305266767E-01    4.5795679899E-01    4.5291279652E-01    4.4792021266E-01
    4.4297860211E-01    4.3808752185E-01    4.3324653116E-01    4.2845519169E-01
    4.2371306740E-01    4.1901972462E-01    4.1437473204E-01    4.0977766074E-01
    4.0522808420E-01    4.0072557832E-01    3.9626972140E-01    3.9186009420E-01
    3.8749627991E-01    3.8317786419E-01    3.7890443516E-01    3.7467558344E-01
    3.7049090211E-01    3.6634998677E-01    3.6225243554E-01    3.5819784903E-01
    3.5418583040E-01    3.5021598534E-01    3.4628792206E-01    3.4240125136E-01
    3.3855558655E-01    3.3475054354E-01    3.3098574078E-01    3.2726079931E-01
    3.2357534272E-01    3.1992899722E-01    3.1632139156E-01    3.1275215712E-01
    3.0922092783E-01    3.0572734025E-01    3.0227103349E-01    2.9885164929E-01
    2.9546883197E-01    2.9212222845E-01    2.8881148826E-01    2.8553626348E-01
    2.8229620884E-01    2.7909098163E-01    2.7592024173E-01    2.7278365163E-01
    2.6968087638E-01    2.6661158363E-01    2.6357544361E-01    2.6057212911E-01
    2.5760131550E-01    2.5466268073E-01    2.5175590530E-01    2.4888067225E-01
    2.4603666719E-01    2.4322357827E-01    2.4044109618E-01    2.3768891413E-01
    2.3496672787E-01    2.3227423565E-01    2.2961113823E-01    2.2697713889E-01
    2.2437194338E-01    2.2179525993E-01    2.1924679927E-01    2.1672627457E-01
    2.1423340146E-01    2.1176789804E-01    2.0932948480E-01    2.0691788469E-01
    2.0453282308E-01    2.0217402770E-01    1.9984122873E-01    1.9753415869E-01
    1.9525255249E-01    1.9299614738E-01    1.9076468298E-01    1.8855790124E-01
    1.8637554642E-01    1.8421736510E-01    1.8208310615E-01    1.7997252074E-01
    1.7788536229E-01    1.7582138651E-01    1.7378035133E-01    1.7176201693E-01
    1.6976614569E-01    1.6779250221E-01    1.6584085330E-01    1.6391096791E-01
    1.6200261718E-01    1.6011557441E-01    1.5824961500E-01    1.5640451652E-01
    1.5458005862E-01    1.5277602305E-01    1.5099219365E-01    1.4922835631E-01
    1.4748429898E-01    1.4575981166E-01    1.4405468635E-01    1.4236871707E-01
    1.4070169985E-01    1.3905343267E-01    1.3742371549E-01    1.3581235022E-01
    1.3421914070E-01    1.3264389270E-01    1.3108641389E-01    1.2954651384E-01
    1.2802400397E-01    1.2651869759E-01    1.2503040986E-01    1.2355895774E-01
    1.2210416004E-01    1.2066583736E-01    1.1924381210E-01    1.1783790841E-01
    1.1644795222E-01    1.1507377120E-01    1.1371519475E-01    1.1237205398E-01
    1.1104418172E-01    1.0973141246E-01    1.0843358239E-01    1.0715052933E-01
    1.0588209277E-01    1.0462811382E-01    1.0338843520E-01    1.0216290124E-01
    1.0095135786E-01    9.9753652526E-02    9.8569634305E-02    9.7399153784E-02
    9.6242063087E-02    9.5098215858E-02    9.3967467244E-02    9.2849673883E-02
    9.1744693891E-02    9.0652386846E-02    8.9572613778E-02    8.8505237155E-02
    8.7450120865E-02    8.6407130211E-02    8.5376131891E-02    8.4356993988E-02
    8.3349585957E-02    8.2353778611E-02    8.1369444109E-02    8.0396455945E-02
    7.9434688930E-02    7.8484019187E-02    7.7544324132E-02    7.6615482464E-02
    7.5697374156E-02    7.4789880438E-02    7.3892883784E-02    7.3006267908E-02
    7.2129917742E-02    7.1263719432E-02    7.0407560322E-02    6.9561328943E-02
    6.8724915003E-02    6.7898209373E-02    6.7081104078E-02    6.6273492285E-02
    6.5475268291E-02    6.4686327512E-02    6.3906566474E-02    6.3135882797E-02
    6.2374175191E-02    6.1621343440E-02    6.0877288393E-02    6.0141911954E-02
    5.9415117070E-02    5.8696807723E-02    5.7986888918E-02    5.7285266671E-02
    5.6591848002E-02    5.5906540925E-02    5.5229254435E-02    5.4559898500E-02
    5.3898384053E-02    5.3244622976E-02    5.2598528100E-02    5.1960013187E-02
    5.1328992924E-02    5.0705382914E-02    5.0089099665E-02    4.9480060584E-02
    4.8878183963E-02    4.8283388974E-02    4.7695595659E-02    4.7114724922E-02
    4.6540698515E-02    4.5973439038E-02    4.5412869922E-02    4.4858915428E-02
    4.4311500631E-02    4.3770551419E-02    4.3235994477E-02    4.2707757285E-02
    4.2185768109E-02    4.1669955990E-02    4.1160250737E-02    4.0656582920E-02
    4.0158883865E-02    3.9667085638E-02    3.9181121046E-02    3.8700923624E-02
    3.8226427632E-02    3.7757568040E-02    3.7294280531E-02    3.6836501483E-02
    3.6384167970E-02    3.5937217751E-02    3.5495589264E-02    3.5059221616E-02
    3.4628054582E-02    3.4202028592E-02    3.3781084729E-02    3.3365164717E-02
    3.2954210921E-02    3.2548166334E-02    3.2146974574E-02    3.1750579877E-02
    3.1358927090E-02    3.0971961665E-02    3.0589629651E-02    3.0211877691E-02
    2.9838653014E-02    2.9469903428E-02    2.9105577316E-02    2.8745623627E-02
    2.8389991876E-02    2.8038632129E-02    2.7691495007E-02    2.7348531670E-02
    2.7009693823E-02    2.6674933699E-02    2.6344204061E-02    2.6017458194E-02
    2.5694649899E-02    2.5375733489E-02    2.5060663781E-02    2.4749396095E-02
    2.4441886243E-02    2.4138090529E-02    2.3837965742E-02    2.3541469149E-02
    2.3248558493E-02    2.2959191986E-02    2.2673328305E-02    2.2390926588E-02
    2.2111946425E-02    2.1836347858E-02    2.1564091376E-02    2.1295137904E-02
    2.1029448808E-02    2.0766985883E-02    2.0507711349E-02    2.0251587852E-02
    1.9998578454E-02    1.9748646629E-02    1.9501756264E-02    1.9257871646E-02
    1.9016957465E-02    1.8778978806E-02    1.8543901149E-02    1.8311690356E-02
    1.8082312678E-02    1.7855734743E-02    1.7631923555E-02    1.7410846489E-02
    1.7192471287E-02    1.6976766058E-02    1.6763699266E-02    1.6553239734E-02
    1.6345356637E-02    1.6140019496E-02    1.5937198179E-02    1.5736862894E-02
    1.5538984186E-02    1.5343532935E-02    1.5150480349E-02    1.4959797963E-02
    1.4771457638E-02    1.4585431549E-02    1.4401692193E-02    1.4220212376E-02
    1.4040965214E-02    1.3863924130E-02    1.3689062848E-02    1.3516355394E-02
    1.3345776088E-02    1.3177299544E-02    1.3010900667E-02    1.2846554646E-02
    1.2684236955E-02    1.2523923350E-02    1.2365589863E-02    1.2209212801E-02
    1.2054768741E-02    1.1902234532E-02    1.1751587286E-02    1.1602804378E-02
    1.1455863444E-02    1.1310742377E-02    1.1167419324E-02    1.1025872683E-02
    1.0886081102E-02    1.0748023474E-02    1.0611678937E-02    1.0477026868E-02
    1.0344046883E-02    1.0212718833E-02    1.0083022803E-02    9.9549391077E-03
    9.8284482899E-03    9.7035311177E-03    9.5801685821E-03    9.4583418945E-03
    9.3380324846E-03    9.2192219976E-03    9.1018922919E-03    8.9860254370E-03
    8.8716037110E-03    8.7586095981E-03    8.6470257869E-03    8.5368351673E-03
    8.4280208293E-03    8.3205660598E-03    8.2144543410E-03    8.1096693483E-03
    8.0061949476E-03    7.9040151940E-03    7.8031143287E-03    7.7034767780E-03
    7.6050871505E-03    7.5079302352E-03    7.4119909997E-03    7.3172545882E-03
    7.2237063192E-03    7.1313316841E-03    7.0401163447E-03    6.9500461316E-03
    6.8611070424E-03    6.7732852395E-03    6.6865670487E-03    6.6009389569E-03
    6.5163876108E-03    6.4328998144E-03    6.3504625281E-03    6.2690628662E-03
    6.1886880957E-03    6.1093256341E-03    6.0309630483E-03    5.9535880522E-03
    5.8771885057E-03    5.8017524126E-03    5.7272679193E-03    5.6537233128E-03
    5.5811070197E-03    5.5094076040E-03    5.4386137658E-03    5.3687143398E-03
    5.2996982938E-03    5.2315547272E-03    5.1642728691E-03    5.0978420776E-03
    5.0322518375E-03    4.9674917595E-03    4.9035515784E-03    4.8404211517E-03
    4.7780904586E-03    4.7165495980E-03    4.6557887875E-03    4.5957983621E-03
    4.5365687727E-03    4.4780905847E-03    4.4203544769E-03    4.3633512400E-03
    4.3070717755E-03    4.2515070943E-03    4.1966483155E-03    4.1424866651E-03
    4.0890134749E-03    4.0362201810E-03    3.9840983229E-03    3.9326395423E-03
    3.8818355816E-03    3.8316782830E-03    3.7821595873E-03    3.7332715329E-03
    3.6850062544E-03    3.6373559815E-03    3.5903130382E-03    3.5438698413E-03
    3.4980188998E-03    3.4527528134E-03    3.4080642715E-03    3.3639460525E-03
    3.3203910224E-03    3.2773921338E-03    3.2349424253E-03    3.1930350199E-03
    3.1516631244E-03    3.1108200284E-03    3.0704991031E-03    3.0306938007E-03
    2.9913976531E-03    2.9526042713E-03    2.9143073441E-03    2.8765006375E-03
    2.8391779936E-03    2.8023333298E-03    2.7659606381E-03    2.7300539836E-03
    2.6946075046E-03    2.6596154106E-03    2.6250719826E-03    2.5909715714E-03
    2.5573085971E-03    2.5240775485E-03    2.4912729818E-03    2.4588895202E-03
    2.4269218529E-03    2.3953647346E-03    2.3642129841E-03    2.3334614845E-03
    2.3031051813E-03    2.2731390828E-03    2.2435582585E-03    2.2143578386E-03
    2.1855330137E-03    2.1570790333E-03    2.1289912060E-03    2.1012648979E-03
    2.0738955327E-03    2.0468785905E-03    2.0202096072E-03    1.9938841741E-03
    1.9678979369E-03    1.9422465954E-03    1.9169259024E-03    1.8919316636E-03
    1.8672597365E-03    1.8429060300E-03    1.8188665038E-03    1.7951371679E-03
    1.7717140814E-03    1.7485933529E-03    1.7257711389E-03    1.7032436439E-03
    1.6810071196E-03    1.6590578644E-03    1.6373922225E-03    1.6160065839E-03
    1.5948973835E-03    1.5740611005E-03    1.5534942581E-03    1.5331934229E-03
    1.5131552042E-03    1.4933762537E-03    1.4738532650E-03    1.4545829728E-03
    1.4355621527E-03    1.4167876206E-03    1.3982562322E-03    1.3799648826E-03
    1.3619105056E-03    1.3440900736E-03    1.3265005968E-03    1.3091391227E-03
    1.2920027361E-03    1.2750885581E-03    1.2583937461E-03    1.2419154929E-03
    1.2256510269E-03    1.2095976109E-03    1.1937525424E-03    1.1781131527E-03
    1.1626768066E-03    1.1474409021E-03    1.1324028700E-03    1.1175601732E-03
    1.1029103067E-03    1.0884507971E-03    1.0741792019E-03    1.0600931096E-03
    1.0461901391E-03    1.0324679391E-03    1.0189241881E-03    1.0055565939E-03
    9.9236289318E-04    9.7934085120E-04    9.6648826142E-04    9.5380294521E-04
    9.4128275144E-04    9.2892555618E-04    9.1672926235E-04    9.0469179939E-04
    8.9281112295E-04    8.8108521453E-04    8.6951208120E-04    8.5808975526E-04
    8.4681629394E-04    8.3568977907E-04    8.2470831683E-04    8.1387003737E-04
    8.0317309458E-04    7.9261566577E-04    7.8219595136E-04    7.7191217465E-04
    7.6176258146E-04    7.5174543992E-04    7.4185904015E-04    7.3210169401E-04
    7.2247173482E-04    7.1296751708E-04    7.0358741624E-04    6.9432982841E-04
    6.8519317012E-04    6.7617587805E-04    6.6727640879E-04    6.5849323860E-04
    6.4982486314E-04    6.4126979726E-04    6.3282657473E-04    6.2449374803E-04
    6.1626988809E-04    6.0815358409E-04    6.0014344319E-04    5.9223809036E-04
    5.8443616811E-04    5.7673633630E-04    5.6913727191E-04    5.6163766881E-04
    5.5423623760E-04    5.4693170532E-04    5.3972281535E-04    5.3260832709E-04
    5.2558701584E-04    5.1865767258E-04    5.1181910376E-04    5.0507013111E-04
    4.9840959147E-04    4.9183633657E-04    4.8534923284E-04    4.7894716127E-04
    4.7262901718E-04    4.6639371007E-04    4.6024016341E-04    4.5416731450E-04
    4.4817411427E-04    4.4225952712E-04    4.3642253074E-04    4.3066211596E-04
    4.2497728657E-04    4.1936705916E-04    4.1383046296E-04    4.0836653967E-04
    4.0297434333E-04    3.9765294013E-04    3.9240140828E-04    3.8721883785E-04
    3.8210433061E-04    3.7705699992E-04    3.7207597052E-04    3.6716037844E-04
    3.6230937085E-04    3.5752210588E-04    3.5279775253E-04    3.4813549051E-04
    3.4353451010E-04    3.3899401202E-04    3.3451320729E-04    3.3009131714E-04
    3.2572757281E-04    3.2142121548E-04    3.1717149612E-04    3.1297767539E-04
    3.0883902347E-04    3.0475481999E-04    3.0072435386E-04    2.9674692320E-04
    2.9282183519E-04    2.8894840599E-04    2.8512596056E-04    2.8135383262E-04
    2.7763136449E-04    2.7395790703E-04    2.7033281946E-04    2.6675546931E-04
    2.6322523231E-04    2.5974149225E-04    2.5630364091E-04    2.5291107795E-04
    2.4956321080E-04    2.4625945457E-04    2.4299923196E-04    2.3978197313E-04
    2.3660711566E-04    2.3347410438E-04    2.3038239137E-04    2.2733143576E-04
    2.2432070376E-04    2.2134966844E-04    2.1841780977E-04    2.1552461442E-04
    2.1266957575E-04    2.0985219371E-04    2.0707197472E-04    2.0432843161E-04
    2.0162108356E-04    1.9894945598E-04    1.9631308045E-04    1.9371149466E-04
    1.9114424228E-04    1.8861087293E-04    1.8611094207E-04    1.8364401097E-04
    1.8120964659E-04    1.7880742153E-04    1.7643691393E-04    1.7409770746E-04
    1.7178939118E-04    1.6951155950E-04    1.6726381214E-04    1.6504575399E-04
    1.6285699512E-04    1.6069715068E-04    1.5856584080E-04    1.5646269060E-04
    1.5438733007E-04    1.5233939401E-04    1.5031852201E-04    1.4832435833E-04
    1.4635655190E-04    1.4441475620E-04    1.4249862924E-04    1.4060783350E-04
    1.3874203586E-04    1.3690090755E-04    1.3508412408E-04    1.3329136520E-04
    1.3152231486E-04    1.2977666112E-04    1.2805409611E-04    1.2635431599E-04
    1.2467702089E-04    1.2302191485E-04    1.2138870579E-04    1.1977710543E-04
    1.1818682928E-04    1.1661759656E-04    1.1506913015E-04    1.1354115657E-04
    1.1203340589E-04    1.1054561176E-04    1.0907751126E-04    1.0762884495E-04
    1.0619935676E-04    1.0478879399E-04    1.0339690722E-04    1.0202345033E-04
    1.0066818040E-04    9.9330857688E-05    9.8011245609E-05    9.6709110664E-05
    9.5424222414E-05    9.4156353440E-05    9.2905279302E-05    9.1670778503E-05
    9.0452632447E-05    8.9250625404E-05    8.8064544470E-05    8.6894179533E-05
    8.5739323236E-05    8.4599770942E-05    8.3475320697E-05    8.2365773195E-05
    8.1270931747E-05    8.0190602240E-05    7.9124593111E-05    7.8072715311E-05
    7.7034782270E-05    7.6010609868E-05    7.5000016402E-05    7.4002822555E-05
    7.3018851362E-05    7.2047928183E-05    7.1089880672E-05    7.0144538746E-05
    6.9211734557E-05    6.8291302461E-05    6.7383078989E-05    6.6486902822E-05
    6.5602614761E-05    6.4730057697E-05    6.3869076589E-05    6.3019518431E-05
    6.2181232232E-05    6.1354068982E-05    6.0537881632E-05    5.9732525069E-05
    5.8937856086E-05    5.8153733361E-05    5.7380017429E-05    5.6616570663E-05
    5.5863257244E-05    5.5119943140E-05    5.4386496084E-05    5.3662785552E-05
    5.2948682734E-05    5.2244060517E-05    5.1548793462E-05    5.0862757782E-05
    5.0185831317E-05    4.9517893520E-05    4.8858825428E-05    4.8208509647E-05
    4.7566830329E-05    4.6933673151E-05    4.6308925296E-05    4.5692475435E-05
    4.5084213707E-05    4.4484031695E-05    4.3891822413E-05    4.3307480287E-05
    4.2730901131E-05    4.2161982135E-05    4.1600621843E-05    4.1046720138E-05
    4.0500178222E-05    3.9960898602E-05    3.9428785067E-05    3.8903742680E-05
    3.8385677751E-05    3.7874497830E-05    3.7370111685E-05    3.6872429288E-05
    3.6381361798E-05    3.5896821550E-05    3.5418722030E-05    3.4946977871E-05
    3.4481504830E-05    3.4022219778E-05    3.3569040682E-05    3.3121886592E-05
    3.2680677628E-05    3.2245334964E-05    3.1815780815E-05    3.1391938423E-05
    3.0973732045E-05    3.0561086937E-05    3.0153929343E-05    2.9752186483E-05
    2.9355786536E-05    2.8964658629E-05    2.8578732831E-05    2.8197940129E-05
    2.7822212426E-05    2.7451482523E-05    2.7085684110E-05    2.6724751755E-05
    2.6368620886E-05    2.6017227791E-05    2.5670509597E-05    2.5328404263E-05
    2.4990850567E-05    2.4657788099E-05    2.4329157247E-05    2.4004899186E-05
    2.3684955870E-05    2.3369270023E-05    2.3057785124E-05    2.2750445401E-05
    2.2447195819E-05    2.2147982071E-05    2.1852750570E-05    2.1561448438E-05
    2.1274023495E-05    2.0990424254E-05    2.0710599908E-05    2.0434500323E-05
    2.0162076028E-05    1.9893278208E-05    1.9628058693E-05    1.9366369951E-05
    1.9108165082E-05    1.8853397802E-05    1.8602022446E-05    1.8353993948E-05
    1.8109267842E-05    1.7867800250E-05    1.7629547877E-05    1.7394467999E-05
    1.7162518459E-05    1.6933657659E-05    1.6707844551E-05    1.6485038633E-05
    1.6265199936E-05    1.6048289025E-05    1.5834266984E-05    1.5623095415E-05
    1.5414736428E-05    1.5209152635E-05    1.5006307145E-05    1.4806163553E-05
    1.4608685939E-05    1.4413838860E-05    1.4221587340E-05    1.4031896870E-05
    1.3844733396E-05    1.3660063317E-05    1.3477853476E-05    1.3298071157E-05
    1.3120684078E-05    1.2945660385E-05    1.2772968647E-05    1.2602577848E-05
    1.2434457385E-05    1.2268577060E-05    1.2104907078E-05    1.1943418035E-05
    1.1784080922E-05    1.1626867112E-05    1.1471748357E-05    1.1318696787E-05
    1.1167684900E-05    1.1018685557E-05    1.0871671983E-05    1.0726617757E-05
    1.0583496807E-05    1.0442283409E-05    1.0302952180E-05    1.0165478074E-05
    1.0029836376E-05    9.8960027020E-06    9.7639529891E-06    9.6336634953E-06
    9.5051107936E-06    9.3782717677E-06    9.2531236088E-06    9.1296438105E-06
    9.0078101654E-06    8.8876007612E-06    8.7689939767E-06    8.6519684777E-06
    8.5365032135E-06    8.4225774130E-06    8.3101705807E-06    8.1992624938E-06
    8.0898331977E-06    7.9818630035E-06    7.8753324835E-06    7.7702224683E-06
    7.6665140431E-06    7.5641885444E-06    7.4632275568E-06    7.3636129094E-06
    7.2653266730E-06    7.1683511568E-06    7.0726689050E-06    6.9782626936E-06
    6.8851155279E-06    6.7932106387E-06    6.7025314799E-06    6.6130617253E-06
    6.5247852658E-06    6.4376862065E-06    6.3517488638E-06    6.2669577626E-06
    6.1832976334E-06    6.1007534098E-06    6.0193102259E-06    5.9389534131E-06
    5.8596684983E-06    5.7814412007E-06    5.7042574294E-06    5.6281032808E-06
    5.5529650363E-06    5.4788291598E-06    5.4056822950E-06    5.3335112636E-06
    5.2623030623E-06    5.1920448611E-06    5.1227240004E-06    5.0543279890E-06
    4.9868445021E-06    4.9202613785E-06    4.8545666191E-06    4.7897483842E-06
    4.7257949920E-06    4.6626949159E-06    4.6004367826E-06    4.5390093703E-06
    4.4784016064E-06    4.4186025658E-06    4.3596014683E-06    4.3013876779E-06
    4.2439506997E-06    4.1872801787E-06    4.1313658974E-06    4.0761977746E-06
    4.0217658632E-06    3.9680603484E-06    3.9150715460E-06    3.8627899010E-06
    3.8112059853E-06    3.7603104966E-06    3.7100942561E-06    3.6605482075E-06
    3.6116634149E-06    3.5634310614E-06    3.5158424473E-06    3.4688889891E-06
    3.4225622175E-06    3.3768537758E-06    3.3317554187E-06    3.2872590107E-06
    3.2433565246E-06    3.2000400400E-06
 </PP_RHOATOM>
 <PP_SPIN_ORB>
   <PP_RELBETA.1  index="1"  lll="0" jjj="0.5"/>
   <PP_RELBETA.2  index="2"  lll="0" jjj="0.5"/>
   <PP_RELBETA.3  index="3"  lll="1" jjj="0.5"/>
   <PP_RELBETA.4  index="4"  lll="1" jjj="1.5"/>
   <PP_RELBETA.5  index="5"  lll="1" jjj="0.5"/>
   <PP_RELBETA.6  index="6"  lll="1" jjj="1.5"/>
   <PP_RELBETA.7  index="7"  lll="2" jjj="1.5"/>
   <PP_RELBETA.8  index="8"  lll="2" jjj="2.5"/>
   <PP_RELBETA.9  index="9"  lll="2" jjj="1.5"/>
   <PP_RELBETA.10 index="10" lll="2" jjj="2.5"/>
   <PP_RELBETA.11 index="11" lll="3" jjj="2.5"/>
   <PP_RELBETA.12 index="12" lll="3" jjj="3.5"/>
   <PP_RELBETA.13 index="13" lll="3" jjj="2.5"/>
   <PP_RELBETA.14 index="14" lll="3" jjj="3.5"/>
   <PP_RELWFC.1  index="1"  lchi="0" jchi="0.5" nn="1"/>
   <PP_RELWFC.2  index="2"  lchi="1" jchi="1.5" nn="2"/>
   <PP_RELWFC.3  index="3"  lchi="1" jchi="0.5" nn="2"/>
   <PP_RELWFC.4  index="4"  lchi="2" jchi="2.5" nn="3"/>
   <PP_RELWFC.5  index="5"  lchi="2" jchi="1.5" nn="3"/>
   <PP_RELWFC.6  index="6"  lchi="0" jchi="0.5" nn="4"/>
 </PP_SPIN_ORB>
</UPF>

