<UPF version="2.0.1">
  <PP_INFO>

 This pseudopotential file has been produced using the code
 ONCVPSP  (Optimized Norm-Conservinng Vanderbilt PSeudopotential)
 fully-relativistic version 4.0.1 06/20/2107 by D. R. Hamann
 The code is available through a link at URL www.mat-simresearch.com.
 Documentation with the package provides a full discription of the
 input data below.


 While it is not required under the terms of the GNU GPL, it is
 suggested that you cite D. R. Hamann, Phys. Rev. B 88, 085117 (2013)
 in any publication using these pseudopotentials.

    <PP_INPUTFILE>
# ATOM AND REFERENCE CONFIGURATION
# atsym  z   nc   nv     iexc    psfile
  S 16.00    3    2       4      upf
#
#   n    l    f        energy (Ha)
    1    0    2.00
    2    0    2.00
    2    1    6.00
    3    0    2.00
    3    1    4.00
#
# PSEUDOPOTENTIAL AND OPTIMIZATION
# lmax
    2
#
#   l,   rc,     ep,   ncon, nbas, qcut
    0   1.80000   0.00000    4    8   6.00000
    1   1.80000   0.00000    4    8   7.50000
    2   1.90000   0.10000    4    8   7.50000
#
# LOCAL POTENTIAL
# lloc, lpopt,  rc(5),   dvloc0
    4    5   1.08387      0.00000
#
# VANDERBILT-KLEINMAN-BYLANDER PROJECTORs
# l, nproj, debl
    0    2   2.00000
    1    2   2.00000
    2    2   1.00000
#
# MODEL CORE CHARGE
# icmod, fcfact, rcfact
    3   6.00000   1.25000
#
# LOG DERIVATIVE ANALYSIS
# epsh1, epsh2, depsh
  -12.00   12.00    0.02
#
# OUTPUT GRID
# rlmax, drl
    6.00    0.01
#
# TEST CONFIGURATIONS
# ncnf
    0
# nvcnf
#   n    l    f
    </PP_INPUTFILE>
  </PP_INFO>
  <!--                               -->
  <!-- END OF HUMAN READABLE SECTION -->
  <!--                               -->
    <PP_HEADER
       generated="Generated using ONCVPSP code by D. R. Hamann"
       author="anonymous"
       date="260612"
       comment=""
       element="S "
       pseudo_type="NC"
       relativistic="full"
       is_ultrasoft="F"
       is_paw="F"
       is_coulomb="F"
       has_so="T"
       has_wfc="F"
       has_gipaw="F"
       core_correction="T"
       functional="PBE"
       z_valence="    6.00"
       total_psenergy="  -2.02248501320E+01"
       rho_cutoff="   1.14700000000E+01"
       l_max="2"
       l_local="-1"
       mesh_size="  1148"
       number_of_wfc="3"
       number_of_proj="10"/>
 <PP_MESH>
   <PP_R type="real"  size="1148" columns="8">
    0.0000    0.0100    0.0200    0.0300    0.0400    0.0500    0.0600    0.0700
    0.0800    0.0900    0.1000    0.1100    0.1200    0.1300    0.1400    0.1500
    0.1600    0.1700    0.1800    0.1900    0.2000    0.2100    0.2200    0.2300
    0.2400    0.2500    0.2600    0.2700    0.2800    0.2900    0.3000    0.3100
    0.3200    0.3300    0.3400    0.3500    0.3600    0.3700    0.3800    0.3900
    0.4000    0.4100    0.4200    0.4300    0.4400    0.4500    0.4600    0.4700
    0.4800    0.4900    0.5000    0.5100    0.5200    0.5300    0.5400    0.5500
    0.5600    0.5700    0.5800    0.5900    0.6000    0.6100    0.6200    0.6300
    0.6400    0.6500    0.6600    0.6700    0.6800    0.6900    0.7000    0.7100
    0.7200    0.7300    0.7400    0.7500    0.7600    0.7700    0.7800    0.7900
    0.8000    0.8100    0.8200    0.8300    0.8400    0.8500    0.8600    0.8700
    0.8800    0.8900    0.9000    0.9100    0.9200    0.9300    0.9400    0.9500
    0.9600    0.9700    0.9800    0.9900    1.0000    1.0100    1.0200    1.0300
    1.0400    1.0500    1.0600    1.0700    1.0800    1.0900    1.1000    1.1100
    1.1200    1.1300    1.1400    1.1500    1.1600    1.1700    1.1800    1.1900
    1.2000    1.2100    1.2200    1.2300    1.2400    1.2500    1.2600    1.2700
    1.2800    1.2900    1.3000    1.3100    1.3200    1.3300    1.3400    1.3500
    1.3600    1.3700    1.3800    1.3900    1.4000    1.4100    1.4200    1.4300
    1.4400    1.4500    1.4600    1.4700    1.4800    1.4900    1.5000    1.5100
    1.5200    1.5300    1.5400    1.5500    1.5600    1.5700    1.5800    1.5900
    1.6000    1.6100    1.6200    1.6300    1.6400    1.6500    1.6600    1.6700
    1.6800    1.6900    1.7000    1.7100    1.7200    1.7300    1.7400    1.7500
    1.7600    1.7700    1.7800    1.7900    1.8000    1.8100    1.8200    1.8300
    1.8400    1.8500    1.8600    1.8700    1.8800    1.8900    1.9000    1.9100
    1.9200    1.9300    1.9400    1.9500    1.9600    1.9700    1.9800    1.9900
    2.0000    2.0100    2.0200    2.0300    2.0400    2.0500    2.0600    2.0700
    2.0800    2.0900    2.1000    2.1100    2.1200    2.1300    2.1400    2.1500
    2.1600    2.1700    2.1800    2.1900    2.2000    2.2100    2.2200    2.2300
    2.2400    2.2500    2.2600    2.2700    2.2800    2.2900    2.3000    2.3100
    2.3200    2.3300    2.3400    2.3500    2.3600    2.3700    2.3800    2.3900
    2.4000    2.4100    2.4200    2.4300    2.4400    2.4500    2.4600    2.4700
    2.4800    2.4900    2.5000    2.5100    2.5200    2.5300    2.5400    2.5500
    2.5600    2.5700    2.5800    2.5900    2.6000    2.6100    2.6200    2.6300
    2.6400    2.6500    2.6600    2.6700    2.6800    2.6900    2.7000    2.7100
    2.7200    2.7300    2.7400    2.7500    2.7600    2.7700    2.7800    2.7900
    2.8000    2.8100    2.8200    2.8300    2.8400    2.8500    2.8600    2.8700
    2.8800    2.8900    2.9000    2.9100    2.9200    2.9300    2.9400    2.9500
    2.9600    2.9700    2.9800    2.9900    3.0000    3.0100    3.0200    3.0300
    3.0400    3.0500    3.0600    3.0700    3.0800    3.0900    3.1000    3.1100
    3.1200    3.1300    3.1400    3.1500    3.1600    3.1700    3.1800    3.1900
    3.2000    3.2100    3.2200    3.2300    3.2400    3.2500    3.2600    3.2700
    3.2800    3.2900    3.3000    3.3100    3.3200    3.3300    3.3400    3.3500
    3.3600    3.3700    3.3800    3.3900    3.4000    3.4100    3.4200    3.4300
    3.4400    3.4500    3.4600    3.4700    3.4800    3.4900    3.5000    3.5100
    3.5200    3.5300    3.5400    3.5500    3.5600    3.5700    3.5800    3.5900
    3.6000    3.6100    3.6200    3.6300    3.6400    3.6500    3.6600    3.6700
    3.6800    3.6900    3.7000    3.7100    3.7200    3.7300    3.7400    3.7500
    3.7600    3.7700    3.7800    3.7900    3.8000    3.8100    3.8200    3.8300
    3.8400    3.8500    3.8600    3.8700    3.8800    3.8900    3.9000    3.9100
    3.9200    3.9300    3.9400    3.9500    3.9600    3.9700    3.9800    3.9900
    4.0000    4.0100    4.0200    4.0300    4.0400    4.0500    4.0600    4.0700
    4.0800    4.0900    4.1000    4.1100    4.1200    4.1300    4.1400    4.1500
    4.1600    4.1700    4.1800    4.1900    4.2000    4.2100    4.2200    4.2300
    4.2400    4.2500    4.2600    4.2700    4.2800    4.2900    4.3000    4.3100
    4.3200    4.3300    4.3400    4.3500    4.3600    4.3700    4.3800    4.3900
    4.4000    4.4100    4.4200    4.4300    4.4400    4.4500    4.4600    4.4700
    4.4800    4.4900    4.5000    4.5100    4.5200    4.5300    4.5400    4.5500
    4.5600    4.5700    4.5800    4.5900    4.6000    4.6100    4.6200    4.6300
    4.6400    4.6500    4.6600    4.6700    4.6800    4.6900    4.7000    4.7100
    4.7200    4.7300    4.7400    4.7500    4.7600    4.7700    4.7800    4.7900
    4.8000    4.8100    4.8200    4.8300    4.8400    4.8500    4.8600    4.8700
    4.8800    4.8900    4.9000    4.9100    4.9200    4.9300    4.9400    4.9500
    4.9600    4.9700    4.9800    4.9900    5.0000    5.0100    5.0200    5.0300
    5.0400    5.0500    5.0600    5.0700    5.0800    5.0900    5.1000    5.1100
    5.1200    5.1300    5.1400    5.1500    5.1600    5.1700    5.1800    5.1900
    5.2000    5.2100    5.2200    5.2300    5.2400    5.2500    5.2600    5.2700
    5.2800    5.2900    5.3000    5.3100    5.3200    5.3300    5.3400    5.3500
    5.3600    5.3700    5.3800    5.3900    5.4000    5.4100    5.4200    5.4300
    5.4400    5.4500    5.4600    5.4700    5.4800    5.4900    5.5000    5.5100
    5.5200    5.5300    5.5400    5.5500    5.5600    5.5700    5.5800    5.5900
    5.6000    5.6100    5.6200    5.6300    5.6400    5.6500    5.6600    5.6700
    5.6800    5.6900    5.7000    5.7100    5.7200    5.7300    5.7400    5.7500
    5.7600    5.7700    5.7800    5.7900    5.8000    5.8100    5.8200    5.8300
    5.8400    5.8500    5.8600    5.8700    5.8800    5.8900    5.9000    5.9100
    5.9200    5.9300    5.9400    5.9500    5.9600    5.9700    5.9800    5.9900
    6.0000    6.0100    6.0200    6.0300    6.0400    6.0500    6.0600    6.0700
    6.0800    6.0900    6.1000    6.1100    6.1200    6.1300    6.1400    6.1500
    6.1600    6.1700    6.1800    6.1900    6.2000    6.2100    6.2200    6.2300
    6.2400    6.2500    6.2600    6.2700    6.2800    6.2900    6.3000    6.3100
    6.3200    6.3300    6.3400    6.3500    6.3600    6.3700    6.3800    6.3900
    6.4000    6.4100    6.4200    6.4300    6.4400    6.4500    6.4600    6.4700
    6.4800    6.4900    6.5000    6.5100    6.5200    6.5300    6.5400    6.5500
    6.5600    6.5700    6.5800    6.5900    6.6000    6.6100    6.6200    6.6300
    6.6400    6.6500    6.6600    6.6700    6.6800    6.6900    6.7000    6.7100
    6.7200    6.7300    6.7400    6.7500    6.7600    6.7700    6.7800    6.7900
    6.8000    6.8100    6.8200    6.8300    6.8400    6.8500    6.8600    6.8700
    6.8800    6.8900    6.9000    6.9100    6.9200    6.9300    6.9400    6.9500
    6.9600    6.9700    6.9800    6.9900    7.0000    7.0100    7.0200    7.0300
    7.0400    7.0500    7.0600    7.0700    7.0800    7.0900    7.1000    7.1100
    7.1200    7.1300    7.1400    7.1500    7.1600    7.1700    7.1800    7.1900
    7.2000    7.2100    7.2200    7.2300    7.2400    7.2500    7.2600    7.2700
    7.2800    7.2900    7.3000    7.3100    7.3200    7.3300    7.3400    7.3500
    7.3600    7.3700    7.3800    7.3900    7.4000    7.4100    7.4200    7.4300
    7.4400    7.4500    7.4600    7.4700    7.4800    7.4900    7.5000    7.5100
    7.5200    7.5300    7.5400    7.5500    7.5600    7.5700    7.5800    7.5900
    7.6000    7.6100    7.6200    7.6300    7.6400    7.6500    7.6600    7.6700
    7.6800    7.6900    7.7000    7.7100    7.7200    7.7300    7.7400    7.7500
    7.7600    7.7700    7.7800    7.7900    7.8000    7.8100    7.8200    7.8300
    7.8400    7.8500    7.8600    7.8700    7.8800    7.8900    7.9000    7.9100
    7.9200    7.9300    7.9400    7.9500    7.9600    7.9700    7.9800    7.9900
    8.0000    8.0100    8.0200    8.0300    8.0400    8.0500    8.0600    8.0700
    8.0800    8.0900    8.1000    8.1100    8.1200    8.1300    8.1400    8.1500
    8.1600    8.1700    8.1800    8.1900    8.2000    8.2100    8.2200    8.2300
    8.2400    8.2500    8.2600    8.2700    8.2800    8.2900    8.3000    8.3100
    8.3200    8.3300    8.3400    8.3500    8.3600    8.3700    8.3800    8.3900
    8.4000    8.4100    8.4200    8.4300    8.4400    8.4500    8.4600    8.4700
    8.4800    8.4900    8.5000    8.5100    8.5200    8.5300    8.5400    8.5500
    8.5600    8.5700    8.5800    8.5900    8.6000    8.6100    8.6200    8.6300
    8.6400    8.6500    8.6600    8.6700    8.6800    8.6900    8.7000    8.7100
    8.7200    8.7300    8.7400    8.7500    8.7600    8.7700    8.7800    8.7900
    8.8000    8.8100    8.8200    8.8300    8.8400    8.8500    8.8600    8.8700
    8.8800    8.8900    8.9000    8.9100    8.9200    8.9300    8.9400    8.9500
    8.9600    8.9700    8.9800    8.9900    9.0000    9.0100    9.0200    9.0300
    9.0400    9.0500    9.0600    9.0700    9.0800    9.0900    9.1000    9.1100
    9.1200    9.1300    9.1400    9.1500    9.1600    9.1700    9.1800    9.1900
    9.2000    9.2100    9.2200    9.2300    9.2400    9.2500    9.2600    9.2700
    9.2800    9.2900    9.3000    9.3100    9.3200    9.3300    9.3400    9.3500
    9.3600    9.3700    9.3800    9.3900    9.4000    9.4100    9.4200    9.4300
    9.4400    9.4500    9.4600    9.4700    9.4800    9.4900    9.5000    9.5100
    9.5200    9.5300    9.5400    9.5500    9.5600    9.5700    9.5800    9.5900
    9.6000    9.6100    9.6200    9.6300    9.6400    9.6500    9.6600    9.6700
    9.6800    9.6900    9.7000    9.7100    9.7200    9.7300    9.7400    9.7500
    9.7600    9.7700    9.7800    9.7900    9.8000    9.8100    9.8200    9.8300
    9.8400    9.8500    9.8600    9.8700    9.8800    9.8900    9.9000    9.9100
    9.9200    9.9300    9.9400    9.9500    9.9600    9.9700    9.9800    9.9900
   10.0000   10.0100   10.0200   10.0300   10.0400   10.0500   10.0600   10.0700
   10.0800   10.0900   10.1000   10.1100   10.1200   10.1300   10.1400   10.1500
   10.1600   10.1700   10.1800   10.1900   10.2000   10.2100   10.2200   10.2300
   10.2400   10.2500   10.2600   10.2700   10.2800   10.2900   10.3000   10.3100
   10.3200   10.3300   10.3400   10.3500   10.3600   10.3700   10.3800   10.3900
   10.4000   10.4100   10.4200   10.4300   10.4400   10.4500   10.4600   10.4700
   10.4800   10.4900   10.5000   10.5100   10.5200   10.5300   10.5400   10.5500
   10.5600   10.5700   10.5800   10.5900   10.6000   10.6100   10.6200   10.6300
   10.6400   10.6500   10.6600   10.6700   10.6800   10.6900   10.7000   10.7100
   10.7200   10.7300   10.7400   10.7500   10.7600   10.7700   10.7800   10.7900
   10.8000   10.8100   10.8200   10.8300   10.8400   10.8500   10.8600   10.8700
   10.8800   10.8900   10.9000   10.9100   10.9200   10.9300   10.9400   10.9500
   10.9600   10.9700   10.9800   10.9900   11.0000   11.0100   11.0200   11.0300
   11.0400   11.0500   11.0600   11.0700   11.0800   11.0900   11.1000   11.1100
   11.1200   11.1300   11.1400   11.1500   11.1600   11.1700   11.1800   11.1900
   11.2000   11.2100   11.2200   11.2300   11.2400   11.2500   11.2600   11.2700
   11.2800   11.2900   11.3000   11.3100   11.3200   11.3300   11.3400   11.3500
   11.3600   11.3700   11.3800   11.3900   11.4000   11.4100   11.4200   11.4300
   11.4400   11.4500   11.4600   11.4700
   </PP_R>
   <PP_RAB type="real"  size="1148" columns="8">
    0.0100    0.0100    0.0100    0.0100    0.0100    0.0100    0.0100    0.0100
    0.0100    0.0100    0.0100    0.0100    0.0100    0.0100    0.0100    0.0100
    0.0100    0.0100    0.0100    0.0100    0.0100    0.0100    0.0100    0.0100
    0.0100    0.0100    0.0100    0.0100    0.0100    0.0100    0.0100    0.0100
    0.0100    0.0100    0.0100    0.0100    0.0100    0.0100    0.0100    0.0100
    0.0100    0.0100    0.0100    0.0100    0.0100    0.0100    0.0100    0.0100
    0.0100    0.0100    0.0100    0.0100    0.0100    0.0100    0.0100    0.0100
    0.0100    0.0100    0.0100    0.0100    0.0100    0.0100    0.0100    0.0100
    0.0100    0.0100    0.0100    0.0100    0.0100    0.0100    0.0100    0.0100
    0.0100    0.0100    0.0100    0.0100    0.0100    0.0100    0.0100    0.0100
    0.0100    0.0100    0.0100    0.0100    0.0100    0.0100    0.0100    0.0100
    0.0100    0.0100    0.0100    0.0100    0.0100    0.0100    0.0100    0.0100
    0.0100    0.0100    0.0100    0.0100    0.0100    0.0100    0.0100    0.0100
    0.0100    0.0100    0.0100    0.0100    0.0100    0.0100    0.0100    0.0100
    0.0100    0.0100    0.0100    0.0100    0.0100    0.0100    0.0100    0.0100
    0.0100    0.0100    0.0100    0.0100    0.0100    0.0100    0.0100    0.0100
    0.0100    0.0100    0.0100    0.0100    0.0100    0.0100    0.0100    0.0100
    0.0100    0.0100    0.0100    0.0100    0.0100    0.0100    0.0100    0.0100
    0.0100    0.0100    0.0100    0.0100    0.0100    0.0100    0.0100    0.0100
    0.0100    0.0100    0.0100    0.0100    0.0100    0.0100    0.0100    0.0100
    0.0100    0.0100    0.0100    0.0100    0.0100    0.0100    0.0100    0.0100
    0.0100    0.0100    0.0100    0.0100    0.0100    0.0100    0.0100    0.0100
    0.0100    0.0100    0.0100    0.0100    0.0100    0.0100    0.0100    0.0100
    0.0100    0.0100    0.0100    0.0100    0.0100    0.0100    0.0100    0.0100
    0.0100    0.0100    0.0100    0.0100    0.0100    0.0100    0.0100    0.0100
    0.0100    0.0100    0.0100    0.0100    0.0100    0.0100    0.0100    0.0100
    0.0100    0.0100    0.0100    0.0100    0.0100    0.0100    0.0100    0.0100
    0.0100    0.0100    0.0100    0.0100    0.0100    0.0100    0.0100    0.0100
    0.0100    0.0100    0.0100    0.0100    0.0100    0.0100    0.0100    0.0100
    0.0100    0.0100    0.0100    0.0100    0.0100    0.0100    0.0100    0.0100
    0.0100    0.0100    0.0100    0.0100    0.0100    0.0100    0.0100    0.0100
    0.0100    0.0100    0.0100    0.0100    0.0100    0.0100    0.0100    0.0100
    0.0100    0.0100    0.0100    0.0100    0.0100    0.0100    0.0100    0.0100
    0.0100    0.0100    0.0100    0.0100    0.0100    0.0100    0.0100    0.0100
    0.0100    0.0100    0.0100    0.0100    0.0100    0.0100    0.0100    0.0100
    0.0100    0.0100    0.0100    0.0100    0.0100    0.0100    0.0100    0.0100
    0.0100    0.0100    0.0100    0.0100    0.0100    0.0100    0.0100    0.0100
    0.0100    0.0100    0.0100    0.0100    0.0100    0.0100    0.0100    0.0100
    0.0100    0.0100    0.0100    0.0100    0.0100    0.0100    0.0100    0.0100
    0.0100    0.0100    0.0100    0.0100    0.0100    0.0100    0.0100    0.0100
    0.0100    0.0100    0.0100    0.0100    0.0100    0.0100    0.0100    0.0100
    0.0100    0.0100    0.0100    0.0100    0.0100    0.0100    0.0100    0.0100
    0.0100    0.0100    0.0100    0.0100    0.0100    0.0100    0.0100    0.0100
    0.0100    0.0100    0.0100    0.0100    0.0100    0.0100    0.0100    0.0100
    0.0100    0.0100    0.0100    0.0100    0.0100    0.0100    0.0100    0.0100
    0.0100    0.0100    0.0100    0.0100    0.0100    0.0100    0.0100    0.0100
    0.0100    0.0100    0.0100    0.0100    0.0100    0.0100    0.0100    0.0100
    0.0100    0.0100    0.0100    0.0100    0.0100    0.0100    0.0100    0.0100
    0.0100    0.0100    0.0100    0.0100    0.0100    0.0100    0.0100    0.0100
    0.0100    0.0100    0.0100    0.0100    0.0100    0.0100    0.0100    0.0100
    0.0100    0.0100    0.0100    0.0100    0.0100    0.0100    0.0100    0.0100
    0.0100    0.0100    0.0100    0.0100    0.0100    0.0100    0.0100    0.0100
    0.0100    0.0100    0.0100    0.0100    0.0100    0.0100    0.0100    0.0100
    0.0100    0.0100    0.0100    0.0100    0.0100    0.0100    0.0100    0.0100
    0.0100    0.0100    0.0100    0.0100    0.0100    0.0100    0.0100    0.0100
    0.0100    0.0100    0.0100    0.0100    0.0100    0.0100    0.0100    0.0100
    0.0100    0.0100    0.0100    0.0100    0.0100    0.0100    0.0100    0.0100
    0.0100    0.0100    0.0100    0.0100    0.0100    0.0100    0.0100    0.0100
    0.0100    0.0100    0.0100    0.0100    0.0100    0.0100    0.0100    0.0100
    0.0100    0.0100    0.0100    0.0100    0.0100    0.0100    0.0100    0.0100
    0.0100    0.0100    0.0100    0.0100    0.0100    0.0100    0.0100    0.0100
    0.0100    0.0100    0.0100    0.0100    0.0100    0.0100    0.0100    0.0100
    0.0100    0.0100    0.0100    0.0100    0.0100    0.0100    0.0100    0.0100
    0.0100    0.0100    0.0100    0.0100    0.0100    0.0100    0.0100    0.0100
    0.0100    0.0100    0.0100    0.0100    0.0100    0.0100    0.0100    0.0100
    0.0100    0.0100    0.0100    0.0100    0.0100    0.0100    0.0100    0.0100
    0.0100    0.0100    0.0100    0.0100    0.0100    0.0100    0.0100    0.0100
    0.0100    0.0100    0.0100    0.0100    0.0100    0.0100    0.0100    0.0100
    0.0100    0.0100    0.0100    0.0100    0.0100    0.0100    0.0100    0.0100
    0.0100    0.0100    0.0100    0.0100    0.0100    0.0100    0.0100    0.0100
    0.0100    0.0100    0.0100    0.0100    0.0100    0.0100    0.0100    0.0100
    0.0100    0.0100    0.0100    0.0100    0.0100    0.0100    0.0100    0.0100
    0.0100    0.0100    0.0100    0.0100    0.0100    0.0100    0.0100    0.0100
    0.0100    0.0100    0.0100    0.0100    0.0100    0.0100    0.0100    0.0100
    0.0100    0.0100    0.0100    0.0100    0.0100    0.0100    0.0100    0.0100
    0.0100    0.0100    0.0100    0.0100    0.0100    0.0100    0.0100    0.0100
    0.0100    0.0100    0.0100    0.0100    0.0100    0.0100    0.0100    0.0100
    0.0100    0.0100    0.0100    0.0100    0.0100    0.0100    0.0100    0.0100
    0.0100    0.0100    0.0100    0.0100    0.0100    0.0100    0.0100    0.0100
    0.0100    0.0100    0.0100    0.0100    0.0100    0.0100    0.0100    0.0100
    0.0100    0.0100    0.0100    0.0100    0.0100    0.0100    0.0100    0.0100
    0.0100    0.0100    0.0100    0.0100    0.0100    0.0100    0.0100    0.0100
    0.0100    0.0100    0.0100    0.0100    0.0100    0.0100    0.0100    0.0100
    0.0100    0.0100    0.0100    0.0100    0.0100    0.0100    0.0100    0.0100
    0.0100    0.0100    0.0100    0.0100    0.0100    0.0100    0.0100    0.0100
    0.0100    0.0100    0.0100    0.0100    0.0100    0.0100    0.0100    0.0100
    0.0100    0.0100    0.0100    0.0100    0.0100    0.0100    0.0100    0.0100
    0.0100    0.0100    0.0100    0.0100    0.0100    0.0100    0.0100    0.0100
    0.0100    0.0100    0.0100    0.0100    0.0100    0.0100    0.0100    0.0100
    0.0100    0.0100    0.0100    0.0100    0.0100    0.0100    0.0100    0.0100
    0.0100    0.0100    0.0100    0.0100    0.0100    0.0100    0.0100    0.0100
    0.0100    0.0100    0.0100    0.0100    0.0100    0.0100    0.0100    0.0100
    0.0100    0.0100    0.0100    0.0100    0.0100    0.0100    0.0100    0.0100
    0.0100    0.0100    0.0100    0.0100    0.0100    0.0100    0.0100    0.0100
    0.0100    0.0100    0.0100    0.0100    0.0100    0.0100    0.0100    0.0100
    0.0100    0.0100    0.0100    0.0100    0.0100    0.0100    0.0100    0.0100
    0.0100    0.0100    0.0100    0.0100    0.0100    0.0100    0.0100    0.0100
    0.0100    0.0100    0.0100    0.0100    0.0100    0.0100    0.0100    0.0100
    0.0100    0.0100    0.0100    0.0100    0.0100    0.0100    0.0100    0.0100
    0.0100    0.0100    0.0100    0.0100    0.0100    0.0100    0.0100    0.0100
    0.0100    0.0100    0.0100    0.0100    0.0100    0.0100    0.0100    0.0100
    0.0100    0.0100    0.0100    0.0100    0.0100    0.0100    0.0100    0.0100
    0.0100    0.0100    0.0100    0.0100    0.0100    0.0100    0.0100    0.0100
    0.0100    0.0100    0.0100    0.0100    0.0100    0.0100    0.0100    0.0100
    0.0100    0.0100    0.0100    0.0100    0.0100    0.0100    0.0100    0.0100
    0.0100    0.0100    0.0100    0.0100    0.0100    0.0100    0.0100    0.0100
    0.0100    0.0100    0.0100    0.0100    0.0100    0.0100    0.0100    0.0100
    0.0100    0.0100    0.0100    0.0100    0.0100    0.0100    0.0100    0.0100
    0.0100    0.0100    0.0100    0.0100    0.0100    0.0100    0.0100    0.0100
    0.0100    0.0100    0.0100    0.0100    0.0100    0.0100    0.0100    0.0100
    0.0100    0.0100    0.0100    0.0100    0.0100    0.0100    0.0100    0.0100
    0.0100    0.0100    0.0100    0.0100    0.0100    0.0100    0.0100    0.0100
    0.0100    0.0100    0.0100    0.0100    0.0100    0.0100    0.0100    0.0100
    0.0100    0.0100    0.0100    0.0100    0.0100    0.0100    0.0100    0.0100
    0.0100    0.0100    0.0100    0.0100    0.0100    0.0100    0.0100    0.0100
    0.0100    0.0100    0.0100    0.0100    0.0100    0.0100    0.0100    0.0100
    0.0100    0.0100    0.0100    0.0100    0.0100    0.0100    0.0100    0.0100
    0.0100    0.0100    0.0100    0.0100    0.0100    0.0100    0.0100    0.0100
    0.0100    0.0100    0.0100    0.0100    0.0100    0.0100    0.0100    0.0100
    0.0100    0.0100    0.0100    0.0100    0.0100    0.0100    0.0100    0.0100
    0.0100    0.0100    0.0100    0.0100    0.0100    0.0100    0.0100    0.0100
    0.0100    0.0100    0.0100    0.0100    0.0100    0.0100    0.0100    0.0100
    0.0100    0.0100    0.0100    0.0100    0.0100    0.0100    0.0100    0.0100
    0.0100    0.0100    0.0100    0.0100    0.0100    0.0100    0.0100    0.0100
    0.0100    0.0100    0.0100    0.0100    0.0100    0.0100    0.0100    0.0100
    0.0100    0.0100    0.0100    0.0100    0.0100    0.0100    0.0100    0.0100
    0.0100    0.0100    0.0100    0.0100    0.0100    0.0100    0.0100    0.0100
    0.0100    0.0100    0.0100    0.0100    0.0100    0.0100    0.0100    0.0100
    0.0100    0.0100    0.0100    0.0100    0.0100    0.0100    0.0100    0.0100
    0.0100    0.0100    0.0100    0.0100    0.0100    0.0100    0.0100    0.0100
    0.0100    0.0100    0.0100    0.0100    0.0100    0.0100    0.0100    0.0100
    0.0100    0.0100    0.0100    0.0100    0.0100    0.0100    0.0100    0.0100
    0.0100    0.0100    0.0100    0.0100    0.0100    0.0100    0.0100    0.0100
    0.0100    0.0100    0.0100    0.0100    0.0100    0.0100    0.0100    0.0100
    0.0100    0.0100    0.0100    0.0100    0.0100    0.0100    0.0100    0.0100
    0.0100    0.0100    0.0100    0.0100    0.0100    0.0100    0.0100    0.0100
    0.0100    0.0100    0.0100    0.0100    0.0100    0.0100    0.0100    0.0100
    0.0100    0.0100    0.0100    0.0100    0.0100    0.0100    0.0100    0.0100
    0.0100    0.0100    0.0100    0.0100    0.0100    0.0100    0.0100    0.0100
    0.0100    0.0100    0.0100    0.0100    0.0100    0.0100    0.0100    0.0100
    0.0100    0.0100    0.0100    0.0100    0.0100    0.0100    0.0100    0.0100
    0.0100    0.0100    0.0100    0.0100    0.0100    0.0100    0.0100    0.0100
    0.0100    0.0100    0.0100    0.0100    0.0100    0.0100    0.0100    0.0100
    0.0100    0.0100    0.0100    0.0100
   </PP_RAB>
 </PP_MESH>
  <PP_LOCAL type="real"  size="1148" columns="4">
   -2.1223289627E+01   -2.1221680226E+01   -2.1216853379E+01   -2.1208813173E+01
   -2.1197566406E+01   -2.1183122561E+01   -2.1165493786E+01   -2.1144694851E+01
   -2.1120743110E+01   -2.1093658447E+01   -2.1063463223E+01   -2.1030182212E+01
   -2.0993842535E+01   -2.0954473590E+01   -2.0912106977E+01   -2.0866776417E+01
   -2.0818517677E+01   -2.0767368486E+01   -2.0713368449E+01   -2.0656558968E+01
   -2.0596983158E+01   -2.0534685760E+01   -2.0469713063E+01   -2.0402112821E+01
   -2.0331934173E+01   -2.0259227568E+01   -2.0184044687E+01   -2.0106438368E+01
   -2.0026462541E+01   -1.9944172151E+01   -1.9859623096E+01   -1.9772872163E+01
   -1.9683976962E+01   -1.9592995867E+01   -1.9499987961E+01   -1.9405012974E+01
   -1.9308131230E+01   -1.9209403595E+01   -1.9108891424E+01   -1.9006656508E+01
   -1.8902761027E+01   -1.8797267500E+01   -1.8690238733E+01   -1.8581737779E+01
   -1.8471827883E+01   -1.8360572441E+01   -1.8248034950E+01   -1.8134278965E+01
   -1.8019368051E+01   -1.7903365737E+01   -1.7786335473E+01   -1.7668340584E+01
   -1.7549444222E+01   -1.7429709322E+01   -1.7309198557E+01   -1.7187974292E+01
   -1.7066098537E+01   -1.6943632899E+01   -1.6820638537E+01   -1.6697176114E+01
   -1.6573305746E+01   -1.6449086956E+01   -1.6324578619E+01   -1.6199838914E+01
   -1.6074925270E+01   -1.5949894313E+01   -1.5824801809E+01   -1.5699702611E+01
   -1.5574650602E+01   -1.5449698638E+01   -1.5324898496E+01   -1.5200300812E+01
   -1.5075955036E+01   -1.4951909374E+01   -1.4828210747E+01   -1.4704904743E+01
   -1.4582035583E+01   -1.4459646090E+01   -1.4337777662E+01   -1.4216470259E+01
   -1.4095762393E+01   -1.3975691130E+01   -1.3856292096E+01   -1.3737599493E+01
   -1.3619646119E+01   -1.3502463391E+01   -1.3386081367E+01   -1.3270528773E+01
   -1.3155833009E+01   -1.3042020161E+01   -1.2929114987E+01   -1.2817140887E+01
   -1.2706119849E+01   -1.2596072372E+01   -1.2487017350E+01   -1.2378971933E+01
   -1.2271951352E+01   -1.2165968703E+01   -1.2061034711E+01   -1.1957157453E+01
   -1.1854342066E+01   -1.1752590425E+01   -1.1651900813E+01   -1.1552267571E+01
   -1.1453680759E+01   -1.1356125811E+01   -1.1259583196E+01   -1.1164028102E+01
   -1.1069430132E+01   -1.0975753002E+01   -1.0882960927E+01   -1.0791044208E+01
   -1.0700021833E+01   -1.0609929640E+01   -1.0520811008E+01   -1.0432710223E+01
   -1.0345668107E+01   -1.0259719422E+01   -1.0174891606E+01   -1.0091204420E+01
   -1.0008670203E+01   -9.9272944913E+00   -9.8470768314E+00   -9.7680116668E+00
   -9.6900892224E+00   -9.6132963405E+00   -9.5376172413E+00   -9.4630341976E+00
   -9.3895281145E+00   -9.3170790302E+00   -9.2456665206E+00   -9.1752700414E+00
   -9.1058691943E+00   -9.0374439362E+00   -8.9699747361E+00   -8.9034426867E+00
   -8.8378295782E+00   -8.7731179399E+00   -8.7092910548E+00   -8.6463329536E+00
   -8.5842283905E+00   -8.5229628064E+00   -8.4625222821E+00   -8.4028934845E+00
   -8.3440636083E+00   -8.2860203162E+00   -8.2287516780E+00   -8.1722461113E+00
   -8.1164923242E+00   -8.0614792618E+00   -8.0071960565E+00   -7.9536319822E+00
   -7.9007764151E+00   -7.8486187977E+00   -7.7971486090E+00   -7.7463553399E+00
   -7.6962284731E+00   -7.6467574681E+00   -7.5979317503E+00   -7.5497407052E+00
   -7.5021736752E+00   -7.4552199611E+00   -7.4088688257E+00   -7.3631095012E+00
   -7.3179311978E+00   -7.2733231156E+00   -7.2292744570E+00   -7.1857744417E+00
   -7.1428123215E+00   -7.1003773969E+00   -7.0584590338E+00   -7.0170466803E+00
   -6.9761298812E+00   -6.9356982885E+00   -6.8957416901E+00   -6.8562500427E+00
   -6.8172134700E+00   -6.7786222685E+00   -6.7404669630E+00   -6.7027382221E+00
   -6.6654268061E+00   -6.6285267608E+00   -6.5920393521E+00   -6.5559665176E+00
   -6.5203007112E+00   -6.4850323491E+00   -6.4501555306E+00   -6.4156630568E+00
   -6.3815478928E+00   -6.3478032705E+00   -6.3144224864E+00   -6.2813989828E+00
   -6.2487263341E+00   -6.2163982525E+00   -6.1844085889E+00   -6.1527513357E+00
   -6.1214206275E+00   -6.0904107422E+00   -6.0597161015E+00   -6.0293312710E+00
   -5.9992509596E+00   -5.9694700192E+00   -5.9399834430E+00   -5.9107863646E+00
   -5.8818740556E+00   -5.8532419237E+00   -5.8248855102E+00   -5.7968004869E+00
   -5.7689826535E+00   -5.7414279340E+00   -5.7141323730E+00   -5.6870921322E+00
   -5.6603034865E+00   -5.6337628198E+00   -5.6074666207E+00   -5.5814114786E+00
   -5.5555940788E+00   -5.5300111987E+00   -5.5046597027E+00   -5.4795365382E+00
   -5.4546387312E+00   -5.4299633815E+00   -5.4055076591E+00   -5.3812687992E+00
   -5.3572440987E+00   -5.3334309121E+00   -5.3098266472E+00   -5.2864287623E+00
   -5.2632347619E+00   -5.2402421938E+00   -5.2174486460E+00   -5.1948517435E+00
   -5.1724491460E+00   -5.1502385454E+00   -5.1282176630E+00   -5.1063842483E+00
   -5.0847360767E+00   -5.0632709480E+00   -5.0419866852E+00   -5.0208811334E+00
   -4.9999521586E+00   -4.9791976472E+00   -4.9586155055E+00   -4.9382036594E+00
   -4.9179600539E+00   -4.8978826535E+00   -4.8779694420E+00   -4.8582184228E+00
   -4.8386276196E+00   -4.8191950761E+00   -4.7999188575E+00   -4.7807970503E+00
   -4.7618277625E+00   -4.7430091259E+00   -4.7243392960E+00   -4.7058164515E+00
   -4.6874387966E+00   -4.6692045608E+00   -4.6511119997E+00   -4.6331593955E+00
   -4.6153450576E+00   -4.5976673229E+00   -4.5801245561E+00   -4.5627151502E+00
   -4.5454375265E+00   -4.5282901346E+00   -4.5112714528E+00   -4.4943799875E+00
   -4.4776142735E+00   -4.4609728733E+00   -4.4444543770E+00   -4.4280574020E+00
   -4.4117805921E+00   -4.3956226174E+00   -4.3795821732E+00   -4.3636579794E+00
   -4.3478487800E+00   -4.3321533421E+00   -4.3165704551E+00   -4.3010989299E+00
   -4.2857375978E+00   -4.2704853098E+00   -4.2553409359E+00   -4.2403033637E+00
   -4.2253714981E+00   -4.2105442601E+00   -4.1958205861E+00   -4.1811994271E+00
   -4.1666797479E+00   -4.1522605265E+00   -4.1379407536E+00   -4.1237194317E+00
   -4.1095955747E+00   -4.0955682075E+00   -4.0816363654E+00   -4.0677990941E+00
   -4.0540554489E+00   -4.0404044948E+00   -4.0268453064E+00   -4.0133769675E+00
   -3.9999985709E+00   -3.9867092190E+00   -3.9735080229E+00   -3.9603941034E+00
   -3.9473665902E+00   -3.9344246226E+00   -3.9215673493E+00   -3.9087939287E+00
   -3.8961035290E+00   -3.8834953283E+00   -3.8709685147E+00   -3.8585222868E+00
   -3.8461558531E+00   -3.8338684332E+00   -3.8216592567E+00   -3.8095275643E+00
   -3.7974726073E+00   -3.7854936476E+00   -3.7735899582E+00   -3.7617608225E+00
   -3.7500055349E+00   -3.7383234003E+00   -3.7267137340E+00   -3.7151758618E+00
   -3.7037091194E+00   -3.6923128529E+00   -3.6809864177E+00   -3.6697291789E+00
   -3.6585405108E+00   -3.6474197967E+00   -3.6363664282E+00   -3.6253798056E+00
   -3.6144593371E+00   -3.6036044383E+00   -3.5928145325E+00   -3.5820890501E+00
   -3.5714274276E+00   -3.5608290997E+00   -3.5502935270E+00   -3.5398202303E+00
   -3.5294085903E+00   -3.5190577687E+00   -3.5087674626E+00   -3.4985381782E+00
   -3.4883697853E+00   -3.4782608703E+00   -3.4682099868E+00   -3.4582161439E+00
   -3.4482787252E+00   -3.4383978807E+00   -3.4285737878E+00   -3.4188058403E+00
   -3.4090933191E+00   -3.3994357972E+00   -3.3898328470E+00   -3.3802840017E+00
   -3.3707888016E+00   -3.3613467957E+00   -3.3519575386E+00   -3.3426205895E+00
   -3.3333355125E+00   -3.3241018766E+00   -3.3149192553E+00   -3.3057872272E+00
   -3.2967053752E+00   -3.2876732870E+00   -3.2786905546E+00   -3.2697567745E+00
   -3.2608715479E+00   -3.2520344798E+00   -3.2432451798E+00   -3.2345032616E+00
   -3.2258083432E+00   -3.2171600466E+00   -3.2085579976E+00   -3.2000018265E+00
   -3.1914911671E+00   -3.1830256572E+00   -3.1746049386E+00   -3.1662286567E+00
   -3.1578964607E+00   -3.1496080034E+00   -3.1413629414E+00   -3.1331609347E+00
   -3.1250016469E+00   -3.1168847453E+00   -3.1088099003E+00   -3.1007767860E+00
   -3.0927850796E+00   -3.0848344620E+00   -3.0769246168E+00   -3.0690552315E+00
   -3.0612259962E+00   -3.0534366046E+00   -3.0456867532E+00   -3.0379761418E+00
   -3.0303044730E+00   -3.0226714526E+00   -3.0150767892E+00   -3.0075201946E+00
   -3.0000013830E+00   -2.9925200720E+00   -2.9850759816E+00   -2.9776688347E+00
   -2.9702983571E+00   -2.9629642771E+00   -2.9556663257E+00   -2.9484042367E+00
   -2.9411777463E+00   -2.9339865934E+00   -2.9268305195E+00   -2.9197092685E+00
   -2.9126225869E+00   -2.9055702235E+00   -2.8985519297E+00   -2.8915674591E+00
   -2.8846165679E+00   -2.8776990145E+00   -2.8708145595E+00   -2.8639629661E+00
   -2.8571439995E+00   -2.8503574272E+00   -2.8436030189E+00   -2.8368805465E+00
   -2.8301897840E+00   -2.8235305076E+00   -2.8169024956E+00   -2.8103055283E+00
   -2.8037393881E+00   -2.7972038594E+00   -2.7906987287E+00   -2.7842237843E+00
   -2.7777788167E+00   -2.7713636182E+00   -2.7649779829E+00   -2.7586217069E+00
   -2.7522945884E+00   -2.7459964271E+00   -2.7397270246E+00   -2.7334861844E+00
   -2.7272737119E+00   -2.7210894139E+00   -2.7149330994E+00   -2.7088045787E+00
   -2.7027036641E+00   -2.6966301694E+00   -2.6905839103E+00   -2.6845647040E+00
   -2.6785723691E+00   -2.6726067264E+00   -2.6666675977E+00   -2.6607548067E+00
   -2.6548681787E+00   -2.6490075403E+00   -2.6431727197E+00   -2.6373635469E+00
   -2.6315798530E+00   -2.6258214708E+00   -2.6200882344E+00   -2.6143799796E+00
   -2.6086965434E+00   -2.6030377642E+00   -2.5974034821E+00   -2.5917935382E+00
   -2.5862077751E+00   -2.5806460370E+00   -2.5751081691E+00   -2.5695940180E+00
   -2.5641034318E+00   -2.5586362596E+00   -2.5531923522E+00   -2.5477715611E+00
   -2.5423737396E+00   -2.5369987420E+00   -2.5316464238E+00   -2.5263166417E+00
   -2.5210092537E+00   -2.5157241190E+00   -2.5104610979E+00   -2.5052200519E+00
   -2.5000008437E+00   -2.4948033370E+00   -2.4896273968E+00   -2.4844728891E+00
   -2.4793396811E+00   -2.4742276410E+00   -2.4691366382E+00   -2.4640665431E+00
   -2.4590172271E+00   -2.4539885627E+00   -2.4489804236E+00   -2.4439926843E+00
   -2.4390252203E+00   -2.4340779084E+00   -2.4291506262E+00   -2.4242432522E+00
   -2.4193556660E+00   -2.4144877483E+00   -2.4096393804E+00   -2.4048104450E+00
   -2.4000008253E+00   -2.3952104057E+00   -2.3904390715E+00   -2.3856867088E+00
   -2.3809532048E+00   -2.3762384473E+00   -2.3715423253E+00   -2.3668647284E+00
   -2.3622055473E+00   -2.3575646734E+00   -2.3529419991E+00   -2.3483374174E+00
   -2.3437508224E+00   -2.3391821089E+00   -2.3346311725E+00   -2.3300979096E+00
   -2.3255822176E+00   -2.3210839944E+00   -2.3166031389E+00   -2.3121395506E+00
   -2.3076931300E+00   -2.3032637783E+00   -2.2988513972E+00   -2.2944558895E+00
   -2.2900771585E+00   -2.2857151085E+00   -2.2813696442E+00   -2.2770406712E+00
   -2.2727280959E+00   -2.2684318251E+00   -2.2641517668E+00   -2.2598878292E+00
   -2.2556399214E+00   -2.2514079533E+00   -2.2471918352E+00   -2.2429914783E+00
   -2.2388067944E+00   -2.2346376959E+00   -2.2304840959E+00   -2.2263459081E+00
   -2.2222230470E+00   -2.2181154275E+00   -2.2140229653E+00   -2.2099455765E+00
   -2.2058831782E+00   -2.2018356878E+00   -2.1978030233E+00   -2.1937851034E+00
   -2.1897818475E+00   -2.1857931755E+00   -2.1818190076E+00   -2.1778592651E+00
   -2.1739138694E+00   -2.1699827428E+00   -2.1660658079E+00   -2.1621629882E+00
   -2.1582742073E+00   -2.1543993897E+00   -2.1505384604E+00   -2.1466913447E+00
   -2.1428579688E+00   -2.1390382590E+00   -2.1352321425E+00   -2.1314395468E+00
   -2.1276604001E+00   -2.1238946308E+00   -2.1201421681E+00   -2.1164029417E+00
   -2.1126768814E+00   -2.1089639181E+00   -2.1052639826E+00   -2.1015770067E+00
   -2.0979029222E+00   -2.0942416618E+00   -2.0905931584E+00   -2.0869573453E+00
   -2.0833341567E+00   -2.0797235267E+00   -2.0761253902E+00   -2.0725396825E+00
   -2.0689663393E+00   -2.0654052967E+00   -2.0618564914E+00   -2.0583198604E+00
   -2.0547953411E+00   -2.0512828714E+00   -2.0477823896E+00   -2.0442938345E+00
   -2.0408171452E+00   -2.0373522613E+00   -2.0338991228E+00   -2.0304576699E+00
   -2.0270278436E+00   -2.0236095850E+00   -2.0202028357E+00   -2.0168075376E+00
   -2.0134236330E+00   -2.0100510649E+00   -2.0066897762E+00   -2.0033397105E+00
   -2.0000008116E+00   -1.9966730239E+00   -1.9933562919E+00   -1.9900505607E+00
   -1.9867557756E+00   -1.9834718823E+00   -1.9801988270E+00   -1.9769365560E+00
   -1.9736850161E+00   -1.9704441545E+00   -1.9672139186E+00   -1.9639942564E+00
   -1.9607851158E+00   -1.9575864456E+00   -1.9543981944E+00   -1.9512203116E+00
   -1.9480527465E+00   -1.9448954490E+00   -1.9417483693E+00   -1.9386114579E+00
   -1.9354846655E+00   -1.9323679432E+00   -1.9292612426E+00   -1.9261645153E+00
   -1.9230777134E+00   -1.9200007892E+00   -1.9169336955E+00   -1.9138763851E+00
   -1.9108288114E+00   -1.9077909279E+00   -1.9047626884E+00   -1.9017440471E+00
   -1.8987349585E+00   -1.8957353773E+00   -1.8927452584E+00   -1.8897645572E+00
   -1.8867932293E+00   -1.8838312305E+00   -1.8808785169E+00   -1.8779350450E+00
   -1.8750007714E+00   -1.8720756531E+00   -1.8691596473E+00   -1.8662527115E+00
   -1.8633548034E+00   -1.8604658811E+00   -1.8575859028E+00   -1.8547148270E+00
   -1.8518526126E+00   -1.8489992185E+00   -1.8461546041E+00   -1.8433187289E+00
   -1.8404915527E+00   -1.8376730355E+00   -1.8348631376E+00   -1.8320618195E+00
   -1.8292690420E+00   -1.8264847661E+00   -1.8237089531E+00   -1.8209415643E+00
   -1.8181825616E+00   -1.8154319068E+00   -1.8126895622E+00   -1.8099554900E+00
   -1.8072296530E+00   -1.8045120140E+00   -1.8018025361E+00   -1.7991011825E+00
   -1.7964079168E+00   -1.7937227027E+00   -1.7910455041E+00   -1.7883762853E+00
   -1.7857150105E+00   -1.7830616445E+00   -1.7804161519E+00   -1.7777784978E+00
   -1.7751486474E+00   -1.7725265661E+00   -1.7699122195E+00   -1.7673055735E+00
   -1.7647065941E+00   -1.7621152476E+00   -1.7595315003E+00   -1.7569553188E+00
   -1.7543866700E+00   -1.7518255210E+00   -1.7492718388E+00   -1.7467255909E+00
   -1.7441867449E+00   -1.7416552685E+00   -1.7391311298E+00   -1.7366142967E+00
   -1.7341047378E+00   -1.7316024214E+00   -1.7291073163E+00   -1.7266193914E+00
   -1.7241386157E+00   -1.7216649584E+00   -1.7191983889E+00   -1.7167388768E+00
   -1.7142863920E+00   -1.7118409042E+00   -1.7094023836E+00   -1.7069708004E+00
   -1.7045461252E+00   -1.7021283284E+00   -1.6997173810E+00   -1.6973132537E+00
   -1.6949159178E+00   -1.6925253444E+00   -1.6901415051E+00   -1.6877643713E+00
   -1.6853939149E+00   -1.6830301077E+00   -1.6806729218E+00   -1.6783223294E+00
   -1.6759783029E+00   -1.6736408148E+00   -1.6713098379E+00   -1.6689853448E+00
   -1.6666673087E+00   -1.6643557027E+00   -1.6620505000E+00   -1.6597516740E+00
   -1.6574591984E+00   -1.6551730468E+00   -1.6528931932E+00   -1.6506196115E+00
   -1.6483522760E+00   -1.6460911608E+00   -1.6438362404E+00   -1.6415874895E+00
   -1.6393448827E+00   -1.6371083948E+00   -1.6348780009E+00   -1.6326536762E+00
   -1.6304353957E+00   -1.6282231350E+00   -1.6260168696E+00   -1.6238165752E+00
   -1.6216222275E+00   -1.6194338024E+00   -1.6172512761E+00   -1.6150746246E+00
   -1.6129038244E+00   -1.6107388518E+00   -1.6085796834E+00   -1.6064262960E+00
   -1.6042786662E+00   -1.6021367711E+00   -1.6000005877E+00   -1.5978700932E+00
   -1.5957452650E+00   -1.5936260803E+00   -1.5915125168E+00   -1.5894045522E+00
   -1.5873021642E+00   -1.5852053307E+00   -1.5831140298E+00   -1.5810282395E+00
   -1.5789479381E+00   -1.5768731040E+00   -1.5748037157E+00   -1.5727397517E+00
   -1.5706811908E+00   -1.5686280117E+00   -1.5665801934E+00   -1.5645377149E+00
   -1.5625005554E+00   -1.5604686940E+00   -1.5584421102E+00   -1.5564207835E+00
   -1.5544046933E+00   -1.5523938194E+00   -1.5503881416E+00   -1.5483876397E+00
   -1.5463922937E+00   -1.5444020838E+00   -1.5424169901E+00   -1.5404369929E+00
   -1.5384620726E+00   -1.5364922097E+00   -1.5345273848E+00   -1.5325675787E+00
   -1.5306127720E+00   -1.5286629457E+00   -1.5267180809E+00   -1.5247781585E+00
   -1.5228431597E+00   -1.5209130659E+00   -1.5189878584E+00   -1.5170675187E+00
   -1.5151520284E+00   -1.5132413690E+00   -1.5113355224E+00   -1.5094344703E+00
   -1.5075381948E+00   -1.5056466778E+00   -1.5037599014E+00   -1.5018778479E+00
   -1.5000004995E+00   -1.4981278386E+00   -1.4962598477E+00   -1.4943965094E+00
   -1.4925378062E+00   -1.4906837208E+00   -1.4888342363E+00   -1.4869893353E+00
   -1.4851490008E+00   -1.4833132161E+00   -1.4814819641E+00   -1.4796552282E+00
   -1.4778329916E+00   -1.4760152378E+00   -1.4742019502E+00   -1.4723931124E+00
   -1.4705887080E+00   -1.4687887207E+00   -1.4669931344E+00   -1.4652019330E+00
   -1.4634151003E+00   -1.4616326204E+00   -1.4598544775E+00   -1.4580806557E+00
   -1.4563111392E+00   -1.4545459126E+00   -1.4527849600E+00   -1.4510282662E+00
   -1.4492758155E+00   -1.4475275927E+00   -1.4457835825E+00   -1.4440437697E+00
   -1.4423081391E+00   -1.4405766757E+00   -1.4388493645E+00   -1.4371261905E+00
   -1.4354071390E+00   -1.4336921952E+00   -1.4319813442E+00   -1.4302745716E+00
   -1.4285718628E+00   -1.4268732032E+00   -1.4251785784E+00   -1.4234879740E+00
   -1.4218013759E+00   -1.4201187697E+00   -1.4184401412E+00   -1.4167654765E+00
   -1.4150947615E+00   -1.4134279822E+00   -1.4117651247E+00   -1.4101061752E+00
   -1.4084511200E+00   -1.4067999453E+00   -1.4051526376E+00   -1.4035091832E+00
   -1.4018695686E+00   -1.4002337805E+00   -1.3986018054E+00   -1.3969736300E+00
   -1.3953492410E+00   -1.3937286253E+00   -1.3921117698E+00   -1.3904986613E+00
   -1.3888892868E+00   -1.3872836335E+00   -1.3856816883E+00   -1.3840834385E+00
   -1.3824888714E+00   -1.3808979741E+00   -1.3793107341E+00   -1.3777271386E+00
   -1.3761471753E+00   -1.3745708317E+00   -1.3729980952E+00   -1.3714289535E+00
   -1.3698633944E+00   -1.3683014055E+00   -1.3667429747E+00   -1.3651880897E+00
   -1.3636367387E+00   -1.3620889094E+00   -1.3605445899E+00   -1.3590037684E+00
   -1.3574664328E+00   -1.3559325715E+00   -1.3544021726E+00   -1.3528752244E+00
   -1.3513517153E+00   -1.3498316337E+00   -1.3483149680E+00   -1.3468017067E+00
   -1.3452918384E+00   -1.3437853516E+00   -1.3422822351E+00   -1.3407824774E+00
   -1.3392860675E+00   -1.3377929940E+00   -1.3363032459E+00   -1.3348168119E+00
   -1.3333336812E+00   -1.3318538427E+00   -1.3303772854E+00   -1.3289039984E+00
   -1.3274339710E+00   -1.3259671922E+00   -1.3245036513E+00   -1.3230433377E+00
   -1.3215862406E+00   -1.3201323494E+00   -1.3186816536E+00   -1.3172341427E+00
   -1.3157898061E+00   -1.3143486334E+00   -1.3129106143E+00   -1.3114757384E+00
   -1.3100439955E+00   -1.3086153752E+00   -1.3071898673E+00   -1.3057674618E+00
   -1.3043481485E+00   -1.3029319172E+00   -1.3015187581E+00   -1.3001086610E+00
   -1.2987016162E+00   -1.2972976135E+00   -1.2958966433E+00   -1.2944986957E+00
   -1.2931037609E+00   -1.2917118292E+00   -1.2903228909E+00   -1.2889369363E+00
   -1.2875539559E+00   -1.2861739401E+00   -1.2847968793E+00   -1.2834227642E+00
   -1.2820515852E+00   -1.2806833329E+00   -1.2793179980E+00   -1.2779555712E+00
   -1.2765960431E+00   -1.2752394046E+00   -1.2738856465E+00   -1.2725347595E+00
   -1.2711867345E+00   -1.2698415625E+00   -1.2684992345E+00   -1.2671597413E+00
   -1.2658230741E+00   -1.2644892239E+00   -1.2631581818E+00   -1.2618299389E+00
   -1.2605044865E+00   -1.2591818157E+00   -1.2578619178E+00   -1.2565447841E+00
   -1.2552304059E+00   -1.2539187746E+00   -1.2526098816E+00   -1.2513037182E+00
   -1.2500002761E+00   -1.2486995466E+00   -1.2474015213E+00   -1.2461061918E+00
   -1.2448135498E+00   -1.2435235868E+00   -1.2422362945E+00   -1.2409516647E+00
   -1.2396696890E+00   -1.2383903594E+00   -1.2371136675E+00   -1.2358396053E+00
   -1.2345681646E+00   -1.2332993373E+00   -1.2320331155E+00   -1.2307694910E+00
   -1.2295084559E+00   -1.2282500023E+00   -1.2269941222E+00   -1.2257408078E+00
   -1.2244900511E+00   -1.2232418444E+00   -1.2219961798E+00   -1.2207530497E+00
   -1.2195124463E+00   -1.2182743618E+00   -1.2170387887E+00   -1.2158057193E+00
   -1.2145751460E+00   -1.2133470612E+00   -1.2121214574E+00   -1.2108983270E+00
   -1.2096776627E+00   -1.2084594568E+00   -1.2072437022E+00   -1.2060303912E+00
   -1.2048195166E+00   -1.2036110710E+00   -1.2024050472E+00   -1.2012014378E+00
   -1.2000002357E+00   -1.1988014336E+00   -1.1976050242E+00   -1.1964110006E+00
   -1.1952193555E+00   -1.1940300818E+00   -1.1928431725E+00   -1.1916586205E+00
   -1.1904764188E+00   -1.1892965604E+00   -1.1881190383E+00   -1.1869438457E+00
   -1.1857709756E+00   -1.1846004212E+00   -1.1834321755E+00   -1.1822662318E+00
   -1.1811025833E+00   -1.1799412231E+00   -1.1787821447E+00   -1.1776253411E+00
   -1.1764708058E+00   -1.1753185321E+00   -1.1741685133E+00   -1.1730207428E+00
   -1.1718752141E+00   -1.1707319206E+00   -1.1695908557E+00   -1.1684520129E+00
   -1.1673153858E+00   -1.1661809678E+00   -1.1650487527E+00   -1.1639187338E+00
   -1.1627909050E+00   -1.1616652597E+00   -1.1605417917E+00   -1.1594204947E+00
   -1.1583013623E+00   -1.1571843883E+00   -1.1560695665E+00   -1.1549568907E+00
   -1.1538463546E+00   -1.1527379521E+00   -1.1516316770E+00   -1.1505275233E+00
   -1.1494254849E+00   -1.1483255555E+00   -1.1472277294E+00   -1.1461320003E+00
   -1.1450383623E+00   -1.1439468094E+00   -1.1428573356E+00   -1.1417699351E+00
   -1.1406846018E+00   -1.1396013300E+00   -1.1385201137E+00   -1.1374409472E+00
   -1.1363638245E+00   -1.1352887399E+00   -1.1342156875E+00   -1.1331446618E+00
   -1.1320756568E+00   -1.1310086669E+00   -1.1299436864E+00   -1.1288807096E+00
   -1.1278197310E+00   -1.1267607447E+00   -1.1257037453E+00   -1.1246487272E+00
   -1.1235956848E+00   -1.1225446125E+00   -1.1214955048E+00   -1.1204483562E+00
   -1.1194031613E+00   -1.1183599146E+00   -1.1173186106E+00   -1.1162792439E+00
   -1.1152418091E+00   -1.1142063008E+00   -1.1131727137E+00   -1.1121410425E+00
   -1.1111112817E+00   -1.1100834261E+00   -1.1090574705E+00   -1.1080334095E+00
   -1.1070112379E+00   -1.1059909505E+00   -1.1049725421E+00   -1.1039560075E+00
   -1.1029413415E+00   -1.1019285391E+00   -1.1009175949E+00   -1.0999085040E+00
   -1.0989012613E+00   -1.0978958616E+00   -1.0968923000E+00   -1.0958905714E+00
   -1.0948906707E+00   -1.0938925930E+00   -1.0928963333E+00   -1.0919018866E+00
   -1.0909092480E+00   -1.0899184126E+00   -1.0889293755E+00   -1.0879421316E+00
   -1.0869566763E+00   -1.0859730046E+00   -1.0849911117E+00   -1.0840109928E+00
   -1.0830326430E+00   -1.0820560576E+00   -1.0810812319E+00   -1.0801081610E+00
   -1.0791368402E+00   -1.0781672648E+00   -1.0771994302E+00   -1.0762333316E+00
   -1.0752689643E+00   -1.0743063238E+00   -1.0733454053E+00   -1.0723862043E+00
   -1.0714287161E+00   -1.0704729363E+00   -1.0695188601E+00   -1.0685664831E+00
   -1.0676158007E+00   -1.0666668084E+00   -1.0657195017E+00   -1.0647738761E+00
   -1.0638299272E+00   -1.0628876505E+00   -1.0619470415E+00   -1.0610080958E+00
   -1.0600708091E+00   -1.0591351768E+00   -1.0582011947E+00   -1.0572688585E+00
   -1.0563381636E+00   -1.0554091058E+00   -1.0544816809E+00   -1.0535558844E+00
   -1.0526317121E+00   -1.0517091598E+00   -1.0507882232E+00   -1.0498688979E+00
   -1.0489511799E+00   -1.0480350649E+00   -1.0471205488E+00   -1.0462076272E+00
  </PP_LOCAL>
 <PP_NONLOCAL>
   <PP_BETA.1
       type="real"
       size="1148"
       columns="4"
       index="1"
       angular_momentum="0"
       cutoff_radius_index=" 196"
       cutoff_radius="    1.9500000000E+00" >
    1.5325574143E-10    4.0342369914E-02    8.0670170714E-02    1.2096858004E-01
    1.6122227234E-01    2.0141517558E-01    2.4153023768E-01    2.8154920591E-01
    3.2145242209E-01    3.6121863633E-01    4.0082484189E-01    4.4024613345E-01
    4.7945559063E-01    5.1842418867E-01    5.5712073750E-01    5.9551185031E-01
    6.3356194215E-01    6.7123325918E-01    7.0848593824E-01    7.4527809649E-01
    7.8156595035E-01    8.1730396263E-01    8.5244501645E-01    8.8694061408E-01
    9.2074109887E-01    9.5379589770E-01    9.8605378165E-01    1.0174631419E+00
    1.0479722783E+00    1.0775296964E+00    1.1060844121E+00    1.1335862575E+00
    1.1599861878E+00    1.1852365832E+00    1.2092915454E+00    1.2321071827E+00
    1.2536418831E+00    1.2738565715E+00    1.2927149481E+00    1.3101837064E+00
    1.3262327287E+00    1.3408352561E+00    1.3539680330E+00    1.3656114244E+00
    1.3757495040E+00    1.3843701148E+00    1.3914649002E+00    1.3970293065E+00
    1.4010625579E+00    1.4035676032E+00    1.4045510382E+00    1.4040230018E+00
    1.4019970515E+00    1.3984900164E+00    1.3935218336E+00    1.3871153679E+00
    1.3792962189E+00    1.3700925172E+00    1.3595347141E+00    1.3476553654E+00
    1.3344889153E+00    1.3200714793E+00    1.3044406333E+00    1.2876352075E+00
    1.2696950903E+00    1.2506610437E+00    1.2305745318E+00    1.2094775642E+00
    1.1874125578E+00    1.1644222144E+00    1.1405494193E+00    1.1158371582E+00
    1.0903284546E+00    1.0640663259E+00    1.0370937602E+00    1.0094537100E+00
    9.8118910397E-01    9.5234287496E-01    9.2295800128E-01    8.9307756105E-01
    8.6274479625E-01    8.3200318473E-01    8.0089651732E-01    7.6946897775E-01
    7.3776522243E-01    7.0583045769E-01    6.7371051156E-01    6.4145189781E-01
    6.0910186952E-01    5.7670846015E-01    5.4432050985E-01    5.1198767543E-01
    4.7976042222E-01    4.4768999684E-01    4.1582838001E-01    3.8422821886E-01
    3.5294273888E-01    3.2202563575E-01    2.9153094794E-01    2.6151291134E-01
    2.3202579756E-01    2.0312373809E-01    1.7486053672E-01    1.4728947321E-01
    1.2046310148E-01    9.4433045792E-02    6.9249798912E-02    4.4962526324E-02
    2.1618880846E-02   -7.3516860263E-04   -2.2055396176E-02   -4.2299428156E-02
   -6.1427795174E-02   -7.9405088467E-02   -9.6200764788E-02   -1.1178966441E-01
   -1.2615231441E-01   -1.3927507975E-01   -1.5115021076E-01   -1.6177582188E-01
   -1.7115582483E-01   -1.7929982990E-01   -1.8622302271E-01   -1.9194601935E-01
   -1.9649469993E-01   -1.9990001953E-01   -2.0219779466E-01   -2.0342846353E-01
   -2.0363681844E-01   -2.0287171055E-01   -2.0118572451E-01   -1.9863482651E-01
   -1.9527798417E-01   -1.9117676188E-01   -1.8639489311E-01   -1.8099783325E-01
   -1.7505229609E-01   -1.6862577823E-01   -1.6178607543E-01   -1.5460079580E-01
   -1.4713687434E-01   -1.3946009400E-01   -1.3163461814E-01   -1.2372253934E-01
   -1.1578344948E-01   -1.0787403576E-01   -1.0004770702E-01   -9.2354254652E-02
   -8.4839551694E-02   -7.7545293628E-02   -7.0508783619E-02   -6.3762764651E-02
   -5.7335300370E-02   -5.1249705895E-02   -4.5524529301E-02   -4.0173583826E-02
   -3.5206030332E-02   -3.0626508882E-02   -2.6435317750E-02   -2.2628637638E-02
   -1.9198798273E-02   -1.6134584124E-02   -1.3421575449E-02   -1.1042520535E-02
   -8.9777345236E-03   -7.2055199956E-03   -5.7026041785E-03   -4.4445874218E-03
   -3.4063975139E-03   -2.5627430036E-03   -1.8885736272E-03   -1.3594787699E-03
   -9.5257058432E-04   -6.4920305555E-04   -4.2978633023E-04   -2.7514721923E-04
   -1.6886831555E-04   -9.7350992849E-05   -5.0146773013E-05   -1.9950791189E-05
   -3.9095643029E-06    3.7488112278E-07   -8.4859132017E-08    8.6874549980E-09
    1.2911909217E-11    2.2436540825E-11    0.0000000000E+00    0.0000000000E+00
    0.0000000000E+00    0.0000000000E+00    0.0000000000E+00    0.0000000000E+00
    0.0000000000E+00    0.0000000000E+00    0.0000000000E+00    0.0000000000E+00
 0. 0. 0. 0.
 0. 0. 0. 0.
 0. 0. 0. 0.
 0. 0. 0. 0.
 0. 0. 0. 0.
 0. 0. 0. 0.
 0. 0. 0. 0.
 0. 0. 0. 0.
 0. 0. 0. 0.
 0. 0. 0. 0.
 0. 0. 0. 0.
 0. 0. 0. 0.
 0. 0. 0. 0.
 0. 0. 0. 0.
 0. 0. 0. 0.
 0. 0. 0. 0.
 0. 0. 0. 0.
 0. 0. 0. 0.
 0. 0. 0. 0.
 0. 0. 0. 0.
 0. 0. 0. 0.
 0. 0. 0. 0.
 0. 0. 0. 0.
 0. 0. 0. 0.
 0. 0. 0. 0.
 0. 0. 0. 0.
 0. 0. 0. 0.
 0. 0. 0. 0.
 0. 0. 0. 0.
 0. 0. 0. 0.
 0. 0. 0. 0.
 0. 0. 0. 0.
 0. 0. 0. 0.
 0. 0. 0. 0.
 0. 0. 0. 0.
 0. 0. 0. 0.
 0. 0. 0. 0.
 0. 0. 0. 0.
 0. 0. 0. 0.
 0. 0. 0. 0.
 0. 0. 0. 0.
 0. 0. 0. 0.
 0. 0. 0. 0.
 0. 0. 0. 0.
 0. 0. 0. 0.
 0. 0. 0. 0.
 0. 0. 0. 0.
 0. 0. 0. 0.
 0. 0. 0. 0.
 0. 0. 0. 0.
 0. 0. 0. 0.
 0. 0. 0. 0.
 0. 0. 0. 0.
 0. 0. 0. 0.
 0. 0. 0. 0.
 0. 0. 0. 0.
 0. 0. 0. 0.
 0. 0. 0. 0.
 0. 0. 0. 0.
 0. 0. 0. 0.
 0. 0. 0. 0.
 0. 0. 0. 0.
 0. 0. 0. 0.
 0. 0. 0. 0.
 0. 0. 0. 0.
 0. 0. 0. 0.
 0. 0. 0. 0.
 0. 0. 0. 0.
 0. 0. 0. 0.
 0. 0. 0. 0.
 0. 0. 0. 0.
 0. 0. 0. 0.
 0. 0. 0. 0.
 0. 0. 0. 0.
 0. 0. 0. 0.
 0. 0. 0. 0.
 0. 0. 0. 0.
 0. 0. 0. 0.
 0. 0. 0. 0.
 0. 0. 0. 0.
 0. 0. 0. 0.
 0. 0. 0. 0.
 0. 0. 0. 0.
 0. 0. 0. 0.
 0. 0. 0. 0.
 0. 0. 0. 0.
 0. 0. 0. 0.
 0. 0. 0. 0.
 0. 0. 0. 0.
 0. 0. 0. 0.
 0. 0. 0. 0.
 0. 0. 0. 0.
 0. 0. 0. 0.
 0. 0. 0. 0.
 0. 0. 0. 0.
 0. 0. 0. 0.
 0. 0. 0. 0.
 0. 0. 0. 0.
 0. 0. 0. 0.
 0. 0. 0. 0.
 0. 0. 0. 0.
 0. 0. 0. 0.
 0. 0. 0. 0.
 0. 0. 0. 0.
 0. 0. 0. 0.
 0. 0. 0. 0.
 0. 0. 0. 0.
 0. 0. 0. 0.
 0. 0. 0. 0.
 0. 0. 0. 0.
 0. 0. 0. 0.
 0. 0. 0. 0.
 0. 0. 0. 0.
 0. 0. 0. 0.
 0. 0. 0. 0.
 0. 0. 0. 0.
 0. 0. 0. 0.
 0. 0. 0. 0.
 0. 0. 0. 0.
 0. 0. 0. 0.
 0. 0. 0. 0.
 0. 0. 0. 0.
 0. 0. 0. 0.
 0. 0. 0. 0.
 0. 0. 0. 0.
 0. 0. 0. 0.
 0. 0. 0. 0.
 0. 0. 0. 0.
 0. 0. 0. 0.
 0. 0. 0. 0.
 0. 0. 0. 0.
 0. 0. 0. 0.
 0. 0. 0. 0.
 0. 0. 0. 0.
 0. 0. 0. 0.
 0. 0. 0. 0.
 0. 0. 0. 0.
 0. 0. 0. 0.
 0. 0. 0. 0.
 0. 0. 0. 0.
 0. 0. 0. 0.
 0. 0. 0. 0.
 0. 0. 0. 0.
 0. 0. 0. 0.
 0. 0. 0. 0.
 0. 0. 0. 0.
 0. 0. 0. 0.
 0. 0. 0. 0.
 0. 0. 0. 0.
 0. 0. 0. 0.
 0. 0. 0. 0.
 0. 0. 0. 0.
 0. 0. 0. 0.
 0. 0. 0. 0.
 0. 0. 0. 0.
 0. 0. 0. 0.
 0. 0. 0. 0.
 0. 0. 0. 0.
 0. 0. 0. 0.
 0. 0. 0. 0.
 0. 0. 0. 0.
 0. 0. 0. 0.
 0. 0. 0. 0.
 0. 0. 0. 0.
 0. 0. 0. 0.
 0. 0. 0. 0.
 0. 0. 0. 0.
 0. 0. 0. 0.
 0. 0. 0. 0.
 0. 0. 0. 0.
 0. 0. 0. 0.
 0. 0. 0. 0.
 0. 0. 0. 0.
 0. 0. 0. 0.
 0. 0. 0. 0.
 0. 0. 0. 0.
 0. 0. 0. 0.
 0. 0. 0. 0.
 0. 0. 0. 0.
 0. 0. 0. 0.
 0. 0. 0. 0.
 0. 0. 0. 0.
 0. 0. 0. 0.
 0. 0. 0. 0.
 0. 0. 0. 0.
 0. 0. 0. 0.
 0. 0. 0. 0.
 0. 0. 0. 0.
 0. 0. 0. 0.
 0. 0. 0. 0.
 0. 0. 0. 0.
 0. 0. 0. 0.
 0. 0. 0. 0.
 0. 0. 0. 0.
 0. 0. 0. 0.
 0. 0. 0. 0.
 0. 0. 0. 0.
 0. 0. 0. 0.
 0. 0. 0. 0.
 0. 0. 0. 0.
 0. 0. 0. 0.
 0. 0. 0. 0.
 0. 0. 0. 0.
 0. 0. 0. 0.
 0. 0. 0. 0.
 0. 0. 0. 0.
 0. 0. 0. 0.
 0. 0. 0. 0.
 0. 0. 0. 0.
 0. 0. 0. 0.
 0. 0. 0. 0.
 0. 0. 0. 0.
 0. 0. 0. 0.
 0. 0. 0. 0.
 0. 0. 0. 0.
 0. 0. 0. 0.
 0. 0. 0. 0.
 0. 0. 0. 0.
 0. 0. 0. 0.
 0. 0. 0. 0.
 0. 0. 0. 0.
 0. 0. 0. 0.
 0. 0. 0. 0.
 0. 0. 0. 0.
 0. 0. 0. 0.
 0. 0. 0. 0.
 0. 0. 0. 0.
 0. 0. 0. 0.
 0. 0. 0. 0.
 0. 0. 0. 0.
 0. 0. 0. 0.
 0. 0. 0. 0.
 0. 0. 0. 0.
 0. 0. 0. 0.
 0. 0. 0. 0.
 0. 0. 0. 0.
 0. 0. 0. 0.
 0. 0. 0. 0.
   </PP_BETA.1>
   <PP_BETA.2
       type="real"
       size="1148"
       columns="4"
       index="2"
       angular_momentum="0"
       cutoff_radius_index=" 196"
       cutoff_radius="    1.9500000000E+00" >
   -4.7664869274E-10   -2.1056678835E-02   -4.2105136008E-02   -6.3136545825E-02
   -8.4140883842E-02   -1.0510635064E-01   -1.2601882302E-01   -1.4686134127E-01
   -1.6761364048E-01   -1.8825173351E-01   -2.0874755251E-01   -2.2906865483E-01
   -2.4917799877E-01   -2.6903379325E-01   -2.8858942479E-01   -3.0779346399E-01
   -3.2658975270E-01   -3.4491757198E-01   -3.6271188980E-01   -3.7990368640E-01
   -3.9642035426E-01   -4.1218616826E-01   -4.2712282110E-01   -4.4115001778E-01
   -4.5418612223E-01   -4.6614884851E-01   -4.7695598806E-01   -4.8652616433E-01
   -4.9477960540E-01   -5.0163892481E-01   -5.0702990105E-01   -5.1088224551E-01
   -5.1313034932E-01   -5.1371399918E-01   -5.1257905315E-01   -5.0967806721E-01
   -5.0497086458E-01   -4.9842503988E-01   -4.9001639153E-01   -4.7972927626E-01
   -4.6755688075E-01   -4.5350140646E-01   -4.3757416478E-01   -4.1979558068E-01
   -4.0019510433E-01   -3.7881103140E-01   -3.5569023365E-01   -3.3088780295E-01
   -3.0446661274E-01   -2.7649680221E-01   -2.4705518925E-01   -2.1622461962E-01
   -1.8409326012E-01   -1.5075384465E-01   -1.1630288267E-01   -8.0839839884E-02
   -4.4466301642E-02   -7.2851295242E-03    3.0600378045E-02    6.9087310542E-02
    1.0807394491E-01    1.4746050978E-01    1.8714990456E-01    2.2704836435E-01
    2.6706606220E-01    3.0711764119E-01    3.4712266972E-01    3.8700601440E-01
    4.2669812617E-01    4.6613523640E-01    5.0525946091E-01    5.4401881127E-01
    5.8236711393E-01    6.2026383900E-01    6.5767384192E-01    6.9456702221E-01
    7.3091790497E-01    7.6670515166E-01    8.0191100772E-01    8.3652069566E-01
    8.7052176270E-01    9.0390339290E-01    9.3665569420E-01    9.6876897084E-01
    1.0002329923E+00    1.0310362690E+00    1.0611653464E+00    1.0906041264E+00
    1.1193332271E+00    1.1473293891E+00    1.1745649370E+00    1.2010073030E+00
    1.2266186192E+00    1.2513553832E+00    1.2751681995E+00    1.2980016016E+00
    1.3197939513E+00    1.3404774180E+00    1.3599780332E+00    1.3782158163E+00
    1.3951049666E+00    1.4105541141E+00    1.4244666195E+00    1.4367409140E+00
    1.4472708680E+00    1.4559461745E+00    1.4626527350E+00    1.4672730328E+00
    1.4696864811E+00    1.4697697048E+00    1.4674025686E+00    1.4624924317E+00
    1.4549813678E+00    1.4448401691E+00    1.4320629035E+00    1.4166625534E+00
    1.3986677691E+00    1.3781206190E+00    1.3550751568E+00    1.3295966068E+00
    1.3017609830E+00    1.2716549798E+00    1.2393760044E+00    1.2050322494E+00
    1.1687427305E+00    1.1306372371E+00    1.0908561579E+00    1.0495501618E+00
    1.0068797147E+00    9.6301444631E-01    9.1813233494E-01    8.7241875807E-01
    8.2606538423E-01    7.7926893807E-01    7.3222984723E-01    6.8515078957E-01
    6.3823515916E-01    5.9168547099E-01    5.4570172501E-01    5.0047975082E-01
    4.5620955434E-01    4.1307368809E-01    3.7124566614E-01    3.3088844441E-01
    2.9215298600E-01    2.5517693038E-01    2.2008338383E-01    1.8697984709E-01
    1.5595729456E-01    1.2708941752E-01    1.0043204175E-01    7.6022728147E-02
    5.3880562346E-02    3.4006137469E-02    1.6381731596E-02    9.7167925955E-04
   -1.2277065859E-02   -2.3434182359E-02   -3.2585054114E-02   -3.9829674239E-02
   -4.5281391769E-02   -4.9065514362E-02   -5.1317782230E-02   -5.2182729952E-02
   -5.1811954329E-02   -5.0362307397E-02   -4.7994034699E-02   -4.4868879803E-02
   -4.1148176135E-02   -3.6990951639E-02   -3.2552026485E-02   -2.7980315665E-02
   -2.3415698066E-02   -1.8980252478E-02   -1.4793552397E-02   -1.0968323371E-02
   -7.6030632012E-03   -4.7815326635E-03   -2.5725021773E-03   -1.0188064840E-03
   -1.8755035313E-04    1.9380087195E-05   -4.3178967125E-06    4.5675887816E-07
   -4.7155801503E-11   -8.1940869302E-11    0.0000000000E+00    0.0000000000E+00
    0.0000000000E+00    0.0000000000E+00    0.0000000000E+00    0.0000000000E+00
    0.0000000000E+00    0.0000000000E+00    0.0000000000E+00    0.0000000000E+00
 0. 0. 0. 0.
 0. 0. 0. 0.
 0. 0. 0. 0.
 0. 0. 0. 0.
 0. 0. 0. 0.
 0. 0. 0. 0.
 0. 0. 0. 0.
 0. 0. 0. 0.
 0. 0. 0. 0.
 0. 0. 0. 0.
 0. 0. 0. 0.
 0. 0. 0. 0.
 0. 0. 0. 0.
 0. 0. 0. 0.
 0. 0. 0. 0.
 0. 0. 0. 0.
 0. 0. 0. 0.
 0. 0. 0. 0.
 0. 0. 0. 0.
 0. 0. 0. 0.
 0. 0. 0. 0.
 0. 0. 0. 0.
 0. 0. 0. 0.
 0. 0. 0. 0.
 0. 0. 0. 0.
 0. 0. 0. 0.
 0. 0. 0. 0.
 0. 0. 0. 0.
 0. 0. 0. 0.
 0. 0. 0. 0.
 0. 0. 0. 0.
 0. 0. 0. 0.
 0. 0. 0. 0.
 0. 0. 0. 0.
 0. 0. 0. 0.
 0. 0. 0. 0.
 0. 0. 0. 0.
 0. 0. 0. 0.
 0. 0. 0. 0.
 0. 0. 0. 0.
 0. 0. 0. 0.
 0. 0. 0. 0.
 0. 0. 0. 0.
 0. 0. 0. 0.
 0. 0. 0. 0.
 0. 0. 0. 0.
 0. 0. 0. 0.
 0. 0. 0. 0.
 0. 0. 0. 0.
 0. 0. 0. 0.
 0. 0. 0. 0.
 0. 0. 0. 0.
 0. 0. 0. 0.
 0. 0. 0. 0.
 0. 0. 0. 0.
 0. 0. 0. 0.
 0. 0. 0. 0.
 0. 0. 0. 0.
 0. 0. 0. 0.
 0. 0. 0. 0.
 0. 0. 0. 0.
 0. 0. 0. 0.
 0. 0. 0. 0.
 0. 0. 0. 0.
 0. 0. 0. 0.
 0. 0. 0. 0.
 0. 0. 0. 0.
 0. 0. 0. 0.
 0. 0. 0. 0.
 0. 0. 0. 0.
 0. 0. 0. 0.
 0. 0. 0. 0.
 0. 0. 0. 0.
 0. 0. 0. 0.
 0. 0. 0. 0.
 0. 0. 0. 0.
 0. 0. 0. 0.
 0. 0. 0. 0.
 0. 0. 0. 0.
 0. 0. 0. 0.
 0. 0. 0. 0.
 0. 0. 0. 0.
 0. 0. 0. 0.
 0. 0. 0. 0.
 0. 0. 0. 0.
 0. 0. 0. 0.
 0. 0. 0. 0.
 0. 0. 0. 0.
 0. 0. 0. 0.
 0. 0. 0. 0.
 0. 0. 0. 0.
 0. 0. 0. 0.
 0. 0. 0. 0.
 0. 0. 0. 0.
 0. 0. 0. 0.
 0. 0. 0. 0.
 0. 0. 0. 0.
 0. 0. 0. 0.
 0. 0. 0. 0.
 0. 0. 0. 0.
 0. 0. 0. 0.
 0. 0. 0. 0.
 0. 0. 0. 0.
 0. 0. 0. 0.
 0. 0. 0. 0.
 0. 0. 0. 0.
 0. 0. 0. 0.
 0. 0. 0. 0.
 0. 0. 0. 0.
 0. 0. 0. 0.
 0. 0. 0. 0.
 0. 0. 0. 0.
 0. 0. 0. 0.
 0. 0. 0. 0.
 0. 0. 0. 0.
 0. 0. 0. 0.
 0. 0. 0. 0.
 0. 0. 0. 0.
 0. 0. 0. 0.
 0. 0. 0. 0.
 0. 0. 0. 0.
 0. 0. 0. 0.
 0. 0. 0. 0.
 0. 0. 0. 0.
 0. 0. 0. 0.
 0. 0. 0. 0.
 0. 0. 0. 0.
 0. 0. 0. 0.
 0. 0. 0. 0.
 0. 0. 0. 0.
 0. 0. 0. 0.
 0. 0. 0. 0.
 0. 0. 0. 0.
 0. 0. 0. 0.
 0. 0. 0. 0.
 0. 0. 0. 0.
 0. 0. 0. 0.
 0. 0. 0. 0.
 0. 0. 0. 0.
 0. 0. 0. 0.
 0. 0. 0. 0.
 0. 0. 0. 0.
 0. 0. 0. 0.
 0. 0. 0. 0.
 0. 0. 0. 0.
 0. 0. 0. 0.
 0. 0. 0. 0.
 0. 0. 0. 0.
 0. 0. 0. 0.
 0. 0. 0. 0.
 0. 0. 0. 0.
 0. 0. 0. 0.
 0. 0. 0. 0.
 0. 0. 0. 0.
 0. 0. 0. 0.
 0. 0. 0. 0.
 0. 0. 0. 0.
 0. 0. 0. 0.
 0. 0. 0. 0.
 0. 0. 0. 0.
 0. 0. 0. 0.
 0. 0. 0. 0.
 0. 0. 0. 0.
 0. 0. 0. 0.
 0. 0. 0. 0.
 0. 0. 0. 0.
 0. 0. 0. 0.
 0. 0. 0. 0.
 0. 0. 0. 0.
 0. 0. 0. 0.
 0. 0. 0. 0.
 0. 0. 0. 0.
 0. 0. 0. 0.
 0. 0. 0. 0.
 0. 0. 0. 0.
 0. 0. 0. 0.
 0. 0. 0. 0.
 0. 0. 0. 0.
 0. 0. 0. 0.
 0. 0. 0. 0.
 0. 0. 0. 0.
 0. 0. 0. 0.
 0. 0. 0. 0.
 0. 0. 0. 0.
 0. 0. 0. 0.
 0. 0. 0. 0.
 0. 0. 0. 0.
 0. 0. 0. 0.
 0. 0. 0. 0.
 0. 0. 0. 0.
 0. 0. 0. 0.
 0. 0. 0. 0.
 0. 0. 0. 0.
 0. 0. 0. 0.
 0. 0. 0. 0.
 0. 0. 0. 0.
 0. 0. 0. 0.
 0. 0. 0. 0.
 0. 0. 0. 0.
 0. 0. 0. 0.
 0. 0. 0. 0.
 0. 0. 0. 0.
 0. 0. 0. 0.
 0. 0. 0. 0.
 0. 0. 0. 0.
 0. 0. 0. 0.
 0. 0. 0. 0.
 0. 0. 0. 0.
 0. 0. 0. 0.
 0. 0. 0. 0.
 0. 0. 0. 0.
 0. 0. 0. 0.
 0. 0. 0. 0.
 0. 0. 0. 0.
 0. 0. 0. 0.
 0. 0. 0. 0.
 0. 0. 0. 0.
 0. 0. 0. 0.
 0. 0. 0. 0.
 0. 0. 0. 0.
 0. 0. 0. 0.
 0. 0. 0. 0.
 0. 0. 0. 0.
 0. 0. 0. 0.
 0. 0. 0. 0.
 0. 0. 0. 0.
 0. 0. 0. 0.
 0. 0. 0. 0.
 0. 0. 0. 0.
 0. 0. 0. 0.
 0. 0. 0. 0.
 0. 0. 0. 0.
 0. 0. 0. 0.
 0. 0. 0. 0.
 0. 0. 0. 0.
 0. 0. 0. 0.
 0. 0. 0. 0.
 0. 0. 0. 0.
   </PP_BETA.2>
   <PP_BETA.3
       type="real"
       size="1148"
       columns="4"
       index="3"
       angular_momentum="1"
       cutoff_radius_index=" 196"
       cutoff_radius="    1.9500000000E+00" >
    3.9215769521E-11    1.0337675524E-03    4.1321724869E-03    9.2865296584E-03
    1.6482390545E-02    2.5699583259E-02    3.6912268425E-02    5.0089010781E-02
    6.5192866331E-02    8.2181484834E-02    1.0100722736E-01    1.2161729864E-01
    1.4395389385E-01    1.6795435955E-01    1.9355136818E-01    2.2067310590E-01
    2.4924347319E-01    2.7918229768E-01    3.1040555869E-01    3.4282562296E-01
    3.7635149089E-01    4.1088905270E-01    4.4634135384E-01    4.8260886892E-01
    5.1958978355E-01    5.5718028316E-01    5.9527484825E-01    6.3376655511E-01
    6.7254738127E-01    7.1150851488E-01    7.5054066705E-01    7.8953438642E-01
    8.2838037499E-01    8.6696980437E-01    9.0519463142E-01    9.4294791257E-01
    9.8012411566E-01    1.0166194286E+00    1.0523320635E+00    1.0871625562E+00
    1.1210140590E+00    1.1537926266E+00    1.1854074944E+00    1.2157713472E+00
    1.2448005787E+00    1.2724155397E+00    1.2985407753E+00    1.3231052493E+00
    1.3460425549E+00    1.3672911120E+00    1.3867943490E+00    1.4045008693E+00
    1.4203646011E+00    1.4343449305E+00    1.4464068164E+00    1.4565208875E+00
    1.4646635203E+00    1.4708168981E+00    1.4749690498E+00    1.4771138692E+00
    1.4772511134E+00    1.4753863809E+00    1.4715310692E+00    1.4657023115E+00
    1.4579228922E+00    1.4482211426E+00    1.4366308156E+00    1.4231909401E+00
    1.4079456564E+00    1.3909440313E+00    1.3722398551E+00    1.3518914205E+00
    1.3299612836E+00    1.3065160093E+00    1.2816259002E+00    1.2553647122E+00
    1.2278093554E+00    1.1990395843E+00    1.1691376764E+00    1.1381881017E+00
    1.1062771846E+00    1.0734927592E+00    1.0399238206E+00    1.0056601730E+00
    9.7079207689E-01    9.3540989703E-01    8.9960375359E-01    8.6346317761E-01
    8.2707677343E-01    7.9053188983E-01    7.5391430201E-01    7.1730790643E-01
    6.8079443055E-01    6.4445315966E-01    6.0836068256E-01    5.7259065841E-01
    5.3721360641E-01    5.0229672049E-01    4.6790371066E-01    4.3409467292E-01
    4.0092598945E-01    3.6845026057E-01    3.3671627018E-01    3.0576898595E-01
    2.7564959566E-01    2.4639558077E-01    2.1804082846E-01    1.9061578273E-01
    1.6414763605E-01    1.3866055840E-01    1.1417663108E-01    9.0718263169E-02
    6.8307469824E-02    4.6963829184E-02    2.6703101998E-02    7.5364354346E-03
   -1.0529982372E-02   -2.7494945302E-02   -4.3362037802E-02   -5.8139313330E-02
   -7.1838904292E-02   -8.4476605902E-02   -9.6071461450E-02   -1.0664536548E-01
   -1.1622269375E-01   -1.2482996372E-01   -1.3249552624E-01   -1.3924928725E-01
   -1.4512245685E-01   -1.5014732405E-01   -1.5435705273E-01   -1.5778549820E-01
   -1.6046704024E-01   -1.6243643133E-01   -1.6372865800E-01   -1.6437881371E-01
   -1.6442198199E-01   -1.6389312878E-01   -1.6282700326E-01   -1.6125804645E-01
   -1.5922030726E-01   -1.5674736565E-01   -1.5387226279E-01   -1.5062743807E-01
   -1.4704467309E-01   -1.4315504250E-01   -1.3898887191E-01   -1.3457570277E-01
   -1.2994426446E-01   -1.2512245344E-01   -1.2013731953E-01   -1.1501505935E-01
   -1.0978101658E-01   -1.0445968923E-01   -9.9074743359E-02   -9.3649033223E-02
   -8.8204627454E-02   -8.2762840861E-02   -7.7344271454E-02   -7.1968842251E-02
   -6.6655847283E-02   -6.1424001294E-02   -5.6291492525E-02   -5.1276037961E-02
   -4.6394940408E-02   -4.1665146736E-02   -3.7103306636E-02   -3.2725831190E-02
   -2.8548950614E-02   -2.4588768523E-02   -2.0861332916E-02   -1.7382627394E-02
   -1.4169318899E-02   -1.1242474033E-02   -8.6190299922E-03   -6.3132322486E-03
   -4.3397535627E-03   -2.7134290124E-03   -1.4499131745E-03   -5.6067821454E-04
   -7.7475578139E-05    3.3807474902E-05   -4.8580922912E-06    5.6671176543E-07
   -8.7025753318E-09   -1.5122139061E-08    0.0000000000E+00    0.0000000000E+00
    0.0000000000E+00    0.0000000000E+00    0.0000000000E+00    0.0000000000E+00
    0.0000000000E+00    0.0000000000E+00    0.0000000000E+00    0.0000000000E+00
 0. 0. 0. 0.
 0. 0. 0. 0.
 0. 0. 0. 0.
 0. 0. 0. 0.
 0. 0. 0. 0.
 0. 0. 0. 0.
 0. 0. 0. 0.
 0. 0. 0. 0.
 0. 0. 0. 0.
 0. 0. 0. 0.
 0. 0. 0. 0.
 0. 0. 0. 0.
 0. 0. 0. 0.
 0. 0. 0. 0.
 0. 0. 0. 0.
 0. 0. 0. 0.
 0. 0. 0. 0.
 0. 0. 0. 0.
 0. 0. 0. 0.
 0. 0. 0. 0.
 0. 0. 0. 0.
 0. 0. 0. 0.
 0. 0. 0. 0.
 0. 0. 0. 0.
 0. 0. 0. 0.
 0. 0. 0. 0.
 0. 0. 0. 0.
 0. 0. 0. 0.
 0. 0. 0. 0.
 0. 0. 0. 0.
 0. 0. 0. 0.
 0. 0. 0. 0.
 0. 0. 0. 0.
 0. 0. 0. 0.
 0. 0. 0. 0.
 0. 0. 0. 0.
 0. 0. 0. 0.
 0. 0. 0. 0.
 0. 0. 0. 0.
 0. 0. 0. 0.
 0. 0. 0. 0.
 0. 0. 0. 0.
 0. 0. 0. 0.
 0. 0. 0. 0.
 0. 0. 0. 0.
 0. 0. 0. 0.
 0. 0. 0. 0.
 0. 0. 0. 0.
 0. 0. 0. 0.
 0. 0. 0. 0.
 0. 0. 0. 0.
 0. 0. 0. 0.
 0. 0. 0. 0.
 0. 0. 0. 0.
 0. 0. 0. 0.
 0. 0. 0. 0.
 0. 0. 0. 0.
 0. 0. 0. 0.
 0. 0. 0. 0.
 0. 0. 0. 0.
 0. 0. 0. 0.
 0. 0. 0. 0.
 0. 0. 0. 0.
 0. 0. 0. 0.
 0. 0. 0. 0.
 0. 0. 0. 0.
 0. 0. 0. 0.
 0. 0. 0. 0.
 0. 0. 0. 0.
 0. 0. 0. 0.
 0. 0. 0. 0.
 0. 0. 0. 0.
 0. 0. 0. 0.
 0. 0. 0. 0.
 0. 0. 0. 0.
 0. 0. 0. 0.
 0. 0. 0. 0.
 0. 0. 0. 0.
 0. 0. 0. 0.
 0. 0. 0. 0.
 0. 0. 0. 0.
 0. 0. 0. 0.
 0. 0. 0. 0.
 0. 0. 0. 0.
 0. 0. 0. 0.
 0. 0. 0. 0.
 0. 0. 0. 0.
 0. 0. 0. 0.
 0. 0. 0. 0.
 0. 0. 0. 0.
 0. 0. 0. 0.
 0. 0. 0. 0.
 0. 0. 0. 0.
 0. 0. 0. 0.
 0. 0. 0. 0.
 0. 0. 0. 0.
 0. 0. 0. 0.
 0. 0. 0. 0.
 0. 0. 0. 0.
 0. 0. 0. 0.
 0. 0. 0. 0.
 0. 0. 0. 0.
 0. 0. 0. 0.
 0. 0. 0. 0.
 0. 0. 0. 0.
 0. 0. 0. 0.
 0. 0. 0. 0.
 0. 0. 0. 0.
 0. 0. 0. 0.
 0. 0. 0. 0.
 0. 0. 0. 0.
 0. 0. 0. 0.
 0. 0. 0. 0.
 0. 0. 0. 0.
 0. 0. 0. 0.
 0. 0. 0. 0.
 0. 0. 0. 0.
 0. 0. 0. 0.
 0. 0. 0. 0.
 0. 0. 0. 0.
 0. 0. 0. 0.
 0. 0. 0. 0.
 0. 0. 0. 0.
 0. 0. 0. 0.
 0. 0. 0. 0.
 0. 0. 0. 0.
 0. 0. 0. 0.
 0. 0. 0. 0.
 0. 0. 0. 0.
 0. 0. 0. 0.
 0. 0. 0. 0.
 0. 0. 0. 0.
 0. 0. 0. 0.
 0. 0. 0. 0.
 0. 0. 0. 0.
 0. 0. 0. 0.
 0. 0. 0. 0.
 0. 0. 0. 0.
 0. 0. 0. 0.
 0. 0. 0. 0.
 0. 0. 0. 0.
 0. 0. 0. 0.
 0. 0. 0. 0.
 0. 0. 0. 0.
 0. 0. 0. 0.
 0. 0. 0. 0.
 0. 0. 0. 0.
 0. 0. 0. 0.
 0. 0. 0. 0.
 0. 0. 0. 0.
 0. 0. 0. 0.
 0. 0. 0. 0.
 0. 0. 0. 0.
 0. 0. 0. 0.
 0. 0. 0. 0.
 0. 0. 0. 0.
 0. 0. 0. 0.
 0. 0. 0. 0.
 0. 0. 0. 0.
 0. 0. 0. 0.
 0. 0. 0. 0.
 0. 0. 0. 0.
 0. 0. 0. 0.
 0. 0. 0. 0.
 0. 0. 0. 0.
 0. 0. 0. 0.
 0. 0. 0. 0.
 0. 0. 0. 0.
 0. 0. 0. 0.
 0. 0. 0. 0.
 0. 0. 0. 0.
 0. 0. 0. 0.
 0. 0. 0. 0.
 0. 0. 0. 0.
 0. 0. 0. 0.
 0. 0. 0. 0.
 0. 0. 0. 0.
 0. 0. 0. 0.
 0. 0. 0. 0.
 0. 0. 0. 0.
 0. 0. 0. 0.
 0. 0. 0. 0.
 0. 0. 0. 0.
 0. 0. 0. 0.
 0. 0. 0. 0.
 0. 0. 0. 0.
 0. 0. 0. 0.
 0. 0. 0. 0.
 0. 0. 0. 0.
 0. 0. 0. 0.
 0. 0. 0. 0.
 0. 0. 0. 0.
 0. 0. 0. 0.
 0. 0. 0. 0.
 0. 0. 0. 0.
 0. 0. 0. 0.
 0. 0. 0. 0.
 0. 0. 0. 0.
 0. 0. 0. 0.
 0. 0. 0. 0.
 0. 0. 0. 0.
 0. 0. 0. 0.
 0. 0. 0. 0.
 0. 0. 0. 0.
 0. 0. 0. 0.
 0. 0. 0. 0.
 0. 0. 0. 0.
 0. 0. 0. 0.
 0. 0. 0. 0.
 0. 0. 0. 0.
 0. 0. 0. 0.
 0. 0. 0. 0.
 0. 0. 0. 0.
 0. 0. 0. 0.
 0. 0. 0. 0.
 0. 0. 0. 0.
 0. 0. 0. 0.
 0. 0. 0. 0.
 0. 0. 0. 0.
 0. 0. 0. 0.
 0. 0. 0. 0.
 0. 0. 0. 0.
 0. 0. 0. 0.
 0. 0. 0. 0.
 0. 0. 0. 0.
 0. 0. 0. 0.
 0. 0. 0. 0.
 0. 0. 0. 0.
 0. 0. 0. 0.
 0. 0. 0. 0.
 0. 0. 0. 0.
 0. 0. 0. 0.
 0. 0. 0. 0.
 0. 0. 0. 0.
 0. 0. 0. 0.
 0. 0. 0. 0.
 0. 0. 0. 0.
 0. 0. 0. 0.
   </PP_BETA.3>
   <PP_BETA.4
       type="real"
       size="1148"
       columns="4"
       index="4"
       angular_momentum="1"
       cutoff_radius_index=" 196"
       cutoff_radius="    1.9500000000E+00" >
    5.3866813787E-11    1.0270693147E-03    4.1053885166E-03    9.2262997933E-03
    1.6375401474E-02    2.5532589958E-02    3.6672118214E-02    4.9762670657E-02
    6.4767454160E-02    8.1644304881E-02    1.0034581057E-01    1.2081944797E-01
    1.4300773476E-01    1.6684839578E-01    1.9227454271E-01    2.1921486686E-01
    2.4759384438E-01    2.7733195322E-01    3.0834590130E-01    3.4054886499E-01
    3.7385073741E-01    4.0815838569E-01    4.4337591638E-01    4.7940494845E-01
    5.1614489290E-01    5.5349323829E-01    5.9134584138E-01    6.2959722210E-01
    6.6814086203E-01    7.0686950558E-01    7.4567546312E-01    7.8445091520E-01
    8.2308821716E-01    8.6148020314E-01    8.9952048901E-01    9.3710377313E-01
    9.7412613436E-01    1.0104853265E+00    1.0460810681E+00    1.0808153279E+00
    1.1145926031E+00    1.1473201926E+00    1.1789084612E+00    1.2092710968E+00
    1.2383253583E+00    1.2659923138E+00    1.2921970686E+00    1.3168689819E+00
    1.3399418717E+00    1.3613542072E+00    1.3810492881E+00    1.3989754098E+00
    1.4150860135E+00    1.4293398220E+00    1.4417009590E+00    1.4521390514E+00
    1.4606293154E+00    1.4671526245E+00    1.4716955587E+00    1.4742504365E+00
    1.4748153258E+00    1.4733940373E+00    1.4699960969E+00    1.4646366983E+00
    1.4573366356E+00    1.4481222154E+00    1.4370251491E+00    1.4240824238E+00
    1.4093361546E+00    1.3928334158E+00    1.3746260537E+00    1.3547704795E+00
    1.3333274446E+00    1.3103617977E+00    1.2859422252E+00    1.2601409758E+00
    1.2330335700E+00    1.2046984959E+00    1.1752168927E+00    1.1446722233E+00
    1.1131499364E+00    1.0807371223E+00    1.0475221607E+00    1.0135943657E+00
    9.7904362699E-01    9.4396005137E-01    9.0843360531E-01    8.7255376135E-01
    8.3640915019E-01    8.0008722085E-01    7.6367391094E-01    7.2725332950E-01
    6.9090745455E-01    6.5471584754E-01    6.1875538711E-01    5.8310002413E-01
    5.4782056031E-01    5.1298445242E-01    4.7865564413E-01    4.4489442731E-01
    4.1175733481E-01    3.7929706613E-01    3.4756244793E-01    3.1659843052E-01
    2.8644612182E-01    2.5714285995E-01    2.2872232547E-01    2.0121469393E-01
    1.7464683011E-01    1.4904252056E-01    1.2442343332E-01    1.0081163291E-01
    7.8228902003E-02    5.6694691991E-02    3.6224734906E-02    1.6830241263E-02
   -1.4824488120E-03   -1.8711889205E-02   -3.4861334510E-02   -4.9938414681E-02
   -6.3954739835E-02   -7.6925478337E-02   -8.8868936230E-02   -9.9806155060E-02
   -1.0976053740E-01   -1.1875750422E-01   -1.2682418511E-01   -1.3398914014E-01
   -1.4028211135E-01   -1.4573380173E-01   -1.5037567773E-01   -1.5423979438E-01
   -1.5735863898E-01   -1.5976499211E-01   -1.6149180347E-01   -1.6257208106E-01
   -1.6303879217E-01   -1.6292477487E-01   -1.6226265904E-01   -1.6108479604E-01
   -1.5942319637E-01   -1.5730947459E-01   -1.5477480131E-01   -1.5184986163E-01
   -1.4856481978E-01   -1.4494928982E-01   -1.4103231202E-01   -1.3684233469E-01
   -1.3240720141E-01   -1.2775414331E-01   -1.2290977616E-01   -1.1790010211E-01
   -1.1275051579E-01   -1.0748581447E-01   -1.0213021195E-01   -9.6707355980E-02
   -9.1240348681E-02   -8.5751769805E-02   -8.0263702324E-02   -7.4797760043E-02
   -6.9375116824E-02   -6.4016537033E-02   -5.8742406835E-02   -5.3572765939E-02
   -4.8527339410E-02   -4.3625569188E-02   -3.8886644955E-02   -3.4329533979E-02
   -2.9973009635E-02   -2.5835676352E-02   -2.1936010883E-02   -1.8292327000E-02
   -1.4923472303E-02   -1.1852414494E-02   -9.0979571227E-03   -6.6760904320E-03
   -4.6029878979E-03   -2.8947359944E-03   -1.5681008687E-03   -6.3386371630E-04
   -1.3151274868E-04    7.8553777100E-07   -1.4935659914E-06    1.2885582096E-07
    4.3171957306E-09    7.5018292520E-09    0.0000000000E+00    0.0000000000E+00
    0.0000000000E+00    0.0000000000E+00    0.0000000000E+00    0.0000000000E+00
    0.0000000000E+00    0.0000000000E+00    0.0000000000E+00    0.0000000000E+00
 0. 0. 0. 0.
 0. 0. 0. 0.
 0. 0. 0. 0.
 0. 0. 0. 0.
 0. 0. 0. 0.
 0. 0. 0. 0.
 0. 0. 0. 0.
 0. 0. 0. 0.
 0. 0. 0. 0.
 0. 0. 0. 0.
 0. 0. 0. 0.
 0. 0. 0. 0.
 0. 0. 0. 0.
 0. 0. 0. 0.
 0. 0. 0. 0.
 0. 0. 0. 0.
 0. 0. 0. 0.
 0. 0. 0. 0.
 0. 0. 0. 0.
 0. 0. 0. 0.
 0. 0. 0. 0.
 0. 0. 0. 0.
 0. 0. 0. 0.
 0. 0. 0. 0.
 0. 0. 0. 0.
 0. 0. 0. 0.
 0. 0. 0. 0.
 0. 0. 0. 0.
 0. 0. 0. 0.
 0. 0. 0. 0.
 0. 0. 0. 0.
 0. 0. 0. 0.
 0. 0. 0. 0.
 0. 0. 0. 0.
 0. 0. 0. 0.
 0. 0. 0. 0.
 0. 0. 0. 0.
 0. 0. 0. 0.
 0. 0. 0. 0.
 0. 0. 0. 0.
 0. 0. 0. 0.
 0. 0. 0. 0.
 0. 0. 0. 0.
 0. 0. 0. 0.
 0. 0. 0. 0.
 0. 0. 0. 0.
 0. 0. 0. 0.
 0. 0. 0. 0.
 0. 0. 0. 0.
 0. 0. 0. 0.
 0. 0. 0. 0.
 0. 0. 0. 0.
 0. 0. 0. 0.
 0. 0. 0. 0.
 0. 0. 0. 0.
 0. 0. 0. 0.
 0. 0. 0. 0.
 0. 0. 0. 0.
 0. 0. 0. 0.
 0. 0. 0. 0.
 0. 0. 0. 0.
 0. 0. 0. 0.
 0. 0. 0. 0.
 0. 0. 0. 0.
 0. 0. 0. 0.
 0. 0. 0. 0.
 0. 0. 0. 0.
 0. 0. 0. 0.
 0. 0. 0. 0.
 0. 0. 0. 0.
 0. 0. 0. 0.
 0. 0. 0. 0.
 0. 0. 0. 0.
 0. 0. 0. 0.
 0. 0. 0. 0.
 0. 0. 0. 0.
 0. 0. 0. 0.
 0. 0. 0. 0.
 0. 0. 0. 0.
 0. 0. 0. 0.
 0. 0. 0. 0.
 0. 0. 0. 0.
 0. 0. 0. 0.
 0. 0. 0. 0.
 0. 0. 0. 0.
 0. 0. 0. 0.
 0. 0. 0. 0.
 0. 0. 0. 0.
 0. 0. 0. 0.
 0. 0. 0. 0.
 0. 0. 0. 0.
 0. 0. 0. 0.
 0. 0. 0. 0.
 0. 0. 0. 0.
 0. 0. 0. 0.
 0. 0. 0. 0.
 0. 0. 0. 0.
 0. 0. 0. 0.
 0. 0. 0. 0.
 0. 0. 0. 0.
 0. 0. 0. 0.
 0. 0. 0. 0.
 0. 0. 0. 0.
 0. 0. 0. 0.
 0. 0. 0. 0.
 0. 0. 0. 0.
 0. 0. 0. 0.
 0. 0. 0. 0.
 0. 0. 0. 0.
 0. 0. 0. 0.
 0. 0. 0. 0.
 0. 0. 0. 0.
 0. 0. 0. 0.
 0. 0. 0. 0.
 0. 0. 0. 0.
 0. 0. 0. 0.
 0. 0. 0. 0.
 0. 0. 0. 0.
 0. 0. 0. 0.
 0. 0. 0. 0.
 0. 0. 0. 0.
 0. 0. 0. 0.
 0. 0. 0. 0.
 0. 0. 0. 0.
 0. 0. 0. 0.
 0. 0. 0. 0.
 0. 0. 0. 0.
 0. 0. 0. 0.
 0. 0. 0. 0.
 0. 0. 0. 0.
 0. 0. 0. 0.
 0. 0. 0. 0.
 0. 0. 0. 0.
 0. 0. 0. 0.
 0. 0. 0. 0.
 0. 0. 0. 0.
 0. 0. 0. 0.
 0. 0. 0. 0.
 0. 0. 0. 0.
 0. 0. 0. 0.
 0. 0. 0. 0.
 0. 0. 0. 0.
 0. 0. 0. 0.
 0. 0. 0. 0.
 0. 0. 0. 0.
 0. 0. 0. 0.
 0. 0. 0. 0.
 0. 0. 0. 0.
 0. 0. 0. 0.
 0. 0. 0. 0.
 0. 0. 0. 0.
 0. 0. 0. 0.
 0. 0. 0. 0.
 0. 0. 0. 0.
 0. 0. 0. 0.
 0. 0. 0. 0.
 0. 0. 0. 0.
 0. 0. 0. 0.
 0. 0. 0. 0.
 0. 0. 0. 0.
 0. 0. 0. 0.
 0. 0. 0. 0.
 0. 0. 0. 0.
 0. 0. 0. 0.
 0. 0. 0. 0.
 0. 0. 0. 0.
 0. 0. 0. 0.
 0. 0. 0. 0.
 0. 0. 0. 0.
 0. 0. 0. 0.
 0. 0. 0. 0.
 0. 0. 0. 0.
 0. 0. 0. 0.
 0. 0. 0. 0.
 0. 0. 0. 0.
 0. 0. 0. 0.
 0. 0. 0. 0.
 0. 0. 0. 0.
 0. 0. 0. 0.
 0. 0. 0. 0.
 0. 0. 0. 0.
 0. 0. 0. 0.
 0. 0. 0. 0.
 0. 0. 0. 0.
 0. 0. 0. 0.
 0. 0. 0. 0.
 0. 0. 0. 0.
 0. 0. 0. 0.
 0. 0. 0. 0.
 0. 0. 0. 0.
 0. 0. 0. 0.
 0. 0. 0. 0.
 0. 0. 0. 0.
 0. 0. 0. 0.
 0. 0. 0. 0.
 0. 0. 0. 0.
 0. 0. 0. 0.
 0. 0. 0. 0.
 0. 0. 0. 0.
 0. 0. 0. 0.
 0. 0. 0. 0.
 0. 0. 0. 0.
 0. 0. 0. 0.
 0. 0. 0. 0.
 0. 0. 0. 0.
 0. 0. 0. 0.
 0. 0. 0. 0.
 0. 0. 0. 0.
 0. 0. 0. 0.
 0. 0. 0. 0.
 0. 0. 0. 0.
 0. 0. 0. 0.
 0. 0. 0. 0.
 0. 0. 0. 0.
 0. 0. 0. 0.
 0. 0. 0. 0.
 0. 0. 0. 0.
 0. 0. 0. 0.
 0. 0. 0. 0.
 0. 0. 0. 0.
 0. 0. 0. 0.
 0. 0. 0. 0.
 0. 0. 0. 0.
 0. 0. 0. 0.
 0. 0. 0. 0.
 0. 0. 0. 0.
 0. 0. 0. 0.
 0. 0. 0. 0.
 0. 0. 0. 0.
 0. 0. 0. 0.
 0. 0. 0. 0.
 0. 0. 0. 0.
 0. 0. 0. 0.
 0. 0. 0. 0.
 0. 0. 0. 0.
 0. 0. 0. 0.
 0. 0. 0. 0.
 0. 0. 0. 0.
   </PP_BETA.4>
   <PP_BETA.5
       type="real"
       size="1148"
       columns="4"
       index="5"
       angular_momentum="1"
       cutoff_radius_index=" 196"
       cutoff_radius="    1.9500000000E+00" >
   -1.2228048435E-10   -7.6526454922E-04   -3.0572948771E-03   -6.8648163776E-03
   -1.2169089156E-02   -1.8943984480E-02   -2.7156091365E-02   -3.6764852866E-02
   -4.7722731494E-02   -5.9975403094E-02   -7.3461978381E-02   -8.8115251218E-02
   -1.0386197263E-01   -1.2062314945E-01   -1.3831436628E-01   -1.5684612970E-01
   -1.7612423295E-01   -1.9605014003E-01   -2.1652138737E-01   -2.3743200156E-01
   -2.5867293149E-01   -2.8013249319E-01   -3.0169682548E-01   -3.2325035482E-01
   -3.4467626736E-01   -3.6585698640E-01   -3.8667465348E-01   -4.0701161099E-01
   -4.2675088469E-01   -4.4577666412E-01   -4.6397477902E-01   -4.8123317003E-01
   -4.9744235173E-01   -5.1249586641E-01   -5.2629072654E-01   -5.3872784461E-01
   -5.4971244830E-01   -5.5915447966E-01   -5.6696897662E-01   -5.7307643533E-01
   -5.7740315193E-01   -5.7988154246E-01   -5.8045043950E-01   -5.7905536434E-01
   -5.7564877372E-01   -5.7019027984E-01   -5.6264684282E-01   -5.5299293475E-01
   -5.4121067442E-01   -5.2728993217E-01   -5.1122840409E-01   -4.9303165534E-01
   -4.7271313184E-01   -4.5029414037E-01   -4.2580379667E-01   -3.9927894158E-01
   -3.7076402528E-01   -3.4031095966E-01   -3.0797893929E-01   -2.7383423129E-01
   -2.3794993468E-01   -2.0040570987E-01   -1.6128747916E-01   -1.2068709916E-01
   -7.8702006232E-02   -3.5434836299E-02    9.0069797278E-03    5.4511643200E-02
    1.0096343601E-01    1.4824318804E-01    1.9622876163E-01    2.4479555108E-01
    2.9381699456E-01    3.4316509613E-01    3.9271095503E-01    4.4232529954E-01
    4.9187902225E-01    5.4124371372E-01    5.9029219116E-01    6.3889901878E-01
    6.8694101609E-01    7.3429775059E-01    7.8085201097E-01    8.2649025690E-01
    8.7110304143E-01    9.1458540187E-01    9.5683721498E-01    9.9776351227E-01
    1.0372747512E+00    1.0752870378E+00    1.1117222969E+00    1.1465083851E+00
    1.1795791426E+00    1.2108743802E+00    1.2403397957E+00    1.2679268183E+00
    1.2935923749E+00    1.3172985753E+00    1.3390123132E+00    1.3587047791E+00
    1.3763508821E+00    1.3919285772E+00    1.4054180967E+00    1.4168010809E+00
    1.4260596092E+00    1.4331751261E+00    1.4381272634E+00    1.4408925550E+00
    1.4414430495E+00    1.4397447808E+00    1.4357643894E+00    1.4295017977E+00
    1.4209989146E+00    1.4103295485E+00    1.3975900609E+00    1.3828915671E+00
    1.3663537828E+00    1.3481003945E+00    1.3282557326E+00    1.3069424962E+00
    1.2842802884E+00    1.2603847493E+00    1.2353671143E+00    1.2093340620E+00
    1.1823877508E+00    1.1546259692E+00    1.1261423492E+00    1.0970266067E+00
    1.0673647775E+00    1.0372394588E+00    1.0067299995E+00    9.7591269223E-01
    9.4486091708E-01    9.1364526326E-01    8.8233362048E-01    8.5099124444E-01
    8.1968079900E-01    7.8846237832E-01    7.5739351264E-01    7.2652916144E-01
    6.9592169747E-01    6.6562088568E-01    6.3567386010E-01    6.0612510236E-01
    5.7701642449E-01    5.4838695901E-01    5.2027315853E-01    4.9270880692E-01
    4.6572504383E-01    4.3935040375E-01    4.1361087086E-01    3.8852995001E-01
    3.6412875445E-01    3.4042611022E-01    3.1743867698E-01    2.9518108477E-01
    2.7366608601E-01    2.5290472174E-01    2.3290650087E-01    2.1367959136E-01
    1.9523102159E-01    1.7756689047E-01    1.6069258459E-01    1.4461300067E-01
    1.2933277131E-01    1.1485649228E-01    1.0118894962E-01    8.8335344144E-02
    7.6301512041E-02    6.5094132251E-02    5.4720993236E-02    4.5190973123E-02
    3.6516725129E-02    2.8727642320E-02    2.1839683624E-02    1.5860834711E-02
    1.0802238471E-02    6.6771959471E-03    3.5027143615E-03    1.2902163128E-03
    8.7162417445E-05   -1.5359375873E-04    1.9255806683E-05   -2.3419435867E-06
    4.8802672048E-08    8.4802574539E-08    0.0000000000E+00    0.0000000000E+00
    0.0000000000E+00    0.0000000000E+00    0.0000000000E+00    0.0000000000E+00
    0.0000000000E+00    0.0000000000E+00    0.0000000000E+00    0.0000000000E+00
 0. 0. 0. 0.
 0. 0. 0. 0.
 0. 0. 0. 0.
 0. 0. 0. 0.
 0. 0. 0. 0.
 0. 0. 0. 0.
 0. 0. 0. 0.
 0. 0. 0. 0.
 0. 0. 0. 0.
 0. 0. 0. 0.
 0. 0. 0. 0.
 0. 0. 0. 0.
 0. 0. 0. 0.
 0. 0. 0. 0.
 0. 0. 0. 0.
 0. 0. 0. 0.
 0. 0. 0. 0.
 0. 0. 0. 0.
 0. 0. 0. 0.
 0. 0. 0. 0.
 0. 0. 0. 0.
 0. 0. 0. 0.
 0. 0. 0. 0.
 0. 0. 0. 0.
 0. 0. 0. 0.
 0. 0. 0. 0.
 0. 0. 0. 0.
 0. 0. 0. 0.
 0. 0. 0. 0.
 0. 0. 0. 0.
 0. 0. 0. 0.
 0. 0. 0. 0.
 0. 0. 0. 0.
 0. 0. 0. 0.
 0. 0. 0. 0.
 0. 0. 0. 0.
 0. 0. 0. 0.
 0. 0. 0. 0.
 0. 0. 0. 0.
 0. 0. 0. 0.
 0. 0. 0. 0.
 0. 0. 0. 0.
 0. 0. 0. 0.
 0. 0. 0. 0.
 0. 0. 0. 0.
 0. 0. 0. 0.
 0. 0. 0. 0.
 0. 0. 0. 0.
 0. 0. 0. 0.
 0. 0. 0. 0.
 0. 0. 0. 0.
 0. 0. 0. 0.
 0. 0. 0. 0.
 0. 0. 0. 0.
 0. 0. 0. 0.
 0. 0. 0. 0.
 0. 0. 0. 0.
 0. 0. 0. 0.
 0. 0. 0. 0.
 0. 0. 0. 0.
 0. 0. 0. 0.
 0. 0. 0. 0.
 0. 0. 0. 0.
 0. 0. 0. 0.
 0. 0. 0. 0.
 0. 0. 0. 0.
 0. 0. 0. 0.
 0. 0. 0. 0.
 0. 0. 0. 0.
 0. 0. 0. 0.
 0. 0. 0. 0.
 0. 0. 0. 0.
 0. 0. 0. 0.
 0. 0. 0. 0.
 0. 0. 0. 0.
 0. 0. 0. 0.
 0. 0. 0. 0.
 0. 0. 0. 0.
 0. 0. 0. 0.
 0. 0. 0. 0.
 0. 0. 0. 0.
 0. 0. 0. 0.
 0. 0. 0. 0.
 0. 0. 0. 0.
 0. 0. 0. 0.
 0. 0. 0. 0.
 0. 0. 0. 0.
 0. 0. 0. 0.
 0. 0. 0. 0.
 0. 0. 0. 0.
 0. 0. 0. 0.
 0. 0. 0. 0.
 0. 0. 0. 0.
 0. 0. 0. 0.
 0. 0. 0. 0.
 0. 0. 0. 0.
 0. 0. 0. 0.
 0. 0. 0. 0.
 0. 0. 0. 0.
 0. 0. 0. 0.
 0. 0. 0. 0.
 0. 0. 0. 0.
 0. 0. 0. 0.
 0. 0. 0. 0.
 0. 0. 0. 0.
 0. 0. 0. 0.
 0. 0. 0. 0.
 0. 0. 0. 0.
 0. 0. 0. 0.
 0. 0. 0. 0.
 0. 0. 0. 0.
 0. 0. 0. 0.
 0. 0. 0. 0.
 0. 0. 0. 0.
 0. 0. 0. 0.
 0. 0. 0. 0.
 0. 0. 0. 0.
 0. 0. 0. 0.
 0. 0. 0. 0.
 0. 0. 0. 0.
 0. 0. 0. 0.
 0. 0. 0. 0.
 0. 0. 0. 0.
 0. 0. 0. 0.
 0. 0. 0. 0.
 0. 0. 0. 0.
 0. 0. 0. 0.
 0. 0. 0. 0.
 0. 0. 0. 0.
 0. 0. 0. 0.
 0. 0. 0. 0.
 0. 0. 0. 0.
 0. 0. 0. 0.
 0. 0. 0. 0.
 0. 0. 0. 0.
 0. 0. 0. 0.
 0. 0. 0. 0.
 0. 0. 0. 0.
 0. 0. 0. 0.
 0. 0. 0. 0.
 0. 0. 0. 0.
 0. 0. 0. 0.
 0. 0. 0. 0.
 0. 0. 0. 0.
 0. 0. 0. 0.
 0. 0. 0. 0.
 0. 0. 0. 0.
 0. 0. 0. 0.
 0. 0. 0. 0.
 0. 0. 0. 0.
 0. 0. 0. 0.
 0. 0. 0. 0.
 0. 0. 0. 0.
 0. 0. 0. 0.
 0. 0. 0. 0.
 0. 0. 0. 0.
 0. 0. 0. 0.
 0. 0. 0. 0.
 0. 0. 0. 0.
 0. 0. 0. 0.
 0. 0. 0. 0.
 0. 0. 0. 0.
 0. 0. 0. 0.
 0. 0. 0. 0.
 0. 0. 0. 0.
 0. 0. 0. 0.
 0. 0. 0. 0.
 0. 0. 0. 0.
 0. 0. 0. 0.
 0. 0. 0. 0.
 0. 0. 0. 0.
 0. 0. 0. 0.
 0. 0. 0. 0.
 0. 0. 0. 0.
 0. 0. 0. 0.
 0. 0. 0. 0.
 0. 0. 0. 0.
 0. 0. 0. 0.
 0. 0. 0. 0.
 0. 0. 0. 0.
 0. 0. 0. 0.
 0. 0. 0. 0.
 0. 0. 0. 0.
 0. 0. 0. 0.
 0. 0. 0. 0.
 0. 0. 0. 0.
 0. 0. 0. 0.
 0. 0. 0. 0.
 0. 0. 0. 0.
 0. 0. 0. 0.
 0. 0. 0. 0.
 0. 0. 0. 0.
 0. 0. 0. 0.
 0. 0. 0. 0.
 0. 0. 0. 0.
 0. 0. 0. 0.
 0. 0. 0. 0.
 0. 0. 0. 0.
 0. 0. 0. 0.
 0. 0. 0. 0.
 0. 0. 0. 0.
 0. 0. 0. 0.
 0. 0. 0. 0.
 0. 0. 0. 0.
 0. 0. 0. 0.
 0. 0. 0. 0.
 0. 0. 0. 0.
 0. 0. 0. 0.
 0. 0. 0. 0.
 0. 0. 0. 0.
 0. 0. 0. 0.
 0. 0. 0. 0.
 0. 0. 0. 0.
 0. 0. 0. 0.
 0. 0. 0. 0.
 0. 0. 0. 0.
 0. 0. 0. 0.
 0. 0. 0. 0.
 0. 0. 0. 0.
 0. 0. 0. 0.
 0. 0. 0. 0.
 0. 0. 0. 0.
 0. 0. 0. 0.
 0. 0. 0. 0.
 0. 0. 0. 0.
 0. 0. 0. 0.
 0. 0. 0. 0.
 0. 0. 0. 0.
 0. 0. 0. 0.
 0. 0. 0. 0.
 0. 0. 0. 0.
 0. 0. 0. 0.
 0. 0. 0. 0.
 0. 0. 0. 0.
 0. 0. 0. 0.
 0. 0. 0. 0.
 0. 0. 0. 0.
 0. 0. 0. 0.
   </PP_BETA.5>
   <PP_BETA.6
       type="real"
       size="1148"
       columns="4"
       index="6"
       angular_momentum="1"
       cutoff_radius_index=" 196"
       cutoff_radius="    1.9500000000E+00" >
   -1.7544492942E-10   -7.6744307107E-04   -3.0659308841E-03   -6.8839563514E-03
   -1.2202397943E-02   -1.8994604784E-02   -2.7226515133E-02   -3.6856807607E-02
   -4.7837084311E-02   -6.0112084905E-02   -7.3619930439E-02   -8.8292395658E-02
   -1.0405520834E-01   -1.2082837410E-01   -1.3852652494E-01   -1.5705928981E-01
   -1.7633168525E-01   -1.9624452419E-01   -2.1669484086E-01   -2.3757632979E-01
   -2.5877979677E-01   -2.8019361971E-01   -3.0170421721E-01   -3.2319652278E-01
   -3.4455446270E-01   -3.6566143529E-01   -3.8640078981E-01   -4.0665630288E-01
   -4.2631265060E-01   -4.4525587458E-01   -4.6337384011E-01   -4.8055668481E-01
   -4.9669725633E-01   -5.1169153740E-01   -5.2543905707E-01   -5.3784328670E-01
   -5.4881201966E-01   -5.5825773343E-01   -5.6609793325E-01   -5.7225547635E-01
   -5.7665887581E-01   -5.7924258337E-01   -5.7994725041E-01   -5.7871996655E-01
   -5.7551447507E-01   -5.7029136483E-01   -5.6301823809E-01   -5.5366985378E-01
   -5.4222824582E-01   -5.2868281614E-01   -5.1303040195E-01   -4.9527531719E-01
   -4.7542936753E-01   -4.5351183899E-01   -4.2954945979E-01   -4.0357633524E-01
   -3.7563385568E-01   -3.4577057712E-01   -3.1404207485E-01   -2.8051076972E-01
   -2.4524572739E-01   -2.0832243066E-01   -1.6982252506E-01   -1.2983353814E-01
   -8.8448572862E-02   -4.5765975786E-02   -1.8889806235E-03    4.3074671817E-02
    8.9013136315E-02    1.3581088731E-01    1.8334916297E-01    2.3150642762E-01
    2.8015885072E-01    3.2918080037E-01    3.7844534909E-01    4.2782478939E-01
    4.7719115631E-01    5.2641675420E-01    5.7537468437E-01    6.2393937023E-01
    6.7198707637E-01    7.1939641771E-01    7.6604885458E-01    8.1182916965E-01
    8.5662592217E-01    9.0033187502E-01    9.4284438990E-01    9.8406578572E-01
    1.0239036555E+00    1.0622711366E+00    1.0990871296E+00    1.1342764602E+00
    1.1677699801E+00    1.1995046013E+00    1.2294232589E+00    1.2574747986E+00
    1.2836137829E+00    1.3078002132E+00    1.3299991627E+00    1.3501803166E+00
    1.3683174156E+00    1.3843876000E+00    1.3983706510E+00    1.4102481268E+00
    1.4200023908E+00    1.4276155313E+00    1.4330681690E+00    1.4363381533E+00
    1.4373991494E+00    1.4362190799E+00    1.4327666368E+00    1.4270436178E+00
    1.4190935331E+00    1.4089915855E+00    1.3968353715E+00    1.3827371066E+00
    1.3668174746E+00    1.3492009834E+00    1.3300126110E+00    1.3093754959E+00
    1.2874094330E+00    1.2642299659E+00    1.2399479072E+00    1.2146691508E+00
    1.1884946786E+00    1.1615206879E+00    1.1338387873E+00    1.1055362290E+00
    1.0766961444E+00    1.0473977925E+00    1.0177167669E+00    9.8772521139E-01
    9.5749199618E-01    9.2708287859E-01    8.9656064118E-01    8.6598521012E-01
    8.3541375598E-01    8.0490077944E-01    7.7449818469E-01    7.4425534334E-01
    7.1421915141E-01    6.8443408228E-01    6.5494223785E-01    6.2578340014E-01
    5.9699508541E-01    5.6861260240E-01    5.4066911596E-01    5.1319571736E-01
    4.8622150196E-01    4.5977365456E-01    4.3387754317E-01    4.0855682055E-01
    3.8383353386E-01    3.5972824171E-01    3.3626013809E-01    3.1344718250E-01
    2.9130623550E-01    2.6985319866E-01    2.4910315793E-01    2.2907052964E-01
    2.0976920783E-01    1.9121271191E-01    1.7341433381E-01    1.5638728346E-01
    1.4014483156E-01    1.2470044890E-01    1.1006794131E-01    9.6261579200E-02
    8.3296221323E-02    7.1187424783E-02    5.9951613735E-02    4.9605968798E-02
    4.0170971495E-02    3.1683076065E-02    2.4165007958E-02    1.7631002387E-02
    1.2097652427E-02    7.5828781309E-03    4.1081092386E-03    1.6799644881E-03
    3.8791658489E-04    3.2625835189E-05    2.3662317264E-07    1.3210452409E-07
   -2.4494020334E-08   -4.2562341322E-08    0.0000000000E+00    0.0000000000E+00
    0.0000000000E+00    0.0000000000E+00    0.0000000000E+00    0.0000000000E+00
    0.0000000000E+00    0.0000000000E+00    0.0000000000E+00    0.0000000000E+00
 0. 0. 0. 0.
 0. 0. 0. 0.
 0. 0. 0. 0.
 0. 0. 0. 0.
 0. 0. 0. 0.
 0. 0. 0. 0.
 0. 0. 0. 0.
 0. 0. 0. 0.
 0. 0. 0. 0.
 0. 0. 0. 0.
 0. 0. 0. 0.
 0. 0. 0. 0.
 0. 0. 0. 0.
 0. 0. 0. 0.
 0. 0. 0. 0.
 0. 0. 0. 0.
 0. 0. 0. 0.
 0. 0. 0. 0.
 0. 0. 0. 0.
 0. 0. 0. 0.
 0. 0. 0. 0.
 0. 0. 0. 0.
 0. 0. 0. 0.
 0. 0. 0. 0.
 0. 0. 0. 0.
 0. 0. 0. 0.
 0. 0. 0. 0.
 0. 0. 0. 0.
 0. 0. 0. 0.
 0. 0. 0. 0.
 0. 0. 0. 0.
 0. 0. 0. 0.
 0. 0. 0. 0.
 0. 0. 0. 0.
 0. 0. 0. 0.
 0. 0. 0. 0.
 0. 0. 0. 0.
 0. 0. 0. 0.
 0. 0. 0. 0.
 0. 0. 0. 0.
 0. 0. 0. 0.
 0. 0. 0. 0.
 0. 0. 0. 0.
 0. 0. 0. 0.
 0. 0. 0. 0.
 0. 0. 0. 0.
 0. 0. 0. 0.
 0. 0. 0. 0.
 0. 0. 0. 0.
 0. 0. 0. 0.
 0. 0. 0. 0.
 0. 0. 0. 0.
 0. 0. 0. 0.
 0. 0. 0. 0.
 0. 0. 0. 0.
 0. 0. 0. 0.
 0. 0. 0. 0.
 0. 0. 0. 0.
 0. 0. 0. 0.
 0. 0. 0. 0.
 0. 0. 0. 0.
 0. 0. 0. 0.
 0. 0. 0. 0.
 0. 0. 0. 0.
 0. 0. 0. 0.
 0. 0. 0. 0.
 0. 0. 0. 0.
 0. 0. 0. 0.
 0. 0. 0. 0.
 0. 0. 0. 0.
 0. 0. 0. 0.
 0. 0. 0. 0.
 0. 0. 0. 0.
 0. 0. 0. 0.
 0. 0. 0. 0.
 0. 0. 0. 0.
 0. 0. 0. 0.
 0. 0. 0. 0.
 0. 0. 0. 0.
 0. 0. 0. 0.
 0. 0. 0. 0.
 0. 0. 0. 0.
 0. 0. 0. 0.
 0. 0. 0. 0.
 0. 0. 0. 0.
 0. 0. 0. 0.
 0. 0. 0. 0.
 0. 0. 0. 0.
 0. 0. 0. 0.
 0. 0. 0. 0.
 0. 0. 0. 0.
 0. 0. 0. 0.
 0. 0. 0. 0.
 0. 0. 0. 0.
 0. 0. 0. 0.
 0. 0. 0. 0.
 0. 0. 0. 0.
 0. 0. 0. 0.
 0. 0. 0. 0.
 0. 0. 0. 0.
 0. 0. 0. 0.
 0. 0. 0. 0.
 0. 0. 0. 0.
 0. 0. 0. 0.
 0. 0. 0. 0.
 0. 0. 0. 0.
 0. 0. 0. 0.
 0. 0. 0. 0.
 0. 0. 0. 0.
 0. 0. 0. 0.
 0. 0. 0. 0.
 0. 0. 0. 0.
 0. 0. 0. 0.
 0. 0. 0. 0.
 0. 0. 0. 0.
 0. 0. 0. 0.
 0. 0. 0. 0.
 0. 0. 0. 0.
 0. 0. 0. 0.
 0. 0. 0. 0.
 0. 0. 0. 0.
 0. 0. 0. 0.
 0. 0. 0. 0.
 0. 0. 0. 0.
 0. 0. 0. 0.
 0. 0. 0. 0.
 0. 0. 0. 0.
 0. 0. 0. 0.
 0. 0. 0. 0.
 0. 0. 0. 0.
 0. 0. 0. 0.
 0. 0. 0. 0.
 0. 0. 0. 0.
 0. 0. 0. 0.
 0. 0. 0. 0.
 0. 0. 0. 0.
 0. 0. 0. 0.
 0. 0. 0. 0.
 0. 0. 0. 0.
 0. 0. 0. 0.
 0. 0. 0. 0.
 0. 0. 0. 0.
 0. 0. 0. 0.
 0. 0. 0. 0.
 0. 0. 0. 0.
 0. 0. 0. 0.
 0. 0. 0. 0.
 0. 0. 0. 0.
 0. 0. 0. 0.
 0. 0. 0. 0.
 0. 0. 0. 0.
 0. 0. 0. 0.
 0. 0. 0. 0.
 0. 0. 0. 0.
 0. 0. 0. 0.
 0. 0. 0. 0.
 0. 0. 0. 0.
 0. 0. 0. 0.
 0. 0. 0. 0.
 0. 0. 0. 0.
 0. 0. 0. 0.
 0. 0. 0. 0.
 0. 0. 0. 0.
 0. 0. 0. 0.
 0. 0. 0. 0.
 0. 0. 0. 0.
 0. 0. 0. 0.
 0. 0. 0. 0.
 0. 0. 0. 0.
 0. 0. 0. 0.
 0. 0. 0. 0.
 0. 0. 0. 0.
 0. 0. 0. 0.
 0. 0. 0. 0.
 0. 0. 0. 0.
 0. 0. 0. 0.
 0. 0. 0. 0.
 0. 0. 0. 0.
 0. 0. 0. 0.
 0. 0. 0. 0.
 0. 0. 0. 0.
 0. 0. 0. 0.
 0. 0. 0. 0.
 0. 0. 0. 0.
 0. 0. 0. 0.
 0. 0. 0. 0.
 0. 0. 0. 0.
 0. 0. 0. 0.
 0. 0. 0. 0.
 0. 0. 0. 0.
 0. 0. 0. 0.
 0. 0. 0. 0.
 0. 0. 0. 0.
 0. 0. 0. 0.
 0. 0. 0. 0.
 0. 0. 0. 0.
 0. 0. 0. 0.
 0. 0. 0. 0.
 0. 0. 0. 0.
 0. 0. 0. 0.
 0. 0. 0. 0.
 0. 0. 0. 0.
 0. 0. 0. 0.
 0. 0. 0. 0.
 0. 0. 0. 0.
 0. 0. 0. 0.
 0. 0. 0. 0.
 0. 0. 0. 0.
 0. 0. 0. 0.
 0. 0. 0. 0.
 0. 0. 0. 0.
 0. 0. 0. 0.
 0. 0. 0. 0.
 0. 0. 0. 0.
 0. 0. 0. 0.
 0. 0. 0. 0.
 0. 0. 0. 0.
 0. 0. 0. 0.
 0. 0. 0. 0.
 0. 0. 0. 0.
 0. 0. 0. 0.
 0. 0. 0. 0.
 0. 0. 0. 0.
 0. 0. 0. 0.
 0. 0. 0. 0.
 0. 0. 0. 0.
 0. 0. 0. 0.
 0. 0. 0. 0.
 0. 0. 0. 0.
 0. 0. 0. 0.
 0. 0. 0. 0.
 0. 0. 0. 0.
 0. 0. 0. 0.
 0. 0. 0. 0.
 0. 0. 0. 0.
 0. 0. 0. 0.
 0. 0. 0. 0.
 0. 0. 0. 0.
   </PP_BETA.6>
   <PP_BETA.7
       type="real"
       size="1148"
       columns="4"
       index="7"
       angular_momentum="2"
       cutoff_radius_index=" 196"
       cutoff_radius="    1.9500000000E+00" >
   -9.2742202416E-10    3.3437531886E-06    2.6883157586E-05    9.1476419653E-05
    2.1929241956E-04    4.3443019738E-04    7.6349609026E-04    1.2361255128E-03
    1.8854373001E-03    2.7484096655E-03    3.8661681420E-03    5.2841773617E-03
    7.0523301526E-03    9.2249291744E-03    1.1860558147E-02    1.5021841615E-02
    1.8775094111E-02    2.3189861510E-02    2.8338359225E-02    3.4294813765E-02
    4.1134715864E-02    4.8933995028E-02    5.7768126803E-02    6.7711185371E-02
    7.8834855165E-02    9.1207416099E-02    1.0489271767E-01    1.1994915761E-01
    1.3642868092E-01    1.5437581510E-01    1.7382675697E-01    1.9480852602E-01
    2.1733819826E-01    2.4142223357E-01    2.6705590840E-01    2.9422286391E-01
    3.2289477826E-01    3.5303116993E-01    3.8457933692E-01    4.1747443481E-01
    4.5163969446E-01    4.8698677823E-01    5.2341627129E-01    5.6081830265E-01
    5.9907328866E-01    6.3805278951E-01    6.7762046805E-01    7.1763313808E-01
    7.5794188837E-01    7.9839326711E-01    8.3883051092E-01    8.7909480149E-01
    9.1902653276E-01    9.5846657130E-01    9.9725749275E-01    1.0352447775E+00
    1.0722779493E+00    1.1082116423E+00    1.1429065819E+00    1.1762304669E+00
    1.2080587428E+00    1.2382752569E+00    1.2667727870E+00    1.2934534415E+00
    1.3182289250E+00    1.3410206715E+00    1.3617598455E+00    1.3803872162E+00
    1.3968529098E+00    1.4111160500E+00    1.4231442951E+00    1.4329132860E+00
    1.4404060166E+00    1.4456121438E+00    1.4485272517E+00    1.4491520880E+00
    1.4474917895E+00    1.4435551150E+00    1.4373537027E+00    1.4289013692E+00
    1.4182134670E+00    1.4053063155E+00    1.3901967186E+00    1.3729015826E+00
    1.3534376434E+00    1.3318213113E+00    1.3080686400E+00    1.2821954210E+00
    1.2542174066E+00    1.2241506562E+00    1.1920120039E+00    1.1578196368E+00
    1.1215937756E+00    1.0833574431E+00    1.0431373055E+00    1.0009645688E+00
    9.5687590956E-01    9.1091441892E-01    8.6313053697E-01    8.1358295239E-01
    7.6233944275E-01    7.0947762999E-01    6.5508562540E-01    5.9926253919E-01
    5.4211883038E-01    4.8377647383E-01    4.2436892308E-01    3.6404084924E-01
    3.0294763960E-01    2.4125463617E-01    1.7913736725E-01    1.1678638581E-01
    5.4409876779E-02   -7.7670736698E-03   -6.9504118296E-02   -1.3054787205E-01
   -1.9063450046E-01   -2.4949251816E-01   -3.0684569291E-01   -3.6241598876E-01
   -4.1592650719E-01   -4.6710440113E-01   -5.1568374424E-01   -5.6140834103E-01
   -6.0403446294E-01   -6.4333349406E-01   -6.7909446774E-01   -7.1112647277E-01
   -7.3926090914E-01   -7.6335356198E-01   -7.8328648376E-01   -7.9896964338E-01
   -8.1034233362E-01   -8.1737430750E-01   -8.2006662692E-01   -8.1845220616E-01
   -8.1259603638E-01   -8.0259508066E-01   -7.8857783282E-01   -7.7070353704E-01
   -7.4916106979E-01   -7.2416748946E-01   -6.9596626374E-01   -6.6482518889E-01
   -6.3103401948E-01   -5.9490183102E-01   -5.5675414210E-01   -5.1692982584E-01
   -4.7577784417E-01   -4.3365384085E-01   -3.9091663199E-01   -3.4792463439E-01
   -3.0503227369E-01   -2.6258641500E-01   -2.2092285923E-01   -1.8036294767E-01
   -1.4121031695E-01   -1.0374784463E-01   -6.8234824170E-02   -3.4904404924E-02
   -3.9613302934E-03    2.4419996733E-02    5.0097095160E-02    7.2960613630E-02
    9.2935147597E-02    1.0997965453E-01    1.2408746073E-01    1.3528585832E-01
    1.4363529679E-01    1.4922817800E-01    1.5218726951E-01    1.5266375542E-01
    1.5083494922E-01    1.4690169734E-01    1.4108550628E-01    1.3362543018E-01
    1.2477475840E-01    1.1479754612E-01    1.0396503226E-01    9.2551992803E-02
    8.0833079109E-02    6.9079143446E-02    5.7554015558E-02    4.6511251587E-02
    3.6190077638E-02    2.6812249911E-02    1.8579355671E-02    1.1670363547E-02
    6.2418166761E-03    2.4009817704E-03    3.2943425910E-04   -1.5518144163E-04
    1.7408750830E-05   -2.8764521682E-07   -2.1369094793E-06    2.4948088092E-07
 0. 0. 0. 0.
 0. 0. 0. 0.
 0. 0. 0. 0.
 0. 0. 0. 0.
 0. 0. 0. 0.
 0. 0. 0. 0.
 0. 0. 0. 0.
 0. 0. 0. 0.
 0. 0. 0. 0.
 0. 0. 0. 0.
 0. 0. 0. 0.
 0. 0. 0. 0.
 0. 0. 0. 0.
 0. 0. 0. 0.
 0. 0. 0. 0.
 0. 0. 0. 0.
 0. 0. 0. 0.
 0. 0. 0. 0.
 0. 0. 0. 0.
 0. 0. 0. 0.
 0. 0. 0. 0.
 0. 0. 0. 0.
 0. 0. 0. 0.
 0. 0. 0. 0.
 0. 0. 0. 0.
 0. 0. 0. 0.
 0. 0. 0. 0.
 0. 0. 0. 0.
 0. 0. 0. 0.
 0. 0. 0. 0.
 0. 0. 0. 0.
 0. 0. 0. 0.
 0. 0. 0. 0.
 0. 0. 0. 0.
 0. 0. 0. 0.
 0. 0. 0. 0.
 0. 0. 0. 0.
 0. 0. 0. 0.
 0. 0. 0. 0.
 0. 0. 0. 0.
 0. 0. 0. 0.
 0. 0. 0. 0.
 0. 0. 0. 0.
 0. 0. 0. 0.
 0. 0. 0. 0.
 0. 0. 0. 0.
 0. 0. 0. 0.
 0. 0. 0. 0.
 0. 0. 0. 0.
 0. 0. 0. 0.
 0. 0. 0. 0.
 0. 0. 0. 0.
 0. 0. 0. 0.
 0. 0. 0. 0.
 0. 0. 0. 0.
 0. 0. 0. 0.
 0. 0. 0. 0.
 0. 0. 0. 0.
 0. 0. 0. 0.
 0. 0. 0. 0.
 0. 0. 0. 0.
 0. 0. 0. 0.
 0. 0. 0. 0.
 0. 0. 0. 0.
 0. 0. 0. 0.
 0. 0. 0. 0.
 0. 0. 0. 0.
 0. 0. 0. 0.
 0. 0. 0. 0.
 0. 0. 0. 0.
 0. 0. 0. 0.
 0. 0. 0. 0.
 0. 0. 0. 0.
 0. 0. 0. 0.
 0. 0. 0. 0.
 0. 0. 0. 0.
 0. 0. 0. 0.
 0. 0. 0. 0.
 0. 0. 0. 0.
 0. 0. 0. 0.
 0. 0. 0. 0.
 0. 0. 0. 0.
 0. 0. 0. 0.
 0. 0. 0. 0.
 0. 0. 0. 0.
 0. 0. 0. 0.
 0. 0. 0. 0.
 0. 0. 0. 0.
 0. 0. 0. 0.
 0. 0. 0. 0.
 0. 0. 0. 0.
 0. 0. 0. 0.
 0. 0. 0. 0.
 0. 0. 0. 0.
 0. 0. 0. 0.
 0. 0. 0. 0.
 0. 0. 0. 0.
 0. 0. 0. 0.
 0. 0. 0. 0.
 0. 0. 0. 0.
 0. 0. 0. 0.
 0. 0. 0. 0.
 0. 0. 0. 0.
 0. 0. 0. 0.
 0. 0. 0. 0.
 0. 0. 0. 0.
 0. 0. 0. 0.
 0. 0. 0. 0.
 0. 0. 0. 0.
 0. 0. 0. 0.
 0. 0. 0. 0.
 0. 0. 0. 0.
 0. 0. 0. 0.
 0. 0. 0. 0.
 0. 0. 0. 0.
 0. 0. 0. 0.
 0. 0. 0. 0.
 0. 0. 0. 0.
 0. 0. 0. 0.
 0. 0. 0. 0.
 0. 0. 0. 0.
 0. 0. 0. 0.
 0. 0. 0. 0.
 0. 0. 0. 0.
 0. 0. 0. 0.
 0. 0. 0. 0.
 0. 0. 0. 0.
 0. 0. 0. 0.
 0. 0. 0. 0.
 0. 0. 0. 0.
 0. 0. 0. 0.
 0. 0. 0. 0.
 0. 0. 0. 0.
 0. 0. 0. 0.
 0. 0. 0. 0.
 0. 0. 0. 0.
 0. 0. 0. 0.
 0. 0. 0. 0.
 0. 0. 0. 0.
 0. 0. 0. 0.
 0. 0. 0. 0.
 0. 0. 0. 0.
 0. 0. 0. 0.
 0. 0. 0. 0.
 0. 0. 0. 0.
 0. 0. 0. 0.
 0. 0. 0. 0.
 0. 0. 0. 0.
 0. 0. 0. 0.
 0. 0. 0. 0.
 0. 0. 0. 0.
 0. 0. 0. 0.
 0. 0. 0. 0.
 0. 0. 0. 0.
 0. 0. 0. 0.
 0. 0. 0. 0.
 0. 0. 0. 0.
 0. 0. 0. 0.
 0. 0. 0. 0.
 0. 0. 0. 0.
 0. 0. 0. 0.
 0. 0. 0. 0.
 0. 0. 0. 0.
 0. 0. 0. 0.
 0. 0. 0. 0.
 0. 0. 0. 0.
 0. 0. 0. 0.
 0. 0. 0. 0.
 0. 0. 0. 0.
 0. 0. 0. 0.
 0. 0. 0. 0.
 0. 0. 0. 0.
 0. 0. 0. 0.
 0. 0. 0. 0.
 0. 0. 0. 0.
 0. 0. 0. 0.
 0. 0. 0. 0.
 0. 0. 0. 0.
 0. 0. 0. 0.
 0. 0. 0. 0.
 0. 0. 0. 0.
 0. 0. 0. 0.
 0. 0. 0. 0.
 0. 0. 0. 0.
 0. 0. 0. 0.
 0. 0. 0. 0.
 0. 0. 0. 0.
 0. 0. 0. 0.
 0. 0. 0. 0.
 0. 0. 0. 0.
 0. 0. 0. 0.
 0. 0. 0. 0.
 0. 0. 0. 0.
 0. 0. 0. 0.
 0. 0. 0. 0.
 0. 0. 0. 0.
 0. 0. 0. 0.
 0. 0. 0. 0.
 0. 0. 0. 0.
 0. 0. 0. 0.
 0. 0. 0. 0.
 0. 0. 0. 0.
 0. 0. 0. 0.
 0. 0. 0. 0.
 0. 0. 0. 0.
 0. 0. 0. 0.
 0. 0. 0. 0.
 0. 0. 0. 0.
 0. 0. 0. 0.
 0. 0. 0. 0.
 0. 0. 0. 0.
 0. 0. 0. 0.
 0. 0. 0. 0.
 0. 0. 0. 0.
 0. 0. 0. 0.
 0. 0. 0. 0.
 0. 0. 0. 0.
 0. 0. 0. 0.
 0. 0. 0. 0.
 0. 0. 0. 0.
 0. 0. 0. 0.
 0. 0. 0. 0.
 0. 0. 0. 0.
 0. 0. 0. 0.
 0. 0. 0. 0.
 0. 0. 0. 0.
 0. 0. 0. 0.
 0. 0. 0. 0.
 0. 0. 0. 0.
 0. 0. 0. 0.
 0. 0. 0. 0.
 0. 0. 0. 0.
 0. 0. 0. 0.
 0. 0. 0. 0.
 0. 0. 0. 0.
 0. 0. 0. 0.
 0. 0. 0. 0.
 0. 0. 0. 0.
   </PP_BETA.7>
   <PP_BETA.8
       type="real"
       size="1148"
       columns="4"
       index="8"
       angular_momentum="2"
       cutoff_radius_index=" 196"
       cutoff_radius="    1.9500000000E+00" >
   -9.2849544915E-10    3.3372060943E-06    2.6830936516E-05    9.1301046291E-05
    2.1887960121E-04    4.3363109820E-04    7.6213029611E-04    1.2339846366E-03
    1.8822891634E-03    2.7440029805E-03    3.8602376111E-03    5.2764491011E-03
    7.0425273428E-03    9.2127778347E-03    1.1845792928E-02    1.5004211504E-02
    1.8754367944E-02    2.3165833184E-02    2.8310852522E-02    3.4263686684E-02
    4.1099864383E-02    4.8895356220E-02    5.7725681243E-02    6.7664958776E-02
    7.8784919233E-02    9.1153888518E-02    1.0483576129E-01    1.1988897875E-01
    1.3636552690E-01    1.5430997094E-01    1.7375854134E-01    1.9473828653E-01
    2.1726630610E-01    2.4134907763E-01    2.6698188892E-01    2.9414838580E-01
    3.2282024416E-01    3.5295697315E-01    3.8450585436E-01    4.1740201994E-01
    4.5156867058E-01    4.8691743196E-01    5.2334884655E-01    5.6075299516E-01
    5.9901024101E-01    6.3799208699E-01    6.7756213519E-01    7.1757713607E-01
    7.5788811327E-01    7.9834154907E-01    8.3878061418E-01    8.7904642537E-01
    9.1897931349E-01    9.5842008476E-01    9.9721125795E-01    1.0351982608E+00
    1.0722305693E+00    1.1081627756E+00    1.1428555686E+00    1.1761766172E+00
    1.2080013437E+00    1.2382135786E+00    1.2667060899E+00    1.2933809828E+00
    1.3181499649E+00    1.3409344796E+00    1.3616657062E+00    1.3802844338E+00
    1.3967408130E+00    1.4109939957E+00    1.4230116713E+00    1.4327695137E+00
    1.4402505515E+00    1.4454444766E+00    1.4483469074E+00    1.4489586249E+00
    1.4472847974E+00    1.4433342119E+00    1.4371185319E+00    1.4286515950E+00
    1.4179487705E+00    1.4050263896E+00    1.3899012635E+00    1.3725903004E+00
    1.3531102335E+00    1.3314774654E+00    1.3077080380E+00    1.2818177271E+00
    1.2538222658E+00    1.2237376923E+00    1.1915808171E+00    1.1573698033E+00
    1.1211248477E+00    1.0828689503E+00    1.0426287565E+00    1.0004354545E+00
    9.5632570682E-01    9.1034259557E-01    8.6253655685E-01    8.1296628118E-01
    7.6169955401E-01    7.0881401115E-01    6.5439778355E-01    5.9855000624E-01
    5.4138116719E-01    4.8301327311E-01    4.2357981039E-01    3.6322548186E-01
    3.0210570267E-01    2.4038583556E-01    1.7824143518E-01    1.1586315133E-01
    5.3459353857E-02   -8.7446183304E-03   -7.0508116612E-02   -1.3157742256E-01
   -1.9168835006E-01   -2.5056905487E-01   -3.0794294738E-01   -3.6353164248E-01
   -4.1705790619E-01   -4.6824857385E-01   -5.1683742293E-01   -5.6256798598E-01
   -6.0519628932E-01   -6.4449350089E-01   -6.8024846891E-01   -7.1227012979E-01
   -7.4038976551E-01   -7.6446307896E-01   -7.8437207737E-01   -8.0002672227E-01
   -8.1136633773E-01   -8.1836074710E-01   -8.2101112179E-01   -8.1935052450E-01
   -8.1344413324E-01   -8.0338913538E-01   -7.8931428521E-01   -7.7137912188E-01
   -7.4977284924E-01   -7.2471288313E-01   -6.9644307588E-01   -6.6523163252E-01
   -6.3136873705E-01   -5.9516391132E-01   -5.5694313317E-01   -5.1704574369E-01
   -4.7582117703E-01   -4.3362554899E-01   -3.9081814279E-01   -3.4775783287E-01
   -3.0479948830E-01   -2.6229039898E-01   -2.2056676740E-01   -1.7995030907E-01
   -1.4074500338E-01   -1.0323403556E-01   -6.7676968156E-02   -3.4307178079E-02
   -3.3295921189E-03    2.5081249639E-02    5.0782777056E-02    7.3665598723E-02
    9.3654319754E-02    1.1070795705E-01    1.2481994565E-01    1.3601773468E-01
    1.4436197731E-01    1.4994532372E-01    1.5289083177E-01    1.5335001477E-01
    1.5150055080E-01    1.4754368235E-01    1.4170133919E-01    1.3421302121E-01
    1.2533248132E-01    1.1532425084E-01    1.0446005231E-01    9.3015147482E-02
    8.1264670512E-02    6.9479947869E-02    5.7925266982E-02    4.6854623693E-02
    3.6507669313E-02    2.7106555539E-02    1.8853232069E-02    1.1926993400E-02
    6.4851639263E-03    2.6291476837E-03    5.7489686508E-04    1.4209154143E-05
    3.8584743484E-06   -3.9261380475E-08   -3.9631782145E-07   -1.6708609665E-07
 0. 0. 0. 0.
 0. 0. 0. 0.
 0. 0. 0. 0.
 0. 0. 0. 0.
 0. 0. 0. 0.
 0. 0. 0. 0.
 0. 0. 0. 0.
 0. 0. 0. 0.
 0. 0. 0. 0.
 0. 0. 0. 0.
 0. 0. 0. 0.
 0. 0. 0. 0.
 0. 0. 0. 0.
 0. 0. 0. 0.
 0. 0. 0. 0.
 0. 0. 0. 0.
 0. 0. 0. 0.
 0. 0. 0. 0.
 0. 0. 0. 0.
 0. 0. 0. 0.
 0. 0. 0. 0.
 0. 0. 0. 0.
 0. 0. 0. 0.
 0. 0. 0. 0.
 0. 0. 0. 0.
 0. 0. 0. 0.
 0. 0. 0. 0.
 0. 0. 0. 0.
 0. 0. 0. 0.
 0. 0. 0. 0.
 0. 0. 0. 0.
 0. 0. 0. 0.
 0. 0. 0. 0.
 0. 0. 0. 0.
 0. 0. 0. 0.
 0. 0. 0. 0.
 0. 0. 0. 0.
 0. 0. 0. 0.
 0. 0. 0. 0.
 0. 0. 0. 0.
 0. 0. 0. 0.
 0. 0. 0. 0.
 0. 0. 0. 0.
 0. 0. 0. 0.
 0. 0. 0. 0.
 0. 0. 0. 0.
 0. 0. 0. 0.
 0. 0. 0. 0.
 0. 0. 0. 0.
 0. 0. 0. 0.
 0. 0. 0. 0.
 0. 0. 0. 0.
 0. 0. 0. 0.
 0. 0. 0. 0.
 0. 0. 0. 0.
 0. 0. 0. 0.
 0. 0. 0. 0.
 0. 0. 0. 0.
 0. 0. 0. 0.
 0. 0. 0. 0.
 0. 0. 0. 0.
 0. 0. 0. 0.
 0. 0. 0. 0.
 0. 0. 0. 0.
 0. 0. 0. 0.
 0. 0. 0. 0.
 0. 0. 0. 0.
 0. 0. 0. 0.
 0. 0. 0. 0.
 0. 0. 0. 0.
 0. 0. 0. 0.
 0. 0. 0. 0.
 0. 0. 0. 0.
 0. 0. 0. 0.
 0. 0. 0. 0.
 0. 0. 0. 0.
 0. 0. 0. 0.
 0. 0. 0. 0.
 0. 0. 0. 0.
 0. 0. 0. 0.
 0. 0. 0. 0.
 0. 0. 0. 0.
 0. 0. 0. 0.
 0. 0. 0. 0.
 0. 0. 0. 0.
 0. 0. 0. 0.
 0. 0. 0. 0.
 0. 0. 0. 0.
 0. 0. 0. 0.
 0. 0. 0. 0.
 0. 0. 0. 0.
 0. 0. 0. 0.
 0. 0. 0. 0.
 0. 0. 0. 0.
 0. 0. 0. 0.
 0. 0. 0. 0.
 0. 0. 0. 0.
 0. 0. 0. 0.
 0. 0. 0. 0.
 0. 0. 0. 0.
 0. 0. 0. 0.
 0. 0. 0. 0.
 0. 0. 0. 0.
 0. 0. 0. 0.
 0. 0. 0. 0.
 0. 0. 0. 0.
 0. 0. 0. 0.
 0. 0. 0. 0.
 0. 0. 0. 0.
 0. 0. 0. 0.
 0. 0. 0. 0.
 0. 0. 0. 0.
 0. 0. 0. 0.
 0. 0. 0. 0.
 0. 0. 0. 0.
 0. 0. 0. 0.
 0. 0. 0. 0.
 0. 0. 0. 0.
 0. 0. 0. 0.
 0. 0. 0. 0.
 0. 0. 0. 0.
 0. 0. 0. 0.
 0. 0. 0. 0.
 0. 0. 0. 0.
 0. 0. 0. 0.
 0. 0. 0. 0.
 0. 0. 0. 0.
 0. 0. 0. 0.
 0. 0. 0. 0.
 0. 0. 0. 0.
 0. 0. 0. 0.
 0. 0. 0. 0.
 0. 0. 0. 0.
 0. 0. 0. 0.
 0. 0. 0. 0.
 0. 0. 0. 0.
 0. 0. 0. 0.
 0. 0. 0. 0.
 0. 0. 0. 0.
 0. 0. 0. 0.
 0. 0. 0. 0.
 0. 0. 0. 0.
 0. 0. 0. 0.
 0. 0. 0. 0.
 0. 0. 0. 0.
 0. 0. 0. 0.
 0. 0. 0. 0.
 0. 0. 0. 0.
 0. 0. 0. 0.
 0. 0. 0. 0.
 0. 0. 0. 0.
 0. 0. 0. 0.
 0. 0. 0. 0.
 0. 0. 0. 0.
 0. 0. 0. 0.
 0. 0. 0. 0.
 0. 0. 0. 0.
 0. 0. 0. 0.
 0. 0. 0. 0.
 0. 0. 0. 0.
 0. 0. 0. 0.
 0. 0. 0. 0.
 0. 0. 0. 0.
 0. 0. 0. 0.
 0. 0. 0. 0.
 0. 0. 0. 0.
 0. 0. 0. 0.
 0. 0. 0. 0.
 0. 0. 0. 0.
 0. 0. 0. 0.
 0. 0. 0. 0.
 0. 0. 0. 0.
 0. 0. 0. 0.
 0. 0. 0. 0.
 0. 0. 0. 0.
 0. 0. 0. 0.
 0. 0. 0. 0.
 0. 0. 0. 0.
 0. 0. 0. 0.
 0. 0. 0. 0.
 0. 0. 0. 0.
 0. 0. 0. 0.
 0. 0. 0. 0.
 0. 0. 0. 0.
 0. 0. 0. 0.
 0. 0. 0. 0.
 0. 0. 0. 0.
 0. 0. 0. 0.
 0. 0. 0. 0.
 0. 0. 0. 0.
 0. 0. 0. 0.
 0. 0. 0. 0.
 0. 0. 0. 0.
 0. 0. 0. 0.
 0. 0. 0. 0.
 0. 0. 0. 0.
 0. 0. 0. 0.
 0. 0. 0. 0.
 0. 0. 0. 0.
 0. 0. 0. 0.
 0. 0. 0. 0.
 0. 0. 0. 0.
 0. 0. 0. 0.
 0. 0. 0. 0.
 0. 0. 0. 0.
 0. 0. 0. 0.
 0. 0. 0. 0.
 0. 0. 0. 0.
 0. 0. 0. 0.
 0. 0. 0. 0.
 0. 0. 0. 0.
 0. 0. 0. 0.
 0. 0. 0. 0.
 0. 0. 0. 0.
 0. 0. 0. 0.
 0. 0. 0. 0.
 0. 0. 0. 0.
 0. 0. 0. 0.
 0. 0. 0. 0.
 0. 0. 0. 0.
 0. 0. 0. 0.
 0. 0. 0. 0.
 0. 0. 0. 0.
 0. 0. 0. 0.
 0. 0. 0. 0.
 0. 0. 0. 0.
 0. 0. 0. 0.
 0. 0. 0. 0.
 0. 0. 0. 0.
 0. 0. 0. 0.
 0. 0. 0. 0.
 0. 0. 0. 0.
 0. 0. 0. 0.
 0. 0. 0. 0.
 0. 0. 0. 0.
 0. 0. 0. 0.
 0. 0. 0. 0.
 0. 0. 0. 0.
   </PP_BETA.8>
   <PP_BETA.9
       type="real"
       size="1148"
       columns="4"
       index="9"
       angular_momentum="2"
       cutoff_radius_index=" 196"
       cutoff_radius="    1.9500000000E+00" >
    8.8590680842E-10   -4.8285578043E-06   -3.8681241670E-05   -1.3084364141E-04
   -3.1111297465E-04   -6.1002588298E-04   -1.0590532506E-03   -1.6907521147E-03
   -2.5388656220E-03   -3.6383630663E-03   -5.0254132914E-03   -6.7372861525E-03
   -8.8121782557E-03   -1.1288960834E-02   -1.4206849320E-02   -1.7604995914E-02
   -2.1522008230E-02   -2.5995398800E-02   -3.1060971931E-02   -3.6752156003E-02
   -4.3099290773E-02   -5.0128880614E-02   -5.7862825775E-02   -6.6317644757E-02
   -7.5503701669E-02   -8.5424452948E-02   -9.6075728191E-02   -1.0744505982E-01
   -1.1951107616E-01   -1.3224297200E-01   -1.4560006999E-01   -1.5953148522E-01
   -1.7397590429E-01   -1.8886148830E-01   -2.0410590821E-01   -2.1961651846E-01
   -2.3529067341E-01   -2.5101618856E-01   -2.6667194670E-01   -2.8212864655E-01
   -2.9724968942E-01   -3.1189219706E-01   -3.2590815161E-01   -3.3914564658E-01
   -3.5145023561E-01   -3.6266636403E-01   -3.7263886668E-01   -3.8121451371E-01
   -3.8824358530E-01   -3.9358145505E-01   -3.9709016130E-01   -3.9863994537E-01
   -3.9811073551E-01   -3.9539355614E-01   -3.9039184205E-01   -3.8302263870E-01
   -3.7321767089E-01   -3.6092426349E-01   -3.4610610015E-01   -3.2874380764E-01
   -3.0883535621E-01   -2.8639626847E-01   -2.6145963229E-01   -2.3407591591E-01
   -2.0431258618E-01   -1.7225353394E-01   -1.3799831313E-01   -1.0166120337E-01
   -6.3370107964E-02   -2.3265302157E-02    1.8501951400E-02    6.1770900983E-02
    1.0637289709E-01    1.5213305444E-01    1.9887196134E-01    2.4640741226E-01
    2.9455613923E-01    3.4313551754E-01    3.9196522192E-01    4.4086880993E-01
    4.8967521088E-01    5.3822009987E-01    5.8634713900E-01    6.3390906964E-01
    6.8076864276E-01    7.2679937697E-01    7.7188613715E-01    8.1592552996E-01
    8.5882611590E-01    9.0050844120E-01    9.4090489633E-01    9.7995941168E-01
    1.0176270040E+00    1.0538731908E+00    1.0886732935E+00    1.1220116513E+00
    1.1538807730E+00    1.1842804527E+00    1.2132168810E+00    1.2407017818E+00
    1.2667516064E+00    1.2913868181E+00    1.3146312994E+00    1.3365119136E+00
    1.3570582524E+00    1.3763025975E+00    1.3942801254E+00    1.4110293806E+00
    1.4265930306E+00    1.4410189889E+00    1.4543476486E+00    1.4665560192E+00
    1.4775463185E+00    1.4871667173E+00    1.4952296123E+00    1.5015263822E+00
    1.5058387900E+00    1.5079475177E+00    1.5076384125E+00    1.5047070122E+00
    1.4989618423E+00    1.4902268820E+00    1.4783434970E+00    1.4631720512E+00
    1.4445933357E+00    1.4225098994E+00    1.3968473216E+00    1.3675554366E+00
    1.3346095140E+00    1.2980113358E+00    1.2577902080E+00    1.2140037901E+00
    1.1667387748E+00    1.1161113463E+00    1.0622673984E+00    1.0053824790E+00
    9.4566143841E-01    8.8333775983E-01    8.1867255792E-01    7.5195323587E-01
    6.8349179782E-01    6.1362281892E-01    5.4270108169E-01    4.7109889310E-01
    3.9920310228E-01    3.2741184471E-01    2.5613104354E-01    1.8577070329E-01
    1.1674103595E-01    4.9448462509E-02   -1.5708463502E-02   -7.8343161621E-02
   -1.3808510874E-01   -1.9458385036E-01   -2.4751288714E-01   -2.9657338510E-01
   -3.4149765952E-01   -3.8205238427E-01   -4.1804148065E-01   -4.4930864404E-01
   -4.7573946929E-01   -4.9726314164E-01   -5.1385366389E-01   -5.2553059695E-01
   -5.3235929596E-01   -5.3445063109E-01   -5.3196018810E-01   -5.2508695026E-01
   -5.1407147036E-01   -4.9919354737E-01   -4.8076942941E-01   -4.5914857041E-01
   -4.3470997419E-01   -4.0785816495E-01   -3.7901882833E-01   -3.4863417173E-01
   -3.1715805683E-01   -2.8505095998E-01   -2.5277481358E-01   -2.2078784627E-01
   -1.8953925305E-01   -1.5946425708E-01   -1.3098344036E-01   -1.0449535147E-01
   -8.0360285120E-02   -5.8906339899E-02   -4.0425289848E-02   -2.5169233999E-02
   -1.3352413849E-02   -5.0963711941E-03   -6.8911071428E-04    3.3040732664E-04
   -3.6965639564E-05    6.1290775194E-07    4.5514130746E-06   -5.3517092738E-07
 0. 0. 0. 0.
 0. 0. 0. 0.
 0. 0. 0. 0.
 0. 0. 0. 0.
 0. 0. 0. 0.
 0. 0. 0. 0.
 0. 0. 0. 0.
 0. 0. 0. 0.
 0. 0. 0. 0.
 0. 0. 0. 0.
 0. 0. 0. 0.
 0. 0. 0. 0.
 0. 0. 0. 0.
 0. 0. 0. 0.
 0. 0. 0. 0.
 0. 0. 0. 0.
 0. 0. 0. 0.
 0. 0. 0. 0.
 0. 0. 0. 0.
 0. 0. 0. 0.
 0. 0. 0. 0.
 0. 0. 0. 0.
 0. 0. 0. 0.
 0. 0. 0. 0.
 0. 0. 0. 0.
 0. 0. 0. 0.
 0. 0. 0. 0.
 0. 0. 0. 0.
 0. 0. 0. 0.
 0. 0. 0. 0.
 0. 0. 0. 0.
 0. 0. 0. 0.
 0. 0. 0. 0.
 0. 0. 0. 0.
 0. 0. 0. 0.
 0. 0. 0. 0.
 0. 0. 0. 0.
 0. 0. 0. 0.
 0. 0. 0. 0.
 0. 0. 0. 0.
 0. 0. 0. 0.
 0. 0. 0. 0.
 0. 0. 0. 0.
 0. 0. 0. 0.
 0. 0. 0. 0.
 0. 0. 0. 0.
 0. 0. 0. 0.
 0. 0. 0. 0.
 0. 0. 0. 0.
 0. 0. 0. 0.
 0. 0. 0. 0.
 0. 0. 0. 0.
 0. 0. 0. 0.
 0. 0. 0. 0.
 0. 0. 0. 0.
 0. 0. 0. 0.
 0. 0. 0. 0.
 0. 0. 0. 0.
 0. 0. 0. 0.
 0. 0. 0. 0.
 0. 0. 0. 0.
 0. 0. 0. 0.
 0. 0. 0. 0.
 0. 0. 0. 0.
 0. 0. 0. 0.
 0. 0. 0. 0.
 0. 0. 0. 0.
 0. 0. 0. 0.
 0. 0. 0. 0.
 0. 0. 0. 0.
 0. 0. 0. 0.
 0. 0. 0. 0.
 0. 0. 0. 0.
 0. 0. 0. 0.
 0. 0. 0. 0.
 0. 0. 0. 0.
 0. 0. 0. 0.
 0. 0. 0. 0.
 0. 0. 0. 0.
 0. 0. 0. 0.
 0. 0. 0. 0.
 0. 0. 0. 0.
 0. 0. 0. 0.
 0. 0. 0. 0.
 0. 0. 0. 0.
 0. 0. 0. 0.
 0. 0. 0. 0.
 0. 0. 0. 0.
 0. 0. 0. 0.
 0. 0. 0. 0.
 0. 0. 0. 0.
 0. 0. 0. 0.
 0. 0. 0. 0.
 0. 0. 0. 0.
 0. 0. 0. 0.
 0. 0. 0. 0.
 0. 0. 0. 0.
 0. 0. 0. 0.
 0. 0. 0. 0.
 0. 0. 0. 0.
 0. 0. 0. 0.
 0. 0. 0. 0.
 0. 0. 0. 0.
 0. 0. 0. 0.
 0. 0. 0. 0.
 0. 0. 0. 0.
 0. 0. 0. 0.
 0. 0. 0. 0.
 0. 0. 0. 0.
 0. 0. 0. 0.
 0. 0. 0. 0.
 0. 0. 0. 0.
 0. 0. 0. 0.
 0. 0. 0. 0.
 0. 0. 0. 0.
 0. 0. 0. 0.
 0. 0. 0. 0.
 0. 0. 0. 0.
 0. 0. 0. 0.
 0. 0. 0. 0.
 0. 0. 0. 0.
 0. 0. 0. 0.
 0. 0. 0. 0.
 0. 0. 0. 0.
 0. 0. 0. 0.
 0. 0. 0. 0.
 0. 0. 0. 0.
 0. 0. 0. 0.
 0. 0. 0. 0.
 0. 0. 0. 0.
 0. 0. 0. 0.
 0. 0. 0. 0.
 0. 0. 0. 0.
 0. 0. 0. 0.
 0. 0. 0. 0.
 0. 0. 0. 0.
 0. 0. 0. 0.
 0. 0. 0. 0.
 0. 0. 0. 0.
 0. 0. 0. 0.
 0. 0. 0. 0.
 0. 0. 0. 0.
 0. 0. 0. 0.
 0. 0. 0. 0.
 0. 0. 0. 0.
 0. 0. 0. 0.
 0. 0. 0. 0.
 0. 0. 0. 0.
 0. 0. 0. 0.
 0. 0. 0. 0.
 0. 0. 0. 0.
 0. 0. 0. 0.
 0. 0. 0. 0.
 0. 0. 0. 0.
 0. 0. 0. 0.
 0. 0. 0. 0.
 0. 0. 0. 0.
 0. 0. 0. 0.
 0. 0. 0. 0.
 0. 0. 0. 0.
 0. 0. 0. 0.
 0. 0. 0. 0.
 0. 0. 0. 0.
 0. 0. 0. 0.
 0. 0. 0. 0.
 0. 0. 0. 0.
 0. 0. 0. 0.
 0. 0. 0. 0.
 0. 0. 0. 0.
 0. 0. 0. 0.
 0. 0. 0. 0.
 0. 0. 0. 0.
 0. 0. 0. 0.
 0. 0. 0. 0.
 0. 0. 0. 0.
 0. 0. 0. 0.
 0. 0. 0. 0.
 0. 0. 0. 0.
 0. 0. 0. 0.
 0. 0. 0. 0.
 0. 0. 0. 0.
 0. 0. 0. 0.
 0. 0. 0. 0.
 0. 0. 0. 0.
 0. 0. 0. 0.
 0. 0. 0. 0.
 0. 0. 0. 0.
 0. 0. 0. 0.
 0. 0. 0. 0.
 0. 0. 0. 0.
 0. 0. 0. 0.
 0. 0. 0. 0.
 0. 0. 0. 0.
 0. 0. 0. 0.
 0. 0. 0. 0.
 0. 0. 0. 0.
 0. 0. 0. 0.
 0. 0. 0. 0.
 0. 0. 0. 0.
 0. 0. 0. 0.
 0. 0. 0. 0.
 0. 0. 0. 0.
 0. 0. 0. 0.
 0. 0. 0. 0.
 0. 0. 0. 0.
 0. 0. 0. 0.
 0. 0. 0. 0.
 0. 0. 0. 0.
 0. 0. 0. 0.
 0. 0. 0. 0.
 0. 0. 0. 0.
 0. 0. 0. 0.
 0. 0. 0. 0.
 0. 0. 0. 0.
 0. 0. 0. 0.
 0. 0. 0. 0.
 0. 0. 0. 0.
 0. 0. 0. 0.
 0. 0. 0. 0.
 0. 0. 0. 0.
 0. 0. 0. 0.
 0. 0. 0. 0.
 0. 0. 0. 0.
 0. 0. 0. 0.
 0. 0. 0. 0.
 0. 0. 0. 0.
 0. 0. 0. 0.
 0. 0. 0. 0.
 0. 0. 0. 0.
 0. 0. 0. 0.
 0. 0. 0. 0.
 0. 0. 0. 0.
 0. 0. 0. 0.
 0. 0. 0. 0.
 0. 0. 0. 0.
 0. 0. 0. 0.
 0. 0. 0. 0.
 0. 0. 0. 0.
   </PP_BETA.9>
   <PP_BETA.10
       type="real"
       size="1148"
       columns="4"
       index="10"
       angular_momentum="2"
       cutoff_radius_index=" 196"
       cutoff_radius="    1.9500000000E+00" >
    8.8479952835E-10   -4.8430395871E-06   -3.8796769855E-05   -1.3123172001E-04
   -3.1202682065E-04   -6.1179564631E-04   -1.0620797513E-03   -1.6954991896E-03
   -2.5458511943E-03   -3.6481490697E-03   -5.0385945983E-03   -6.7544786690E-03
   -8.8340063614E-03   -1.1316044350E-02   -1.4239790200E-02   -1.7644364857E-02
   -2.1568331408E-02   -2.6049144902E-02   -3.1122539717E-02   -3.6821862548E-02
   -4.3177360585E-02   -5.0215435777E-02   -5.7957877275E-02   -6.6421085122E-02
   -7.5615299022E-02   -8.5543846588E-02   -9.6202425744E-02   -1.0757843604E-01
   -1.1965037336E-01   -1.3238730217E-01   -1.4574841851E-01   -1.5968271623E-01
   -1.7412876747E-01   -1.8901462719E-01   -2.0425786976E-01   -2.1976576386E-01
   -2.3543558987E-01   -2.5115510208E-01   -2.6680313552E-01   -2.8225035513E-01
   -2.9736014283E-01   -3.1198961551E-01   -3.2599076504E-01   -3.3921170899E-01
   -3.5149803907E-01   -3.6269425220E-01   -3.7264524755E-01   -3.8119787158E-01
   -3.8820249176E-01   -3.9351457895E-01   -3.9699627749E-01   -3.9851794221E-01
   -3.9795962119E-01   -3.9521246353E-01   -3.9018003237E-01   -3.8277950381E-01
   -3.7294273434E-01   -3.6061718036E-01   -3.4576665573E-01   -3.2837191514E-01
   -3.0843105348E-01   -2.8595971395E-01   -2.6099110032E-01   -2.3357579148E-01
   -2.0378135937E-01   -1.7169179411E-01   -1.3740674311E-01   -1.0104057369E-01
   -6.2721271412E-02   -2.2589188668E-02    1.9204339308E-02    6.2498492150E-02
    1.0712455492E-01    1.5290757932E-01    1.9966809217E-01    2.4722382711E-01
    2.9539145509E-01    3.4398828919E-01    3.9283393992E-01    4.4175189789E-01
    4.9057102197E-01    5.3912691282E-01    5.8726315362E-01    6.3483240213E-01
    6.8169732086E-01    7.2773133529E-01    7.7281921281E-01    8.1685745878E-01
    8.5975452942E-01    9.0143086472E-01    9.4181874834E-01    9.8086200471E-01
    1.0185155474E+00    1.0547447956E+00    1.0895249793E+00    1.1228403563E+00
    1.1546833659E+00    1.1850537481E+00    1.2139576582E+00    1.2414068060E+00
    1.2674176540E+00    1.2920107052E+00    1.3152099141E+00    1.3370422519E+00
    1.3575374579E+00    1.3767280047E+00    1.3946493068E+00    1.4113401976E+00
    1.4268436883E+00    1.4412080940E+00    1.4544742376E+00    1.4666194505E+00
    1.4775461373E+00    1.4871025691E+00    1.4951011986E+00    1.5013334476E+00
    1.5055811320E+00    1.5076250108E+00    1.5072510408E+00    1.5042549055E+00
    1.4984453120E+00    1.4896464540E+00    1.4776999411E+00    1.4624664049E+00
    1.4438269223E+00    1.4216843401E+00    1.3959645419E+00    1.3666176667E+00
    1.3336192837E+00    1.2969714647E+00    1.2567037905E+00    1.2128741759E+00
    1.1655695462E+00    1.1149062917E+00    1.0610304830E+00    1.0041178132E+00
    9.4437324394E-01    8.8203033506E-01    8.1735024179E-01    7.5062037158E-01
    6.8215269656E-01    6.1228172406E-01    5.4136213398E-01    4.6976609715E-01
    3.9788029487E-01    3.2610266518E-01    2.5483890663E-01    1.8449877476E-01
    1.1549221116E-01    4.8225348264E-02   -1.6903563735E-02   -7.9508258945E-02
   -1.3921853645E-01   -1.9568426789E-01   -2.4857928039E-01   -2.9760506308E-01
   -3.4249424759E-01   -3.8301381389E-01   -4.1896797607E-01   -4.5020070585E-01
   -4.7659785543E-01   -4.9808884581E-01   -5.1464789197E-01   -5.2629474158E-01
   -5.3309490972E-01   -5.3515939862E-01   -5.3264389758E-01   -5.2574746460E-01
   -5.1471069853E-01   -4.9981341620E-01   -4.8137185628E-01   -4.5973543715E-01
   -4.3528310251E-01   -4.0841929379E-01   -3.7956959328E-01   -3.4917608687E-01
   -3.1769249915E-01   -2.8557915654E-01   -2.5329783152E-01   -2.2130658590E-01
   -1.9005444367E-01   -1.5997645608E-01   -1.3149303990E-01   -1.0500258533E-01
   -8.0865225596E-02   -5.9408908044E-02   -4.0925267820E-02   -2.5666279565E-02
   -1.3847117004E-02   -5.5763435465E-03   -1.2142194724E-03   -3.2683184222E-05
   -7.9072923627E-06    8.0206175523E-08    8.1808031563E-07    3.5758125897E-07
 0. 0. 0. 0.
 0. 0. 0. 0.
 0. 0. 0. 0.
 0. 0. 0. 0.
 0. 0. 0. 0.
 0. 0. 0. 0.
 0. 0. 0. 0.
 0. 0. 0. 0.
 0. 0. 0. 0.
 0. 0. 0. 0.
 0. 0. 0. 0.
 0. 0. 0. 0.
 0. 0. 0. 0.
 0. 0. 0. 0.
 0. 0. 0. 0.
 0. 0. 0. 0.
 0. 0. 0. 0.
 0. 0. 0. 0.
 0. 0. 0. 0.
 0. 0. 0. 0.
 0. 0. 0. 0.
 0. 0. 0. 0.
 0. 0. 0. 0.
 0. 0. 0. 0.
 0. 0. 0. 0.
 0. 0. 0. 0.
 0. 0. 0. 0.
 0. 0. 0. 0.
 0. 0. 0. 0.
 0. 0. 0. 0.
 0. 0. 0. 0.
 0. 0. 0. 0.
 0. 0. 0. 0.
 0. 0. 0. 0.
 0. 0. 0. 0.
 0. 0. 0. 0.
 0. 0. 0. 0.
 0. 0. 0. 0.
 0. 0. 0. 0.
 0. 0. 0. 0.
 0. 0. 0. 0.
 0. 0. 0. 0.
 0. 0. 0. 0.
 0. 0. 0. 0.
 0. 0. 0. 0.
 0. 0. 0. 0.
 0. 0. 0. 0.
 0. 0. 0. 0.
 0. 0. 0. 0.
 0. 0. 0. 0.
 0. 0. 0. 0.
 0. 0. 0. 0.
 0. 0. 0. 0.
 0. 0. 0. 0.
 0. 0. 0. 0.
 0. 0. 0. 0.
 0. 0. 0. 0.
 0. 0. 0. 0.
 0. 0. 0. 0.
 0. 0. 0. 0.
 0. 0. 0. 0.
 0. 0. 0. 0.
 0. 0. 0. 0.
 0. 0. 0. 0.
 0. 0. 0. 0.
 0. 0. 0. 0.
 0. 0. 0. 0.
 0. 0. 0. 0.
 0. 0. 0. 0.
 0. 0. 0. 0.
 0. 0. 0. 0.
 0. 0. 0. 0.
 0. 0. 0. 0.
 0. 0. 0. 0.
 0. 0. 0. 0.
 0. 0. 0. 0.
 0. 0. 0. 0.
 0. 0. 0. 0.
 0. 0. 0. 0.
 0. 0. 0. 0.
 0. 0. 0. 0.
 0. 0. 0. 0.
 0. 0. 0. 0.
 0. 0. 0. 0.
 0. 0. 0. 0.
 0. 0. 0. 0.
 0. 0. 0. 0.
 0. 0. 0. 0.
 0. 0. 0. 0.
 0. 0. 0. 0.
 0. 0. 0. 0.
 0. 0. 0. 0.
 0. 0. 0. 0.
 0. 0. 0. 0.
 0. 0. 0. 0.
 0. 0. 0. 0.
 0. 0. 0. 0.
 0. 0. 0. 0.
 0. 0. 0. 0.
 0. 0. 0. 0.
 0. 0. 0. 0.
 0. 0. 0. 0.
 0. 0. 0. 0.
 0. 0. 0. 0.
 0. 0. 0. 0.
 0. 0. 0. 0.
 0. 0. 0. 0.
 0. 0. 0. 0.
 0. 0. 0. 0.
 0. 0. 0. 0.
 0. 0. 0. 0.
 0. 0. 0. 0.
 0. 0. 0. 0.
 0. 0. 0. 0.
 0. 0. 0. 0.
 0. 0. 0. 0.
 0. 0. 0. 0.
 0. 0. 0. 0.
 0. 0. 0. 0.
 0. 0. 0. 0.
 0. 0. 0. 0.
 0. 0. 0. 0.
 0. 0. 0. 0.
 0. 0. 0. 0.
 0. 0. 0. 0.
 0. 0. 0. 0.
 0. 0. 0. 0.
 0. 0. 0. 0.
 0. 0. 0. 0.
 0. 0. 0. 0.
 0. 0. 0. 0.
 0. 0. 0. 0.
 0. 0. 0. 0.
 0. 0. 0. 0.
 0. 0. 0. 0.
 0. 0. 0. 0.
 0. 0. 0. 0.
 0. 0. 0. 0.
 0. 0. 0. 0.
 0. 0. 0. 0.
 0. 0. 0. 0.
 0. 0. 0. 0.
 0. 0. 0. 0.
 0. 0. 0. 0.
 0. 0. 0. 0.
 0. 0. 0. 0.
 0. 0. 0. 0.
 0. 0. 0. 0.
 0. 0. 0. 0.
 0. 0. 0. 0.
 0. 0. 0. 0.
 0. 0. 0. 0.
 0. 0. 0. 0.
 0. 0. 0. 0.
 0. 0. 0. 0.
 0. 0. 0. 0.
 0. 0. 0. 0.
 0. 0. 0. 0.
 0. 0. 0. 0.
 0. 0. 0. 0.
 0. 0. 0. 0.
 0. 0. 0. 0.
 0. 0. 0. 0.
 0. 0. 0. 0.
 0. 0. 0. 0.
 0. 0. 0. 0.
 0. 0. 0. 0.
 0. 0. 0. 0.
 0. 0. 0. 0.
 0. 0. 0. 0.
 0. 0. 0. 0.
 0. 0. 0. 0.
 0. 0. 0. 0.
 0. 0. 0. 0.
 0. 0. 0. 0.
 0. 0. 0. 0.
 0. 0. 0. 0.
 0. 0. 0. 0.
 0. 0. 0. 0.
 0. 0. 0. 0.
 0. 0. 0. 0.
 0. 0. 0. 0.
 0. 0. 0. 0.
 0. 0. 0. 0.
 0. 0. 0. 0.
 0. 0. 0. 0.
 0. 0. 0. 0.
 0. 0. 0. 0.
 0. 0. 0. 0.
 0. 0. 0. 0.
 0. 0. 0. 0.
 0. 0. 0. 0.
 0. 0. 0. 0.
 0. 0. 0. 0.
 0. 0. 0. 0.
 0. 0. 0. 0.
 0. 0. 0. 0.
 0. 0. 0. 0.
 0. 0. 0. 0.
 0. 0. 0. 0.
 0. 0. 0. 0.
 0. 0. 0. 0.
 0. 0. 0. 0.
 0. 0. 0. 0.
 0. 0. 0. 0.
 0. 0. 0. 0.
 0. 0. 0. 0.
 0. 0. 0. 0.
 0. 0. 0. 0.
 0. 0. 0. 0.
 0. 0. 0. 0.
 0. 0. 0. 0.
 0. 0. 0. 0.
 0. 0. 0. 0.
 0. 0. 0. 0.
 0. 0. 0. 0.
 0. 0. 0. 0.
 0. 0. 0. 0.
 0. 0. 0. 0.
 0. 0. 0. 0.
 0. 0. 0. 0.
 0. 0. 0. 0.
 0. 0. 0. 0.
 0. 0. 0. 0.
 0. 0. 0. 0.
 0. 0. 0. 0.
 0. 0. 0. 0.
 0. 0. 0. 0.
 0. 0. 0. 0.
 0. 0. 0. 0.
 0. 0. 0. 0.
 0. 0. 0. 0.
 0. 0. 0. 0.
 0. 0. 0. 0.
 0. 0. 0. 0.
 0. 0. 0. 0.
 0. 0. 0. 0.
 0. 0. 0. 0.
   </PP_BETA.10>
   <PP_DIJ type="real"  size=" 100" columns="4">
    1.5009531976E+01    0.0000000000E+00    0.0000000000E+00    0.0000000000E+00
    0.0000000000E+00    0.0000000000E+00    0.0000000000E+00    0.0000000000E+00
    0.0000000000E+00    0.0000000000E+00    0.0000000000E+00    1.5018940318E+00
    0.0000000000E+00    0.0000000000E+00    0.0000000000E+00    0.0000000000E+00
    0.0000000000E+00    0.0000000000E+00    0.0000000000E+00    0.0000000000E+00
    0.0000000000E+00    0.0000000000E+00    7.0453130372E+00    0.0000000000E+00
    0.0000000000E+00    0.0000000000E+00    0.0000000000E+00    0.0000000000E+00
    0.0000000000E+00    0.0000000000E+00    0.0000000000E+00    0.0000000000E+00
    0.0000000000E+00    7.0570612897E+00    0.0000000000E+00    0.0000000000E+00
    0.0000000000E+00    0.0000000000E+00    0.0000000000E+00    0.0000000000E+00
    0.0000000000E+00    0.0000000000E+00    0.0000000000E+00    0.0000000000E+00
    8.0701144449E-01    0.0000000000E+00    0.0000000000E+00    0.0000000000E+00
    0.0000000000E+00    0.0000000000E+00    0.0000000000E+00    0.0000000000E+00
    0.0000000000E+00    0.0000000000E+00    0.0000000000E+00    7.9997196688E-01
    0.0000000000E+00    0.0000000000E+00    0.0000000000E+00    0.0000000000E+00
    0.0000000000E+00    0.0000000000E+00    0.0000000000E+00    0.0000000000E+00
    0.0000000000E+00    0.0000000000E+00   -3.9398934697E+00    0.0000000000E+00
    0.0000000000E+00    0.0000000000E+00    0.0000000000E+00    0.0000000000E+00
    0.0000000000E+00    0.0000000000E+00    0.0000000000E+00    0.0000000000E+00
    0.0000000000E+00   -3.9357483677E+00    0.0000000000E+00    0.0000000000E+00
    0.0000000000E+00    0.0000000000E+00    0.0000000000E+00    0.0000000000E+00
    0.0000000000E+00    0.0000000000E+00    0.0000000000E+00    0.0000000000E+00
   -9.2466714419E-01    0.0000000000E+00    0.0000000000E+00    0.0000000000E+00
    0.0000000000E+00    0.0000000000E+00    0.0000000000E+00    0.0000000000E+00
    0.0000000000E+00    0.0000000000E+00    0.0000000000E+00   -9.2436880385E-01
   </PP_DIJ>
 </PP_NONLOCAL>
 <PP_PSWFC>
   <PP_CHI.1
       type="real"
       size="1148"
       columns="4"
       index="1"
       occupation=" 2.000"
       pseudo_energy="   -0.1268255145E+01"
       label="3S"
       l="0" >
   -2.5791868641E-13    2.1387219651E-03    4.2840568381E-03    6.4426064777E-03
    8.6209506568E-03    1.0825636052E-02    1.3063165273E-02    1.5339985939E-02
    1.7662479828E-02    2.0036952097E-02    2.2469620604E-02    2.4966605322E-02
    2.7533917893E-02    3.0177451303E-02    3.2902969714E-02    3.5716098464E-02
    3.8622314245E-02    4.1626935487E-02    4.4735112951E-02    4.7951820555E-02
    5.1281846457E-02    5.4729784396E-02    5.8300025327E-02    6.1996749348E-02
    6.5823917961E-02    6.9785266662E-02    7.3884297893E-02    7.8124274366E-02
    8.2508212783E-02    8.7038877958E-02    9.1718777378E-02    9.6550156193E-02
    1.0153499267E-01    1.0667499414E-01    1.1197159336E-01    1.1742594551E-01
    1.2303892555E-01    1.2881112621E-01    1.3474285646E-01    1.4083414054E-01
    1.4708471754E-01    1.5349404155E-01    1.6006128230E-01    1.6678532645E-01
    1.7366477939E-01    1.8069796759E-01    1.8788294157E-01    1.9521747932E-01
    2.0269909039E-01    2.1032502038E-01    2.1809225607E-01    2.2599753103E-01
    2.3403733167E-01    2.4220790386E-01    2.5050525999E-01    2.5892518642E-01
    2.6746325148E-01    2.7611481371E-01    2.8487503063E-01    2.9373886781E-01
    3.0270110821E-01    3.1175636195E-01    3.2089907622E-01    3.3012354554E-01
    3.3942392219E-01    3.4879422682E-01    3.5822835922E-01    3.6772010926E-01
    3.7726316784E-01    3.8685113800E-01    3.9647754599E-01    4.0613585236E-01
    4.1581946308E-01    4.2552174052E-01    4.3523601440E-01    4.4495559264E-01
    4.5467377204E-01    4.6438384883E-01    4.7407912901E-01    4.8375293853E-01
    4.9339863320E-01    5.0300960837E-01    5.1257930837E-01    5.2210123565E-01
    5.3156895961E-01    5.4097612521E-01    5.5031646113E-01    5.5958378776E-01
    5.6877202473E-01    5.7787519818E-01    5.8688744767E-01    5.9580303272E-01
    6.0461633908E-01    6.1332188452E-01    6.2191432446E-01    6.3038845711E-01
    6.3873922833E-01    6.4696173618E-01    6.5505123511E-01    6.6300313987E-01
    6.7081302906E-01    6.7847664843E-01    6.8598991389E-01    6.9334891414E-01
    7.0054991319E-01    7.0758935246E-01    7.1446385271E-01    7.2117021572E-01
    7.2770542567E-01    7.3406665039E-01    7.4025124231E-01    7.4625673922E-01
    7.5208086482E-01    7.5772152912E-01    7.6317682858E-01    7.6844504609E-01
    7.7352465079E-01    7.7841429769E-01    7.8311282709E-01    7.8761926387E-01
    7.9193281657E-01    7.9605287630E-01    7.9997901552E-01    8.0371098657E-01
    8.0724872006E-01    8.1059232308E-01    8.1374207725E-01    8.1669843654E-01
    8.1946202489E-01    8.2203363372E-01    8.2441421914E-01    8.2660489903E-01
    8.2860694987E-01    8.3042180339E-01    8.3205104303E-01    8.3349640007E-01
    8.3475974970E-01    8.3584310676E-01    8.3674862129E-01    8.3747857387E-01
    8.3803537075E-01    8.3842153869E-01    8.3863971967E-01    8.3869266539E-01
    8.3858323143E-01    8.3831437142E-01    8.3788913082E-01    8.3731064066E-01
    8.3658211100E-01    8.3570682435E-01    8.3468812879E-01    8.3352943110E-01
    8.3223418971E-01    8.3080590751E-01    8.2924812470E-01    8.2756441144E-01
    8.2575836055E-01    8.2383358017E-01    8.2179368639E-01    8.1964229600E-01
    8.1738301913E-01    8.1501945216E-01    8.1255517056E-01    8.0999372195E-01
    8.0733861930E-01    8.0459333425E-01    8.0176129071E-01    7.9884585861E-01
    7.9585034792E-01    7.9277800297E-01    7.8963199702E-01    7.8641542717E-01
    7.8313130956E-01    7.7978257495E-01    7.7637206458E-01    7.7290252647E-01
    7.6937661220E-01    7.6579687413E-01    7.6216576296E-01    7.5848562583E-01
    7.5475870470E-01    7.5098713541E-01    7.4717295640E-01    7.4331813607E-01
    7.3942460055E-01    7.3549423515E-01    7.3152887896E-01    7.2753032887E-01
    7.2350033974E-01    7.1944062490E-01    7.1535285685E-01    7.1123866792E-01
    7.0709965088E-01    7.0293735960E-01    6.9875330966E-01    6.9454897901E-01
    6.9032580861E-01    6.8608520306E-01    6.8182853124E-01    6.7755712692E-01
    6.7327228942E-01    6.6897528421E-01    6.6466734355E-01    6.6034966709E-01
    6.5602342247E-01    6.5168974596E-01    6.4734974303E-01    6.4300448898E-01
    6.3865502946E-01    6.3430238114E-01    6.2994753221E-01    6.2559144300E-01
    6.2123504652E-01    6.1687924902E-01    6.1252493051E-01    6.0817294537E-01
    6.0382412282E-01    5.9947926745E-01    5.9513915979E-01    5.9080455676E-01
    5.8647619221E-01    5.8215477741E-01    5.7784100153E-01    5.7353553212E-01
    5.6923901560E-01    5.6495207770E-01    5.6067532394E-01    5.5640934007E-01
    5.5215469251E-01    5.4791192879E-01    5.4368157796E-01    5.3946415104E-01
    5.3526014143E-01    5.3107002525E-01    5.2689426185E-01    5.2273329409E-01
    5.1858754880E-01    5.1445743711E-01    5.1034335484E-01    5.0624568286E-01
    5.0216478743E-01    4.9810102058E-01    4.9405472040E-01    4.9002621144E-01
    4.8601580497E-01    4.8202379934E-01    4.7805048030E-01    4.7409612129E-01
    4.7016098375E-01    4.6624531740E-01    4.6234936057E-01    4.5847334044E-01
    4.5461747334E-01    4.5078196502E-01    4.4696701091E-01    4.4317279641E-01
    4.3939949710E-01    4.3564727902E-01    4.3191629891E-01    4.2820670445E-01
    4.2451863449E-01    4.2085221927E-01    4.1720758069E-01    4.1358483247E-01
    4.0998408040E-01    4.0640542255E-01    4.0284894946E-01    3.9931474436E-01
    3.9580288334E-01    3.9231343559E-01    3.8884646354E-01    3.8540202306E-01
    3.8198016366E-01    3.7858092865E-01    3.7520435530E-01    3.7185047502E-01
    3.6851931356E-01    3.6521089110E-01    3.6192522247E-01    3.5866231727E-01
    3.5542218004E-01    3.5220481039E-01    3.4901020316E-01    3.4583834855E-01
    3.4268923227E-01    3.3956283566E-01    3.3645913582E-01    3.3337810578E-01
    3.3031971454E-01    3.2728392730E-01    3.2427070548E-01    3.2128000693E-01
    3.1831178595E-01    3.1536599348E-01    3.1244257718E-01    3.0954148152E-01
    3.0666264791E-01    3.0380601481E-01    3.0097151778E-01    2.9815908965E-01
    2.9536866053E-01    2.9260015800E-01    2.8985350712E-01    2.8712863056E-01
    2.8442544866E-01    2.8174387956E-01    2.7908383922E-01    2.7644524158E-01
    2.7382799854E-01    2.7123202013E-01    2.6865721454E-01    2.6610348818E-01
    2.6357074580E-01    2.6105889051E-01    2.5856782388E-01    2.5609744598E-01
    2.5364765549E-01    2.5121834972E-01    2.4880942468E-01    2.4642077516E-01
    2.4405229478E-01    2.4170387602E-01    2.3937541032E-01    2.3706678813E-01
    2.3477789891E-01    2.3250863126E-01    2.3025887289E-01    2.2802851076E-01
    2.2581743104E-01    2.2362551920E-01    2.2145266008E-01    2.1929873788E-01
    2.1716363623E-01    2.1504723825E-01    2.1294942656E-01    2.1087008333E-01
    2.0880909034E-01    2.0676632898E-01    2.0474168032E-01    2.0273502513E-01
    2.0074624392E-01    1.9877521696E-01    1.9682182436E-01    1.9488594602E-01
    1.9296746175E-01    1.9106625124E-01    1.8918219410E-01    1.8731516992E-01
    1.8546505826E-01    1.8363173870E-01    1.8181509085E-01    1.8001499439E-01
    1.7823132908E-01    1.7646397482E-01    1.7471281160E-01    1.7297771962E-01
    1.7125857921E-01    1.6955527093E-01    1.6786767557E-01    1.6619567413E-01
    1.6453914789E-01    1.6289797842E-01    1.6127204755E-01    1.5966123747E-01
    1.5806543066E-01    1.5648450997E-01    1.5491835860E-01    1.5336686014E-01
    1.5182989857E-01    1.5030735825E-01    1.4879912400E-01    1.4730508103E-01
    1.4582511504E-01    1.4435911214E-01    1.4290695893E-01    1.4146854250E-01
    1.4004375040E-01    1.3863247071E-01    1.3723459200E-01    1.3585000336E-01
    1.3447859442E-01    1.3312025532E-01    1.3177487678E-01    1.3044235003E-01
    1.2912256690E-01    1.2781541975E-01    1.2652080154E-01    1.2523860579E-01
    1.2396872662E-01    1.2271105872E-01    1.2146549741E-01    1.2023193857E-01
    1.1901027871E-01    1.1780041495E-01    1.1660224502E-01    1.1541566726E-01
    1.1424058065E-01    1.1307688478E-01    1.1192447987E-01    1.1078326678E-01
    1.0965314700E-01    1.0853402264E-01    1.0742579647E-01    1.0632837190E-01
    1.0524165296E-01    1.0416554435E-01    1.0309995139E-01    1.0204478008E-01
    1.0099993702E-01    9.9965329504E-02    9.8940865441E-02    9.7926453405E-02
    9.6922002614E-02    9.5927422936E-02    9.4942624887E-02    9.3967519632E-02
    9.3002018985E-02    9.2046035405E-02    9.1099482002E-02    9.0162272528E-02
    8.9234321384E-02    8.8315543612E-02    8.7405854900E-02    8.6505171574E-02
    8.5613410603E-02    8.4730489596E-02    8.3856326795E-02    8.2990841081E-02
    8.2133951968E-02    8.1285579600E-02    8.0445644752E-02    7.9614068827E-02
    7.8790773852E-02    7.7975682479E-02    7.7168717980E-02    7.6369804245E-02
    7.5578865780E-02    7.4795827706E-02    7.4020615752E-02    7.3253156258E-02
    7.2493376168E-02    7.1741203028E-02    7.0996564986E-02    7.0259390784E-02
    6.9529609761E-02    6.8807151844E-02    6.8091947551E-02    6.7383927981E-02
    6.6683024820E-02    6.5989170327E-02    6.5302297340E-02    6.4622339268E-02
    6.3949230089E-02    6.3282904347E-02    6.2623297148E-02    6.1970344156E-02
    6.1323981592E-02    6.0684146230E-02    6.0050775390E-02    5.9423806940E-02
    5.8803179289E-02    5.8188831383E-02    5.7580702706E-02    5.6978733271E-02
    5.6382863620E-02    5.5793034820E-02    5.5209188458E-02    5.4631266638E-02
    5.4059211979E-02    5.3492967611E-02    5.2932477169E-02    5.2377684792E-02
    5.1828535119E-02    5.1284973284E-02    5.0746944915E-02    5.0214396129E-02
    4.9687273526E-02    4.9165524191E-02    4.8649095687E-02    4.8137936048E-02
    4.7631993784E-02    4.7131217871E-02    4.6635557748E-02    4.6144963316E-02
    4.5659384932E-02    4.5178773408E-02    4.4703080005E-02    4.4232256431E-02
    4.3766254838E-02    4.3305027816E-02    4.2848528392E-02    4.2396710026E-02
    4.1949526607E-02    4.1506932451E-02    4.1068882294E-02    4.0635331293E-02
    4.0206235020E-02    3.9781549461E-02    3.9361231009E-02    3.8945236463E-02
    3.8533523024E-02    3.8126048294E-02    3.7722770268E-02    3.7323647336E-02
    3.6928638276E-02    3.6537702251E-02    3.6150798809E-02    3.5767887875E-02
    3.5388929752E-02    3.5013885116E-02    3.4642715013E-02    3.4275380856E-02
    3.3911844420E-02    3.3552067843E-02    3.3196013620E-02    3.2843644600E-02
    3.2494923983E-02    3.2149815320E-02    3.1808282503E-02    3.1470289772E-02
    3.1135801702E-02    3.0804783206E-02    3.0477199533E-02    3.0153016258E-02
    2.9832199288E-02    2.9514714854E-02    2.9200529507E-02    2.8889610121E-02
    2.8581923883E-02    2.8277438296E-02    2.7976121173E-02    2.7677940636E-02
    2.7382865112E-02    2.7090863329E-02    2.6801904319E-02    2.6515957409E-02
    2.6232992220E-02    2.5952978666E-02    2.5675886953E-02    2.5401687569E-02
    2.5130351291E-02    2.4861849176E-02    2.4596152559E-02    2.4333233054E-02
    2.4073062548E-02    2.3815613200E-02    2.3560857439E-02    2.3308767961E-02
    2.3059317726E-02    2.2812479955E-02    2.2568228132E-02    2.2326535994E-02
    2.2087377538E-02    2.1850727010E-02    2.1616558907E-02    2.1384847976E-02
    2.1155569208E-02    2.0928697839E-02    2.0704209345E-02    2.0482079443E-02
    2.0262284086E-02    2.0044799461E-02    1.9829601990E-02    1.9616668322E-02
    1.9405975339E-02    1.9197500146E-02    1.8991220073E-02    1.8787112672E-02
    1.8585155717E-02    1.8385327197E-02    1.8187605320E-02    1.7991968505E-02
    1.7798395387E-02    1.7606864808E-02    1.7417355820E-02    1.7229847679E-02
    1.7044319848E-02    1.6860751991E-02    1.6679123972E-02    1.6499415856E-02
    1.6321607903E-02    1.6145680567E-02    1.5971614498E-02    1.5799390535E-02
    1.5628989708E-02    1.5460393235E-02    1.5293582518E-02    1.5128539145E-02
    1.4965244886E-02    1.4803681694E-02    1.4643831697E-02    1.4485677204E-02
    1.4329200698E-02    1.4174384837E-02    1.4021212452E-02    1.3869666543E-02
    1.3719730282E-02    1.3571387005E-02    1.3424620219E-02    1.3279413591E-02
    1.3135750953E-02    1.2993616298E-02    1.2852993781E-02    1.2713867711E-02
    1.2576222559E-02    1.2440042947E-02    1.2305313653E-02    1.2172019608E-02
    1.2040145893E-02    1.1909677739E-02    1.1780600525E-02    1.1652899776E-02
    1.1526561164E-02    1.1401570504E-02    1.1277913754E-02    1.1155577011E-02
    1.1034546516E-02    1.0914808646E-02    1.0796349914E-02    1.0679156972E-02
    1.0563216604E-02    1.0448515729E-02    1.0335041397E-02    1.0222780789E-02
    1.0111721216E-02    1.0001850116E-02    9.8931550557E-03    9.7856237265E-03
    9.6792439446E-03    9.5740036496E-03    9.4698909034E-03    9.3668938888E-03
    9.2650009086E-03    9.1642003840E-03    9.0644808541E-03    8.9658309740E-03
    8.8682395146E-03    8.7716953604E-03    8.6761875093E-03    8.5817050710E-03
    8.4882372663E-03    8.3957734254E-03    8.3043029876E-03    8.2138154997E-03
    8.1243006151E-03    8.0357480928E-03    7.9481477964E-03    7.8614896929E-03
    7.7757638521E-03    7.6909604449E-03    7.6070697432E-03    7.5240821180E-03
    7.4419880393E-03    7.3607780743E-03    7.2804428871E-03    7.2009732375E-03
    7.1223599799E-03    7.0445940628E-03    6.9676665273E-03    6.8915685068E-03
    6.8162912256E-03    6.7418259983E-03    6.6681642287E-03    6.5952974091E-03
    6.5232171194E-03    6.4519150262E-03    6.3813828820E-03    6.3116125240E-03
    6.2425958738E-03    6.1743249364E-03    6.1067917992E-03    6.0399886311E-03
    5.9739076822E-03    5.9085412825E-03    5.8438818412E-03    5.7799218461E-03
    5.7166538629E-03    5.6540705338E-03    5.5921645775E-03    5.5309287881E-03
    5.4703560342E-03    5.4104392586E-03    5.3511714769E-03    5.2925457776E-03
    5.2345553206E-03    5.1771933370E-03    5.1204531281E-03    5.0643280649E-03
    5.0088115873E-03    4.9538972033E-03    4.8995784887E-03    4.8458490859E-03
    4.7927027036E-03    4.7401331160E-03    4.6881341623E-03    4.6366997458E-03
    4.5858238334E-03    4.5355004550E-03    4.4857237027E-03    4.4364877303E-03
    4.3877867527E-03    4.3396150454E-03    4.2919669434E-03    4.2448368411E-03
    4.1982191916E-03    4.1521085060E-03    4.1064993528E-03    4.0613863574E-03
    4.0167642016E-03    3.9726276227E-03    3.9289714135E-03    3.8857904210E-03
    3.8430795467E-03    3.8008337452E-03    3.7590480243E-03    3.7177174442E-03
    3.6768371171E-03    3.6364022062E-03    3.5964079259E-03    3.5568495408E-03
    3.5177223654E-03    3.4790217633E-03    3.4407431472E-03    3.4028819779E-03
    3.3654337640E-03    3.3283940616E-03    3.2917584735E-03    3.2555226490E-03
    3.2196822832E-03    3.1842331165E-03    3.1491709346E-03    3.1144915674E-03
    3.0801908890E-03    3.0462648170E-03    3.0127093122E-03    2.9795203782E-03
    2.9466940606E-03    2.9142264471E-03    2.8821136668E-03    2.8503518895E-03
    2.8189373259E-03    2.7878662266E-03    2.7571348820E-03    2.7267396219E-03
    2.6966768150E-03    2.6669428683E-03    2.6375342273E-03    2.6084473748E-03
    2.5796788313E-03    2.5512251540E-03    2.5230829368E-03    2.4952488097E-03
    2.4677194387E-03    2.4404915250E-03    2.4135618051E-03    2.3869270499E-03
    2.3605840652E-03    2.3345296902E-03    2.3087607981E-03    2.2832742954E-03
    2.2580671214E-03    2.2331362482E-03    2.2084786799E-03    2.1840914528E-03
    2.1599716348E-03    2.1361163249E-03    2.1125226532E-03    2.0891877803E-03
    2.0661088973E-03    2.0432832252E-03    2.0207080146E-03    1.9983805457E-03
    1.9762981275E-03    1.9544580979E-03    1.9328578234E-03    1.9114946985E-03
    1.8903661455E-03    1.8694696145E-03    1.8488025828E-03    1.8283625546E-03
    1.8081470611E-03    1.7881536598E-03    1.7683799342E-03    1.7488234939E-03
    1.7294819742E-03    1.7103530356E-03    1.6914343637E-03    1.6727236691E-03
    1.6542186867E-03    1.6359171759E-03    1.6178169201E-03    1.5999157265E-03
    1.5822114260E-03    1.5647018726E-03    1.5473849435E-03    1.5302585385E-03
    1.5133205803E-03    1.4965690138E-03    1.4800018058E-03    1.4636169454E-03
    1.4474124430E-03    1.4313863305E-03    1.4155366611E-03    1.3998615088E-03
    1.3843589684E-03    1.3690271554E-03    1.3538642053E-03    1.3388682740E-03
    1.3240375371E-03    1.3093701899E-03    1.2948644471E-03    1.2805185429E-03
    1.2663307302E-03    1.2522992812E-03    1.2384224862E-03    1.2246986546E-03
    1.2111261134E-03    1.1977032082E-03    1.1844283022E-03    1.1712997764E-03
    1.1583160291E-03    1.1454754762E-03    1.1327765506E-03    1.1202177021E-03
    1.1077973974E-03    1.0955141195E-03    1.0833663682E-03    1.0713526593E-03
    1.0594715247E-03    1.0477215122E-03    1.0361011855E-03    1.0246091235E-03
    1.0132439208E-03    1.0020041871E-03    9.9088854725E-04    9.7989564091E-04
    9.6902412254E-04    9.5827266118E-04    9.4763994032E-04    9.3712465771E-04
    9.2672552525E-04    9.1644126881E-04    9.0627062808E-04    8.9621235645E-04
    8.8626522083E-04    8.7642800153E-04    8.6669949211E-04    8.5707849923E-04
    8.4756384251E-04    8.3815435441E-04    8.2884888008E-04    8.1964627722E-04
    8.1054541594E-04    8.0154517866E-04    7.9264445994E-04    7.8384216637E-04
    7.7513721643E-04    7.6652854038E-04    7.5801508012E-04    7.4959578905E-04
    7.4126963200E-04    7.3303558505E-04    7.2489263542E-04    7.1683978139E-04
    7.0887603213E-04    7.0100040761E-04    6.9321193850E-04    6.8550966601E-04
    6.7789264182E-04    6.7035992793E-04    6.6291059659E-04    6.5554373016E-04
    6.4825842099E-04    6.4105377137E-04    6.3392889336E-04    6.2688290871E-04
    6.1991494875E-04    6.1302415433E-04    6.0620967562E-04    5.9947067213E-04
    5.9280631250E-04    5.8621577448E-04    5.7969824479E-04    5.7325291904E-04
    5.6687900163E-04    5.6057570565E-04    5.5434225279E-04    5.4817787325E-04
    5.4208180566E-04    5.3605329695E-04    5.3009160230E-04    5.2419598504E-04
    5.1836571655E-04    5.1260007619E-04    5.0689835119E-04    5.0125983660E-04
    4.9568383517E-04    4.9016965729E-04    4.8471662090E-04    4.7932405140E-04
    4.7399128158E-04    4.6871765154E-04    4.6350250862E-04    4.5834520729E-04
    4.5324510909E-04    4.4820158258E-04    4.4321400322E-04    4.3828175332E-04
    4.3340422196E-04    4.2858080491E-04    4.2381090460E-04    4.1909392996E-04
    4.1442929644E-04    4.0981642589E-04    4.0525474649E-04    4.0074369272E-04
    3.9628270524E-04    3.9187123086E-04    3.8750872247E-04    3.8319463893E-04
    3.7892844508E-04    3.7470961161E-04    3.7053761504E-04    3.6641193762E-04
    3.6233206730E-04    3.5829749764E-04    3.5430772778E-04    3.5036226234E-04
    3.4646061142E-04    3.4260229045E-04    3.3878682024E-04    3.3501372682E-04
    3.3128254147E-04    3.2759280058E-04    3.2394404568E-04    3.2033582331E-04
    3.1676768500E-04    3.1323918724E-04    3.0974989136E-04    3.0629936353E-04
    3.0288717470E-04    2.9951290054E-04    2.9617612138E-04    2.9287642217E-04
    2.8961339243E-04    2.8638662619E-04    2.8319572196E-04    2.8004028267E-04
    2.7691991562E-04    2.7383423242E-04    2.7078284897E-04    2.6776538540E-04
    2.6478146603E-04    2.6183071929E-04    2.5891277774E-04    2.5602727796E-04
    2.5317386054E-04    2.5035217005E-04    2.4756185495E-04    2.4480256759E-04
    2.4207396415E-04    2.3937570459E-04    2.3670745263E-04    2.3406887569E-04
    2.3145964487E-04    2.2887943488E-04    2.2632792402E-04    2.2380479414E-04
    2.2130973062E-04    2.1884242227E-04    2.1640256136E-04    2.1398984356E-04
    2.1160396787E-04    2.0924463665E-04    2.0691155550E-04    2.0460443331E-04
    2.0232298215E-04    2.0006691730E-04    1.9783595715E-04    1.9562982323E-04
    1.9344824012E-04    1.9129093545E-04    1.8915763986E-04    1.8704808696E-04
    1.8496201331E-04    1.8289915838E-04    1.8085926450E-04    1.7884207686E-04
    1.7684734347E-04    1.7487481512E-04    1.7292424535E-04    1.7099539042E-04
    1.6908800928E-04    1.6720186358E-04    1.6533671755E-04    1.6349233806E-04
    1.6166849456E-04    1.5986495903E-04    1.5808150598E-04    1.5631791242E-04
    1.5457395780E-04    1.5284942405E-04    1.5114409548E-04    1.4945775879E-04
    1.4779020305E-04    1.4614121965E-04    1.4451060230E-04    1.4289814699E-04
    1.4130365196E-04    1.3972691768E-04    1.3816774685E-04    1.3662594432E-04
    1.3510131712E-04    1.3359367442E-04    1.3210282750E-04    1.3062858970E-04
    1.2917077648E-04    1.2772920529E-04    1.2630369563E-04    1.2489406900E-04
    1.2350014886E-04    1.2212176063E-04    1.2075873168E-04    1.1941089126E-04
    1.1807807055E-04    1.1676010257E-04    1.1545682220E-04    1.1416806615E-04
    1.1289367293E-04    1.1163348285E-04    1.1038733798E-04    1.0915508216E-04
    1.0793656093E-04    1.0673162157E-04    1.0554011303E-04    1.0436188595E-04
    1.0319679261E-04    1.0204468694E-04    1.0090542450E-04    9.9778862411E-05
    9.8664859421E-05    9.7563275821E-05    9.6473973457E-05    9.5396815707E-05
    9.4331667461E-05    9.3278395111E-05    9.2236866528E-05    9.1206951049E-05
    9.0188519461E-05    8.9181443984E-05    8.8185598254E-05    8.7200857309E-05
    8.6227097574E-05    8.5264196846E-05    8.4312034274E-05    8.3370490352E-05
    8.2439446897E-05    8.1518787040E-05    8.0608395205E-05    7.9708157103E-05
    7.8817959709E-05    7.7937691257E-05    7.7067241218E-05    7.6206500290E-05
    7.5355360387E-05    7.4513714618E-05    7.3681457285E-05    7.2858483857E-05
    7.2044690967E-05    7.1239976396E-05    7.0444239058E-05    6.9657378992E-05
    6.8879297343E-05    6.8109896357E-05    6.7349079366E-05    6.6596750773E-05
    6.5852816044E-05    6.5117181695E-05    6.4389755281E-05    6.3670445382E-05
    6.2959161596E-05    6.2255814523E-05    6.1560315758E-05    6.0872577876E-05
    6.0192514426E-05    5.9520039915E-05    5.8855069801E-05    5.8197520482E-05
    5.7547309285E-05    5.6904354454E-05    5.6268575143E-05    5.5639891405E-05
    5.5018224181E-05    5.4403495289E-05    5.3795627418E-05    5.3194544116E-05
    5.2600169781E-05    5.2012429650E-05    5.1431249794E-05    5.0856557103E-05
    5.0288279280E-05    4.9726344834E-05    4.9170683068E-05    4.8621224070E-05
    4.8077898705E-05    4.7540638610E-05    4.7009376179E-05    4.6484044558E-05
    4.5964577639E-05    4.5450910047E-05    4.4942977135E-05    4.4440714974E-05
    4.3944060348E-05    4.3452950742E-05    4.2967324338E-05    4.2487120006E-05
    4.2012277293E-05    4.1542736423E-05    4.1078438281E-05    4.0619324412E-05
    4.0165337012E-05    3.9716418917E-05    3.9272513603E-05    3.8833565171E-05
    3.8399518348E-05    3.7970318473E-05    3.7545911494E-05    3.7126243963E-05
    3.6711263022E-05    3.6300916407E-05    3.5895152431E-05    3.5493919985E-05
    3.5097168527E-05    3.4704848079E-05    3.4316909220E-05    3.3933303077E-05
    3.3553981323E-05    3.3178896167E-05    3.2808000352E-05    3.2441247146E-05
    3.2078590338E-05    3.1719984232E-05    3.1365383638E-05    3.1014743873E-05
    3.0668020748E-05    3.0325170570E-05    2.9986150129E-05    2.9650916697E-05
   </PP_CHI.1>
   <PP_CHI.2
       type="real"
       size="1148"
       columns="4"
       index="2"
       occupation=" 2.667"
       pseudo_energy="   -0.5130546359E+00"
       label="3P"
       l="1" >
   -7.3572224701E-13    6.7851546569E-05    2.7140479991E-04    6.1065550342E-04
    1.0855962395E-03    1.6962159464E-03    2.4424992442E-03    3.3244255734E-03
    4.3419681481E-03    5.4950927301E-03    6.7837562267E-03    8.2079051193E-03
    9.7674737284E-03    1.1462382322E-02    1.3292535077E-02    1.5257817895E-02
    1.7358096093E-02    1.9593211970E-02    2.1962982253E-02    2.4467195456E-02
    2.7105609135E-02    2.9877947066E-02    3.2783896360E-02    3.5823104517E-02
    3.8995176434E-02    4.2299671384E-02    4.5736099979E-02    4.9303921120E-02
    5.3002538956E-02    5.6831299868E-02    6.0789489477E-02    6.4876329702E-02
    6.9090975877E-02    7.3432513940E-02    7.7899957698E-02    8.2492246200E-02
    8.7208241209E-02    9.2046724797E-02    9.7006397070E-02    1.0208587404E-01
    1.0728368565E-01    1.1259827393E-01    1.1802799141E-01    1.2357109962E-01
    1.2922576779E-01    1.3499007187E-01    1.4086199357E-01    1.4683941976E-01
    1.5292014201E-01    1.5910185638E-01    1.6538216345E-01    1.7175856855E-01
    1.7822848225E-01    1.8478922106E-01    1.9143800841E-01    1.9817197584E-01
    2.0498816439E-01    2.1188352634E-01    2.1885492706E-01    2.2589914719E-01
    2.3301288498E-01    2.4019275887E-01    2.4743531038E-01    2.5473700705E-01
    2.6209424575E-01    2.6950335608E-01    2.7696060404E-01    2.8446219584E-01
    2.9200428190E-01    2.9958296101E-01    3.0719428470E-01    3.1483426166E-01
    3.2249886240E-01    3.3018402394E-01    3.3788565470E-01    3.4559963944E-01
    3.5332184428E-01    3.6104812181E-01    3.6877431632E-01    3.7649626895E-01
    3.8420982299E-01    3.9191082916E-01    3.9959515090E-01    4.0725866963E-01
    4.1489729005E-01    4.2250694534E-01    4.3008360239E-01    4.3762326687E-01
    4.4512198836E-01    4.5257586525E-01    4.5998104967E-01    4.6733375225E-01
    4.7463024675E-01    4.8186687460E-01    4.8904004926E-01    4.9614626046E-01
    5.0318207827E-01    5.1014415696E-01    5.1702923878E-01    5.2383415740E-01
    5.3055584134E-01    5.3719131703E-01    5.4373771181E-01    5.5019225656E-01
    5.5655228830E-01    5.6281525240E-01    5.6897870465E-01    5.7504031316E-01
    5.8099785987E-01    5.8684924200E-01    5.9259247319E-01    5.9822568438E-01
    6.0374712459E-01    6.0915516133E-01    6.1444828086E-01    6.1962508828E-01
    6.2468430728E-01    6.2962477983E-01    6.3444546550E-01    6.3914544076E-01
    6.4372389789E-01    6.4818014389E-01    6.5251359906E-01    6.5672379550E-01
    6.6081037537E-01    6.6477308904E-01    6.6861179311E-01    6.7232644816E-01
    6.7591711656E-01    6.7938395996E-01    6.8272723679E-01    6.8594729958E-01
    6.8904459226E-01    6.9201964724E-01    6.9487308257E-01    6.9760559886E-01
    7.0021797625E-01    7.0271107131E-01    7.0508581382E-01    7.0734320360E-01
    7.0948430726E-01    7.1151025491E-01    7.1342223690E-01    7.1522150055E-01
    7.1690934681E-01    7.1848712699E-01    7.1995623952E-01    7.2131812662E-01
    7.2257427115E-01    7.2372619330E-01    7.2477544752E-01    7.2572361932E-01
    7.2657232217E-01    7.2732319450E-01    7.2797789666E-01    7.2853810800E-01
    7.2900552397E-01    7.2938185330E-01    7.2966881521E-01    7.2986813675E-01
    7.2998155011E-01    7.3001079007E-01    7.2995759151E-01    7.2982368696E-01
    7.2961080421E-01    7.2932066407E-01    7.2895497809E-01    7.2851544644E-01
    7.2800375582E-01    7.2742157745E-01    7.2677056515E-01    7.2605235344E-01
    7.2526855577E-01    7.2442076282E-01    7.2351054082E-01    7.2253943005E-01
    7.2150894321E-01    7.2042056409E-01    7.1927574613E-01    7.1807591117E-01
    7.1682244823E-01    7.1551671245E-01    7.1416002594E-01    7.1275368353E-01
    7.1129895994E-01    7.0979711060E-01    7.0824936908E-01    7.0665694866E-01
    7.0502104226E-01    7.0334282257E-01    7.0162344229E-01    6.9986403423E-01
    6.9806571160E-01    6.9622956811E-01    6.9435667824E-01    6.9244809741E-01
    6.9050486223E-01    6.8852799063E-01    6.8651848217E-01    6.8447731822E-01
    6.8240546214E-01    6.8030385959E-01    6.7817343869E-01    6.7601511026E-01
    6.7382976806E-01    6.7161828901E-01    6.6938153344E-01    6.6712034527E-01
    6.6483555231E-01    6.6252796643E-01    6.6019838382E-01    6.5784758520E-01
    6.5547633609E-01    6.5308538698E-01    6.5067547360E-01    6.4824731713E-01
    6.4580162441E-01    6.4333908822E-01    6.4086038741E-01    6.3836618720E-01
    6.3585713937E-01    6.3333388246E-01    6.3079704199E-01    6.2824723072E-01
    6.2568504878E-01    6.2311108394E-01    6.2052591179E-01    6.1793009595E-01
    6.1532418827E-01    6.1270872902E-01    6.1008424710E-01    6.0745126024E-01
    6.0481027517E-01    6.0216178781E-01    5.9950628349E-01    5.9684423709E-01
    5.9417611325E-01    5.9150236654E-01    5.8882344165E-01    5.8613977352E-01
    5.8345178758E-01    5.8075989984E-01    5.7806451715E-01    5.7536603725E-01
    5.7266484905E-01    5.6996133270E-01    5.6725585978E-01    5.6454879345E-01
    5.6184048862E-01    5.5913129206E-01    5.5642154258E-01    5.5371157116E-01
    5.5100170109E-01    5.4829224811E-01    5.4558352056E-01    5.4287581950E-01
    5.4016943883E-01    5.3746466546E-01    5.3476177941E-01    5.3206105392E-01
    5.2936275563E-01    5.2666714463E-01    5.2397447463E-01    5.2128499306E-01
    5.1859894118E-01    5.1591655422E-01    5.1323806146E-01    5.1056368633E-01
    5.0789364657E-01    5.0522815429E-01    5.0256741607E-01    4.9991163312E-01
    4.9726100130E-01    4.9461571128E-01    4.9197594860E-01    4.8934189379E-01
    4.8671372244E-01    4.8409160533E-01    4.8147570845E-01    4.7886619318E-01
    4.7626321629E-01    4.7366693010E-01    4.7107748250E-01    4.6849501708E-01
    4.6591967319E-01    4.6335158601E-01    4.6079088666E-01    4.5823770225E-01
    4.5569215595E-01    4.5315436711E-01    4.5062445127E-01    4.4810252029E-01
    4.4558868237E-01    4.4308304216E-01    4.4058570082E-01    4.3809675606E-01
    4.3561630224E-01    4.3314443043E-01    4.3068122844E-01    4.2822678093E-01
    4.2578116944E-01    4.2334447248E-01    4.2091676555E-01    4.1849812123E-01
    4.1608860924E-01    4.1368829647E-01    4.1129724706E-01    4.0891552244E-01
    4.0654318142E-01    4.0418028018E-01    4.0182687238E-01    3.9948300918E-01
    3.9714873933E-01    3.9482410915E-01    3.9250916266E-01    3.9020394156E-01
    3.8790848532E-01    3.8562283124E-01    3.8334701443E-01    3.8108106793E-01
    3.7882502270E-01    3.7657890771E-01    3.7434274994E-01    3.7211657446E-01
    3.6990040445E-01    3.6769426123E-01    3.6549816436E-01    3.6331213159E-01
    3.6113617898E-01    3.5897032089E-01    3.5681457006E-01    3.5466893759E-01
    3.5253343303E-01    3.5040806439E-01    3.4829283819E-01    3.4618775948E-01
    3.4409283188E-01    3.4200805763E-01    3.3993343759E-01    3.3786897131E-01
    3.3581465705E-01    3.3377049177E-01    3.3173647126E-01    3.2971259005E-01
    3.2769884154E-01    3.2569521797E-01    3.2370171048E-01    3.2171830912E-01
    3.1974500290E-01    3.1778177979E-01    3.1582862675E-01    3.1388552981E-01
    3.1195247402E-01    3.1002944352E-01    3.0811642155E-01    3.0621339050E-01
    3.0432033189E-01    3.0243722644E-01    3.0056405407E-01    2.9870079393E-01
    2.9684742439E-01    2.9500392313E-01    2.9317026711E-01    2.9134643260E-01
    2.8953239521E-01    2.8772812990E-01    2.8593361102E-01    2.8414881231E-01
    2.8237370694E-01    2.8060826748E-01    2.7885246599E-01    2.7710627400E-01
    2.7536966251E-01    2.7364260204E-01    2.7192506264E-01    2.7021701391E-01
    2.6851842498E-01    2.6682926458E-01    2.6514950104E-01    2.6347910226E-01
    2.6181803580E-01    2.6016626884E-01    2.5852376821E-01    2.5689050041E-01
    2.5526643163E-01    2.5365152773E-01    2.5204575429E-01    2.5044907662E-01
    2.4886145974E-01    2.4728286844E-01    2.4571326725E-01    2.4415262048E-01
    2.4260089221E-01    2.4105804631E-01    2.3952404647E-01    2.3799885618E-01
    2.3648243877E-01    2.3497475738E-01    2.3347577501E-01    2.3198545452E-01
    2.3050375863E-01    2.2903064993E-01    2.2756609088E-01    2.2611004387E-01
    2.2466247115E-01    2.2322333489E-01    2.2179259720E-01    2.2037022009E-01
    2.1895616550E-01    2.1755039532E-01    2.1615287140E-01    2.1476355552E-01
    2.1338240944E-01    2.1200939487E-01    2.1064447353E-01    2.0928760707E-01
    2.0793875717E-01    2.0659788550E-01    2.0526495370E-01    2.0393992344E-01
    2.0262275641E-01    2.0131341428E-01    2.0001185878E-01    1.9871805164E-01
    1.9743195464E-01    1.9615352958E-01    1.9488273831E-01    1.9361954273E-01
    1.9236390477E-01    1.9111578645E-01    1.8987514980E-01    1.8864195695E-01
    1.8741617009E-01    1.8619775146E-01    1.8498666339E-01    1.8378286827E-01
    1.8258632860E-01    1.8139700693E-01    1.8021486592E-01    1.7903986829E-01
    1.7787197689E-01    1.7671115463E-01    1.7555736454E-01    1.7441056973E-01
    1.7327073343E-01    1.7213781897E-01    1.7101178978E-01    1.6989260940E-01
    1.6878024149E-01    1.6767464981E-01    1.6657579825E-01    1.6548365079E-01
    1.6439817157E-01    1.6331932481E-01    1.6224707488E-01    1.6118138625E-01
    1.6012222353E-01    1.5906955145E-01    1.5802333487E-01    1.5698353879E-01
    1.5595012831E-01    1.5492306869E-01    1.5390232531E-01    1.5288786367E-01
    1.5187964944E-01    1.5087764838E-01    1.4988182642E-01    1.4889214962E-01
    1.4790858415E-01    1.4693109636E-01    1.4595965271E-01    1.4499421980E-01
    1.4403476439E-01    1.4308125335E-01    1.4213365372E-01    1.4119193266E-01
    1.4025605747E-01    1.3932599562E-01    1.3840171469E-01    1.3748318241E-01
    1.3657036667E-01    1.3566323547E-01    1.3476175699E-01    1.3386589953E-01
    1.3297563153E-01    1.3209092158E-01    1.3121173842E-01    1.3033805092E-01
    1.2946982810E-01    1.2860703913E-01    1.2774965331E-01    1.2689764009E-01
    1.2605096905E-01    1.2520960993E-01    1.2437353261E-01    1.2354270710E-01
    1.2271710357E-01    1.2189669230E-01    1.2108144376E-01    1.2027132851E-01
    1.1946631729E-01    1.1866638096E-01    1.1787149053E-01    1.1708161715E-01
    1.1629673209E-01    1.1551680679E-01    1.1474181281E-01    1.1397172186E-01
    1.1320650577E-01    1.1244613653E-01    1.1169058625E-01    1.1093982720E-01
    1.1019383175E-01    1.0945257245E-01    1.0871602195E-01    1.0798415305E-01
    1.0725693869E-01    1.0653435193E-01    1.0581636599E-01    1.0510295419E-01
    1.0439409001E-01    1.0368974706E-01    1.0298989906E-01    1.0229451988E-01
    1.0160358353E-01    1.0091706413E-01    1.0023493594E-01    9.9557173357E-02
    9.8883750893E-02    9.8214643198E-02    9.7549825048E-02    9.6889271347E-02
    9.6232957127E-02    9.5580857545E-02    9.4932947887E-02    9.4289203563E-02
    9.3649600108E-02    9.3014113182E-02    9.2382718571E-02    9.1755392181E-02
    9.1132110046E-02    9.0512848319E-02    8.9897583276E-02    8.9286291315E-02
    8.8678948956E-02    8.8075532838E-02    8.7476019721E-02    8.6880386484E-02
    8.6288610127E-02    8.5700667766E-02    8.5116536636E-02    8.4536194090E-02
    8.3959617598E-02    8.3386784746E-02    8.2817673236E-02    8.2252260886E-02
    8.1690525630E-02    8.1132445513E-02    8.0577998697E-02    8.0027163458E-02
    7.9479918183E-02    7.8936241372E-02    7.8396111637E-02    7.7859507703E-02
    7.7326408405E-02    7.6796792687E-02    7.6270639606E-02    7.5747928325E-02
    7.5228638120E-02    7.4712748374E-02    7.4200238577E-02    7.3691088327E-02
    7.3185277331E-02    7.2682785400E-02    7.2183592455E-02    7.1687678518E-02
    7.1195023721E-02    7.0705608297E-02    7.0219412585E-02    6.9736417030E-02
    6.9256602176E-02    6.8779948674E-02    6.8306437276E-02    6.7836048835E-02
    6.7368764308E-02    6.6904564751E-02    6.6443431323E-02    6.5985345282E-02
    6.5530287986E-02    6.5078240891E-02    6.4629185556E-02    6.4183103635E-02
    6.3739976881E-02    6.3299787145E-02    6.2862516377E-02    6.2428146620E-02
    6.1996660018E-02    6.1568038806E-02    6.1142265320E-02    6.0719321988E-02
    6.0299191332E-02    5.9881855972E-02    5.9467298617E-02    5.9055502074E-02
    5.8646449242E-02    5.8240123111E-02    5.7836506764E-02    5.7435583378E-02
    5.7037336218E-02    5.6641748644E-02    5.6248804104E-02    5.5858486138E-02
    5.5470778373E-02    5.5085664530E-02    5.4703128415E-02    5.4323153926E-02
    5.3945725047E-02    5.3570825852E-02    5.3198440501E-02    5.2828553241E-02
    5.2461148408E-02    5.2096210422E-02    5.1733723792E-02    5.1373673109E-02
    5.1016043052E-02    5.0660818385E-02    5.0307983955E-02    4.9957524694E-02
    4.9609425618E-02    4.9263671827E-02    4.8920248503E-02    4.8579140911E-02
    4.8240334400E-02    4.7903814398E-02    4.7569566417E-02    4.7237576049E-02
    4.6907828968E-02    4.6580310929E-02    4.6255007765E-02    4.5931905390E-02
    4.5610989799E-02    4.5292247064E-02    4.4975663336E-02    4.4661224847E-02
    4.4348917903E-02    4.4038728891E-02    4.3730644274E-02    4.3424650593E-02
    4.3120734464E-02    4.2818882581E-02    4.2519081713E-02    4.2221318705E-02
    4.1925580478E-02    4.1631854027E-02    4.1340126422E-02    4.1050384807E-02
    4.0762616401E-02    4.0476808496E-02    4.0192948456E-02    3.9911023719E-02
    3.9631021797E-02    3.9352930273E-02    3.9076736801E-02    3.8802429108E-02
    3.8529994992E-02    3.8259422322E-02    3.7990699037E-02    3.7723813147E-02
    3.7458752732E-02    3.7195505941E-02    3.6934060993E-02    3.6674406175E-02
    3.6416529844E-02    3.6160420424E-02    3.5906066409E-02    3.5653456359E-02
    3.5402578901E-02    3.5153422730E-02    3.4905976609E-02    3.4660229365E-02
    3.4416169892E-02    3.4173787151E-02    3.3933070167E-02    3.3694008030E-02
    3.3456589896E-02    3.3220804985E-02    3.2986642581E-02    3.2754092033E-02
    3.2523142752E-02    3.2293784213E-02    3.2066005955E-02    3.1839797578E-02
    3.1615148745E-02    3.1392049182E-02    3.1170488675E-02    3.0950457073E-02
    3.0731944286E-02    3.0514940285E-02    3.0299435099E-02    3.0085418821E-02
    2.9872881601E-02    2.9661813651E-02    2.9452205241E-02    2.9244046701E-02
    2.9037328417E-02    2.8832040838E-02    2.8628174467E-02    2.8425719867E-02
    2.8224667660E-02    2.8025008521E-02    2.7826733186E-02    2.7629832446E-02
    2.7434297148E-02    2.7240118197E-02    2.7047286552E-02    2.6855793229E-02
    2.6665629297E-02    2.6476785883E-02    2.6289254167E-02    2.6103025383E-02
    2.5918090820E-02    2.5734441822E-02    2.5552069783E-02    2.5370966155E-02
    2.5191122439E-02    2.5012530190E-02    2.4835181018E-02    2.4659066581E-02
    2.4484178592E-02    2.4310508814E-02    2.4138049062E-02    2.3966791203E-02
    2.3796727153E-02    2.3627848880E-02    2.3460148401E-02    2.3293617785E-02
    2.3128249149E-02    2.2964034659E-02    2.2800966533E-02    2.2639037035E-02
    2.2478238479E-02    2.2318563228E-02    2.2160003692E-02    2.2002552330E-02
    2.1846201647E-02    2.1690944198E-02    2.1536772582E-02    2.1383679447E-02
    2.1231657487E-02    2.1080699443E-02    2.0930798100E-02    2.0781946293E-02
    2.0634136897E-02    2.0487362837E-02    2.0341617082E-02    2.0196892643E-02
    2.0053182580E-02    1.9910479994E-02    1.9768778031E-02    1.9628069882E-02
    1.9488348781E-02    1.9349608004E-02    1.9211840872E-02    1.9075040748E-02
    1.8939201037E-02    1.8804315188E-02    1.8670376691E-02    1.8537379078E-02
    1.8405315923E-02    1.8274180841E-02    1.8143967489E-02    1.8014669565E-02
    1.7886280806E-02    1.7758794991E-02    1.7632205939E-02    1.7506507509E-02
    1.7381693601E-02    1.7257758152E-02    1.7134695141E-02    1.7012498583E-02
    1.6891162536E-02    1.6770681093E-02    1.6651048387E-02    1.6532258590E-02
    1.6414305911E-02    1.6297184597E-02    1.6180888931E-02    1.6065413237E-02
    1.5950751872E-02    1.5836899233E-02    1.5723849753E-02    1.5611597900E-02
    1.5500138180E-02    1.5389465134E-02    1.5279573339E-02    1.5170457409E-02
    1.5062111990E-02    1.4954531768E-02    1.4847711459E-02    1.4741645818E-02
    1.4636329632E-02    1.4531757723E-02    1.4427924947E-02    1.4324826196E-02
    1.4222456392E-02    1.4120810493E-02    1.4019883491E-02    1.3919670409E-02
    1.3820166304E-02    1.3721366267E-02    1.3623265419E-02    1.3525858915E-02
    1.3429141943E-02    1.3333109720E-02    1.3237757499E-02    1.3143080559E-02
    1.3049074217E-02    1.2955733815E-02    1.2863054731E-02    1.2771032370E-02
    1.2679662170E-02    1.2588939598E-02    1.2498860154E-02    1.2409419364E-02
    1.2320612786E-02    1.2232436009E-02    1.2144884649E-02    1.2057954353E-02
    1.1971640797E-02    1.1885939685E-02    1.1800846750E-02    1.1716357755E-02
    1.1632468491E-02    1.1549174776E-02    1.1466472456E-02    1.1384357408E-02
    1.1302825532E-02    1.1221872760E-02    1.1141495049E-02    1.1061688384E-02
    1.0982448777E-02    1.0903772265E-02    1.0825654916E-02    1.0748092820E-02
    1.0671082096E-02    1.0594618888E-02    1.0518699368E-02    1.0443319732E-02
    1.0368476202E-02    1.0294165026E-02    1.0220382478E-02    1.0147124855E-02
    1.0074388482E-02    1.0002169706E-02    9.9304649019E-03    9.8592704668E-03
    9.7885828233E-03    9.7183984179E-03    9.6487137215E-03    9.5795252290E-03
    9.5108294590E-03    9.4426229539E-03    9.3749022795E-03    9.3076640251E-03
    9.2409048032E-03    9.1746212495E-03    9.1088100225E-03    9.0434678035E-03
    8.9785912965E-03    8.9141772281E-03    8.8502223471E-03    8.7867234245E-03
    8.7236772535E-03    8.6610806491E-03    8.5989304484E-03    8.5372235096E-03
    8.4759567129E-03    8.4151269597E-03    8.3547311725E-03    8.2947662951E-03
    8.2352292921E-03    8.1761171491E-03    8.1174268722E-03    8.0591554881E-03
    8.0013000440E-03    7.9438576074E-03    7.8868252657E-03    7.8302001266E-03
    7.7739793177E-03    7.7181599861E-03    7.6627392988E-03    7.6077144421E-03
    7.5530826218E-03    7.4988410630E-03    7.4449870098E-03    7.3915177254E-03
    7.3384304917E-03    7.2857226095E-03    7.2333913983E-03    7.1814341959E-03
    7.1298483587E-03    7.0786312611E-03    7.0277802959E-03    6.9772928737E-03
    6.9271664233E-03    6.8773983909E-03    6.8279862408E-03    6.7789274544E-03
    6.7302195309E-03    6.6818599866E-03    6.6338463551E-03    6.5861761872E-03
    6.5388470503E-03    6.4918565291E-03    6.4452022249E-03    6.3988817555E-03
    6.3528927554E-03    6.3072328755E-03    6.2618997830E-03    6.2168911612E-03
    6.1722047096E-03    6.1278381437E-03    6.0837891949E-03    6.0400556102E-03
    5.9966351525E-03    5.9535256002E-03    5.9107247471E-03    5.8682304024E-03
    5.8260403905E-03    5.7841525510E-03    5.7425647386E-03    5.7012748229E-03
    5.6602806883E-03    5.6195802341E-03    5.5791713742E-03    5.5390520368E-03
    5.4992201650E-03    5.4596737160E-03    5.4204106612E-03    5.3814289862E-03
    5.3427266910E-03    5.3043017891E-03    5.2661523081E-03    5.2282762895E-03
    5.1906717883E-03    5.1533368732E-03    5.1162696263E-03    5.0794681434E-03
    5.0429305333E-03    5.0066549183E-03    4.9706394336E-03    4.9348822277E-03
    4.8993814619E-03    4.8641353104E-03    4.8291419604E-03    4.7943996115E-03
    4.7599064762E-03    4.7256607794E-03    4.6916607584E-03    4.6579046630E-03
    4.6243907552E-03    4.5911173092E-03    4.5580826113E-03    4.5252849601E-03
    4.4927226657E-03    4.4603940503E-03    4.4282974480E-03    4.3964312045E-03
    4.3647936771E-03    4.3333832347E-03    4.3021982576E-03    4.2712371376E-03
    4.2404982778E-03    4.2099800924E-03    4.1796810069E-03    4.1495994579E-03
    4.1197338929E-03    4.0900827704E-03    4.0606445598E-03    4.0314177413E-03
    4.0024008055E-03    3.9735922542E-03    3.9449905992E-03    3.9165943631E-03
    3.8884020790E-03    3.8604122900E-03    3.8326235498E-03    3.8050344222E-03
    3.7776434811E-03    3.7504493105E-03    3.7234505044E-03    3.6966456667E-03
    3.6700334112E-03    3.6436123614E-03    3.6173811507E-03    3.5913384220E-03
    3.5654828278E-03    3.5398130302E-03    3.5143277008E-03    3.4890255204E-03
    3.4639051794E-03    3.4389653771E-03    3.4142048224E-03    3.3896222331E-03
    3.3652163360E-03    3.3409858672E-03    3.3169295716E-03    3.2930462028E-03
    3.2693345235E-03    3.2457933050E-03    3.2224213274E-03    3.1992173794E-03
    3.1761802583E-03    3.1533087699E-03    3.1306017284E-03    3.1080579566E-03
    3.0856762854E-03    3.0634555542E-03    3.0413946105E-03    3.0194923101E-03
    2.9977475167E-03    2.9761591022E-03    2.9547259467E-03    2.9334469378E-03
    2.9123209714E-03    2.8913469510E-03    2.8705237881E-03    2.8498504016E-03
    2.8293257184E-03    2.8089486729E-03    2.7887182070E-03    2.7686332703E-03
    2.7486928196E-03    2.7288958193E-03    2.7092412412E-03    2.6897280643E-03
    2.6703552748E-03    2.6511218663E-03    2.6320268393E-03    2.6130692018E-03
    2.5942479684E-03    2.5755621611E-03    2.5570108085E-03    2.5385929464E-03
    2.5203076174E-03    2.5021538708E-03    2.4841307627E-03    2.4662373560E-03
    2.4484727203E-03    2.4308359317E-03    2.4133260728E-03    2.3959422331E-03
    2.3786835082E-03    2.3615490004E-03    2.3445378181E-03    2.3276490765E-03
    2.3108818966E-03    2.2942354061E-03    2.2777087386E-03    2.2613010341E-03
    2.2450114385E-03    2.2288391041E-03    2.2127831890E-03    2.1968428574E-03
    2.1810172793E-03    2.1653056309E-03    2.1497070941E-03    2.1342208566E-03
    2.1188461121E-03    2.1035820598E-03    2.0884279047E-03    2.0733828576E-03
    2.0584461349E-03    2.0436169584E-03    2.0288945556E-03    2.0142781596E-03
    1.9997670088E-03    1.9853603471E-03    1.9710574239E-03    1.9568574938E-03
    1.9427598169E-03    1.9287636584E-03    1.9148682889E-03    1.9010729841E-03
    1.8873770249E-03    1.8737796975E-03    1.8602802930E-03    1.8468781076E-03
    1.8335724426E-03    1.8203626043E-03    1.8072479038E-03    1.7942276573E-03
    1.7813011859E-03    1.7684678155E-03    1.7557268767E-03    1.7430777050E-03
    1.7305196408E-03    1.7180520290E-03    1.7056742192E-03    1.6933855657E-03
    1.6811854276E-03    1.6690731683E-03    1.6570481558E-03    1.6451097628E-03
    1.6332573664E-03    1.6214903481E-03    1.6098080939E-03    1.5982099941E-03
    1.5866954436E-03    1.5752638413E-03    1.5639145906E-03    1.5526470992E-03
    1.5414607790E-03    1.5303550460E-03    1.5193293206E-03    1.5083830272E-03
    1.4975155943E-03    1.4867264546E-03    1.4760150447E-03    1.4653808056E-03
    1.4548231819E-03    1.4443416223E-03    1.4339355795E-03    1.4236045103E-03
    1.4133478749E-03    1.4031651380E-03    1.3930557676E-03    1.3830192357E-03
    1.3730550183E-03    1.3631625948E-03    1.3533414486E-03    1.3435910666E-03
    1.3339109397E-03    1.3243005620E-03    1.3147594316E-03    1.3052870500E-03
    1.2958829224E-03    1.2865465574E-03    1.2772774674E-03    1.2680751679E-03
    1.2589391782E-03    1.2498690210E-03    1.2408642222E-03    1.2319243114E-03
    1.2230488215E-03    1.2142372885E-03    1.2054892520E-03    1.1968042549E-03
   </PP_CHI.2>
   <PP_CHI.3
       type="real"
       size="1148"
       columns="4"
       index="3"
       occupation=" 1.333"
       pseudo_energy="   -0.5192080629E+00"
       label="3P"
       l="1" >
   -7.3152161412E-13    6.8954133771E-05    2.7581391337E-04    6.2057137761E-04
    1.1032129398E-03    1.7237189118E-03    2.4820628415E-03    3.3782106638E-03
    4.4121196717E-03    5.5837373094E-03    6.8929997928E-03    8.3398305636E-03
    9.9241385828E-03    1.1645816471E-02    1.3504738501E-02    1.5500758455E-02
    1.7633707354E-02    1.9903391059E-02    2.2309587776E-02    2.4852045448E-02
    2.7530479070E-02    3.0344567916E-02    3.3293952707E-02    3.6378232724E-02
    3.9596962874E-02    4.2949650734E-02    4.6435753572E-02    5.0054675367E-02
    5.3805763834E-02    5.7688307474E-02    6.1701532659E-02    6.5844600758E-02
    7.0116605332E-02    7.4516569391E-02    7.9043442748E-02    8.3696099458E-02
    8.8473335379E-02    9.3373865840E-02    9.8396323456E-02    1.0353925607E-01
    1.0880112488E-01    1.1418030266E-01    1.1967507225E-01    1.2528362518E-01
    1.3100406044E-01    1.3683438353E-01    1.4277250568E-01    1.4881624324E-01
    1.5496331739E-01    1.6121135397E-01    1.6755788359E-01    1.7400034197E-01
    1.8053607047E-01    1.8716231695E-01    1.9387623675E-01    2.0067489398E-01
    2.0755526307E-01    2.1451423046E-01    2.2154859664E-01    2.2865507831E-01
    2.3583031089E-01    2.4307085111E-01    2.5037317998E-01    2.5773370583E-01
    2.6514876763E-01    2.7261463854E-01    2.8012752954E-01    2.8768359341E-01
    2.9527892869E-01    3.0290958397E-01    3.1057156228E-01    3.1826082555E-01
    3.2597329933E-01    3.3370487758E-01    3.4145142750E-01    3.4920879456E-01
    3.5697280758E-01    3.6473928387E-01    3.7250403443E-01    3.8026286917E-01
    3.8801160227E-01    3.9574605741E-01    4.0346207310E-01    4.1115550799E-01
    4.1882224614E-01    4.2645820223E-01    4.3405932680E-01    4.4162161134E-01
    4.4914109337E-01    4.5661386138E-01    4.6403605971E-01    4.7140389334E-01
    4.7871363244E-01    4.8596161695E-01    4.9314426088E-01    5.0025805656E-01
    5.0729957860E-01    5.1426548784E-01    5.2115253494E-01    5.2795756396E-01
    5.3467751556E-01    5.4130943019E-01    5.4785045088E-01    5.5429782597E-01
    5.6064891156E-01    5.6690117369E-01    5.7305219039E-01    5.7909965344E-01
    5.8504136993E-01    5.9087526355E-01    5.9659937574E-01    6.0221186648E-01
    6.0771101495E-01    6.1309521999E-01    6.1836300021E-01    6.2351299401E-01
    6.2854395933E-01    6.3345477318E-01    6.3824443102E-01    6.4291204582E-01
    6.4745684708E-01    6.5187817956E-01    6.5617550182E-01    6.6034838468E-01
    6.6439650939E-01    6.6831966573E-01    6.7211774993E-01    6.7579076246E-01
    6.7933880563E-01    6.8276208115E-01    6.8606088752E-01    6.8923561730E-01
    6.9228675433E-01    6.9521487082E-01    6.9802062439E-01    7.0070475500E-01
    7.0326808185E-01    7.0571150020E-01    7.0803597818E-01    7.1024255353E-01
    7.1233233030E-01    7.1430647558E-01    7.1616621615E-01    7.1791283519E-01
    7.1954766894E-01    7.2107210338E-01    7.2248757093E-01    7.2379554717E-01
    7.2499754759E-01    7.2609512434E-01    7.2708986303E-01    7.2798337963E-01
    7.2877731728E-01    7.2947334329E-01    7.3007314612E-01    7.3057843240E-01
    7.3099092404E-01    7.3131235540E-01    7.3154447053E-01    7.3168902042E-01
    7.3174776039E-01    7.3172244747E-01    7.3161483795E-01    7.3142668490E-01
    7.3115973580E-01    7.3081573027E-01    7.3039639783E-01    7.2990345572E-01
    7.2933860687E-01    7.2870353786E-01    7.2799991697E-01    7.2722939235E-01
    7.2639359020E-01    7.2549411309E-01    7.2453253826E-01    7.2351041613E-01
    7.2242926870E-01    7.2129058815E-01    7.2009583548E-01    7.1884643921E-01
    7.1754379419E-01    7.1618926052E-01    7.1478416547E-01    7.1332980978E-01
    7.1182747279E-01    7.1027841195E-01    7.0868386421E-01    7.0704504556E-01
    7.0536315141E-01    7.0363935680E-01    7.0187481650E-01    7.0007066530E-01
    6.9822801812E-01    6.9634797025E-01    6.9443159756E-01    6.9247995669E-01
    6.9049408528E-01    6.8847500221E-01    6.8642370775E-01    6.8434118387E-01
    6.8222839441E-01    6.8008628533E-01    6.7791578492E-01    6.7571780407E-01
    6.7349323647E-01    6.7124295883E-01    6.6896783119E-01    6.6666869703E-01
    6.6434638364E-01    6.6200170225E-01    6.5963544830E-01    6.5724840169E-01
    6.5484132701E-01    6.5241497371E-01    6.4997007644E-01    6.4750735517E-01
    6.4502751548E-01    6.4253124877E-01    6.4001923250E-01    6.3749213038E-01
    6.3495059261E-01    6.3239525611E-01    6.2982674471E-01    6.2724566940E-01
    6.2465262850E-01    6.2204820791E-01    6.1943298129E-01    6.1680751028E-01
    6.1417234471E-01    6.1152802277E-01    6.0887507126E-01    6.0621400573E-01
    6.0354533072E-01    6.0086953992E-01    5.9818711636E-01    5.9549853262E-01
    5.9280425101E-01    5.9010472371E-01    5.8740039299E-01    5.8469169139E-01
    5.8197904185E-01    5.7926285792E-01    5.7654354391E-01    5.7382149507E-01
    5.7109709773E-01    5.6837072948E-01    5.6564275930E-01    5.6291354777E-01
    5.6018344715E-01    5.5745280160E-01    5.5472194726E-01    5.5199121247E-01
    5.4926091784E-01    5.4653137643E-01    5.4380289389E-01    5.4107576858E-01
    5.3835029171E-01    5.3562674748E-01    5.3290541318E-01    5.3018655935E-01
    5.2747044989E-01    5.2475734218E-01    5.2204748720E-01    5.1934112965E-01
    5.1663850808E-01    5.1393985498E-01    5.1124539690E-01    5.0855535457E-01
    5.0586994299E-01    5.0318937156E-01    5.0051384417E-01    4.9784355929E-01
    4.9517871009E-01    4.9251948454E-01    4.8986606550E-01    4.8721863081E-01
    4.8457735339E-01    4.8194240134E-01    4.7931393800E-01    4.7669212209E-01
    4.7407710775E-01    4.7146904465E-01    4.6886807807E-01    4.6627434899E-01
    4.6368799414E-01    4.6110914612E-01    4.5853793347E-01    4.5597448073E-01
    4.5341890852E-01    4.5087133363E-01    4.4833186908E-01    4.4580062421E-01
    4.4327770472E-01    4.4076321276E-01    4.3825724701E-01    4.3575990272E-01
    4.3327127180E-01    4.3079144287E-01    4.2832050134E-01    4.2585852945E-01
    4.2340560636E-01    4.2096180818E-01    4.1852720807E-01    4.1610187625E-01
    4.1368588010E-01    4.1127928422E-01    4.0888215043E-01    4.0649453789E-01
    4.0411650312E-01    4.0174810007E-01    3.9938938016E-01    3.9704039233E-01
    3.9470118312E-01    3.9237179667E-01    3.9005227481E-01    3.8774265712E-01
    3.8544298091E-01    3.8315328136E-01    3.8087359149E-01    3.7860394224E-01
    3.7634436251E-01    3.7409487920E-01    3.7185551727E-01    3.6962629976E-01
    3.6740724785E-01    3.6519838089E-01    3.6299971643E-01    3.6081127031E-01
    3.5863305663E-01    3.5646508785E-01    3.5430737478E-01    3.5215992666E-01
    3.5002275116E-01    3.4789585444E-01    3.4577924118E-01    3.4367291461E-01
    3.4157687656E-01    3.3949112747E-01    3.3741566644E-01    3.3535049127E-01
    3.3329559847E-01    3.3125098330E-01    3.2921663982E-01    3.2719256089E-01
    3.2517873824E-01    3.2317516244E-01    3.2118182301E-01    3.1919870836E-01
    3.1722580588E-01    3.1526310198E-01    3.1331058203E-01    3.1136823048E-01
    3.0943603086E-01    3.0751396576E-01    3.0560201692E-01    3.0370016522E-01
    3.0180839071E-01    2.9992667262E-01    2.9805498942E-01    2.9619331882E-01
    2.9434163777E-01    2.9249992254E-01    2.9066814868E-01    2.8884629109E-01
    2.8703432401E-01    2.8523222104E-01    2.8343995520E-01    2.8165749890E-01
    2.7988482398E-01    2.7812190174E-01    2.7636870295E-01    2.7462519785E-01
    2.7289135619E-01    2.7116714726E-01    2.6945253987E-01    2.6774750239E-01
    2.6605200277E-01    2.6436600853E-01    2.6268948681E-01    2.6102240436E-01
    2.5936472758E-01    2.5771642252E-01    2.5607745486E-01    2.5444778999E-01
    2.5282739299E-01    2.5121622864E-01    2.4961426143E-01    2.4802145560E-01
    2.4643777512E-01    2.4486318372E-01    2.4329764489E-01    2.4174112193E-01
    2.4019357790E-01    2.3865497568E-01    2.3712527795E-01    2.3560444724E-01
    2.3409244588E-01    2.3258923609E-01    2.3109477990E-01    2.2960903923E-01
    2.2813197588E-01    2.2666355151E-01    2.2520372770E-01    2.2375246592E-01
    2.2230972754E-01    2.2087547385E-01    2.1944966610E-01    2.1803226543E-01
    2.1662323294E-01    2.1522252969E-01    2.1383011668E-01    2.1244595489E-01
    2.1107000524E-01    2.0970222868E-01    2.0834258609E-01    2.0699103837E-01
    2.0564754642E-01    2.0431207112E-01    2.0298457338E-01    2.0166501410E-01
    2.0035335424E-01    1.9904955473E-01    1.9775357658E-01    1.9646538080E-01
    1.9518492846E-01    1.9391218066E-01    1.9264709856E-01    1.9138964337E-01
    1.9013977635E-01    1.8889745884E-01    1.8766265222E-01    1.8643531795E-01
    1.8521541758E-01    1.8400291271E-01    1.8279776504E-01    1.8159993634E-01
    1.8040938847E-01    1.7922608339E-01    1.7804998313E-01    1.7688104984E-01
    1.7571924576E-01    1.7456453323E-01    1.7341687469E-01    1.7227623269E-01
    1.7114256988E-01    1.7001584905E-01    1.6889603306E-01    1.6778308491E-01
    1.6667696773E-01    1.6557764474E-01    1.6448507929E-01    1.6339923487E-01
    1.6232007508E-01    1.6124756364E-01    1.6018166440E-01    1.5912234136E-01
    1.5806955862E-01    1.5702328043E-01    1.5598347117E-01    1.5495009536E-01
    1.5392311763E-01    1.5290250279E-01    1.5188821574E-01    1.5088022155E-01
    1.4987848541E-01    1.4888297268E-01    1.4789364882E-01    1.4691047946E-01
    1.4593343037E-01    1.4496246744E-01    1.4399755673E-01    1.4303866444E-01
    1.4208575690E-01    1.4113880060E-01    1.4019776216E-01    1.3926260836E-01
    1.3833330611E-01    1.3740982249E-01    1.3649212471E-01    1.3558018012E-01
    1.3467395624E-01    1.3377342071E-01    1.3287854134E-01    1.3198928607E-01
    1.3110562300E-01    1.3022752038E-01    1.2935494658E-01    1.2848787014E-01
    1.2762625976E-01    1.2677008426E-01    1.2591931262E-01    1.2507391395E-01
    1.2423385755E-01    1.2339911281E-01    1.2256964931E-01    1.2174543676E-01
    1.2092644501E-01    1.2011264406E-01    1.1930400407E-01    1.1850049532E-01
    1.1770208824E-01    1.1690875343E-01    1.1612046161E-01    1.1533718364E-01
    1.1455889054E-01    1.1378555346E-01    1.1301714371E-01    1.1225363271E-01
    1.1149499207E-01    1.1074119350E-01    1.0999220886E-01    1.0924801016E-01
    1.0850856954E-01    1.0777385930E-01    1.0704385186E-01    1.0631851977E-01
    1.0559783575E-01    1.0488177263E-01    1.0417030339E-01    1.0346340115E-01
    1.0276103914E-01    1.0206319077E-01    1.0136982954E-01    1.0068092913E-01
    9.9996463309E-02    9.9316406014E-02    9.8640731299E-02    9.7969413356E-02
    9.7302426507E-02    9.6639745206E-02    9.5981344040E-02    9.5327197726E-02
    9.4677281109E-02    9.4031569165E-02    9.3390037001E-02    9.2752659850E-02
    9.2119413073E-02    9.1490272160E-02    9.0865212726E-02    9.0244210515E-02
    8.9627241394E-02    8.9014281357E-02    8.8405306522E-02    8.7800293132E-02
    8.7199217552E-02    8.6602056272E-02    8.6008785903E-02    8.5419383180E-02
    8.4833824958E-02    8.4252088212E-02    8.3674150040E-02    8.3099987658E-02
    8.2529578402E-02    8.1962899727E-02    8.1399929207E-02    8.0840644531E-02
    8.0285023508E-02    7.9733044064E-02    7.9184684239E-02    7.8639922190E-02
    7.8098736188E-02    7.7561104622E-02    7.7027005991E-02    7.6496418909E-02
    7.5969322105E-02    7.5445694418E-02    7.4925514801E-02    7.4408762318E-02
    7.3895416144E-02    7.3385455563E-02    7.2878859972E-02    7.2375608877E-02
    7.1875681891E-02    7.1379058738E-02    7.0885719249E-02    7.0395643362E-02
    6.9908811124E-02    6.9425202687E-02    6.8944798311E-02    6.8467578360E-02
    6.7993523303E-02    6.7522613716E-02    6.7054830278E-02    6.6590153772E-02
    6.6128565083E-02    6.5670045202E-02    6.5214575219E-02    6.4762136329E-02
    6.4312709826E-02    6.3866277107E-02    6.3422819669E-02    6.2982319109E-02
    6.2544757124E-02    6.2110115510E-02    6.1678376163E-02    6.1249521075E-02
    6.0823532338E-02    6.0400392141E-02    5.9980082771E-02    5.9562586609E-02
    5.9147886136E-02    5.8735963925E-02    5.8326802647E-02    5.7920385067E-02
    5.7516694045E-02    5.7115712535E-02    5.6717423583E-02    5.6321810332E-02
    5.5928856014E-02    5.5538543956E-02    5.5150857575E-02    5.4765780382E-02
    5.4383295977E-02    5.4003388052E-02    5.3626040390E-02    5.3251236862E-02
    5.2878961431E-02    5.2509198146E-02    5.2141931149E-02    5.1777144667E-02
    5.1414823016E-02    5.1054950600E-02    5.0697511910E-02    5.0342491524E-02
    4.9989874107E-02    4.9639644408E-02    4.9291787263E-02    4.8946287595E-02
    4.8603130408E-02    4.8262300795E-02    4.7923783928E-02    4.7587565068E-02
    4.7253629557E-02    4.6921962818E-02    4.6592550360E-02    4.6265377772E-02
    4.5940430727E-02    4.5617694978E-02    4.5297156358E-02    4.4978800783E-02
    4.4662614250E-02    4.4348582832E-02    4.4036692686E-02    4.3726930047E-02
    4.3419281227E-02    4.3113732619E-02    4.2810270693E-02    4.2508881998E-02
    4.2209553159E-02    4.1912270878E-02    4.1617021937E-02    4.1323793190E-02
    4.1032571571E-02    4.0743344086E-02    4.0456097820E-02    4.0170819931E-02
    3.9887497651E-02    3.9606118289E-02    3.9326669225E-02    3.9049137915E-02
    3.8773511886E-02    3.8499778741E-02    3.8227926153E-02    3.7957941868E-02
    3.7689813705E-02    3.7423529552E-02    3.7159077372E-02    3.6896445196E-02
    3.6635621126E-02    3.6376593335E-02    3.6119350065E-02    3.5863879630E-02
    3.5610170409E-02    3.5358210855E-02    3.5107989484E-02    3.4859494886E-02
    3.4612715714E-02    3.4367640691E-02    3.4124258608E-02    3.3882558320E-02
    3.3642528753E-02    3.3404158895E-02    3.3167437801E-02    3.2932354595E-02
    3.2698898461E-02    3.2467058653E-02    3.2236824486E-02    3.2008185341E-02
    3.1781130662E-02    3.1555649960E-02    3.1331732804E-02    3.1109368831E-02
    3.0888547738E-02    3.0669259285E-02    3.0451493295E-02    3.0235239653E-02
    3.0020488304E-02    2.9807229255E-02    2.9595452573E-02    2.9385148389E-02
    2.9176306890E-02    2.8968918326E-02    2.8762973005E-02    2.8558461296E-02
    2.8355373624E-02    2.8153700477E-02    2.7953432398E-02    2.7754559990E-02
    2.7557073914E-02    2.7360964887E-02    2.7166223686E-02    2.6972841141E-02
    2.6780808143E-02    2.6590115636E-02    2.6400754623E-02    2.6212716160E-02
    2.6025991360E-02    2.5840571392E-02    2.5656447479E-02    2.5473610899E-02
    2.5292052982E-02    2.5111765117E-02    2.4932738742E-02    2.4754965352E-02
    2.4578436493E-02    2.4403143764E-02    2.4229078819E-02    2.4056233361E-02
    2.3884599148E-02    2.3714167989E-02    2.3544931743E-02    2.3376882322E-02
    2.3210011689E-02    2.3044311857E-02    2.2879774889E-02    2.2716392899E-02
    2.2554158052E-02    2.2393062560E-02    2.2233098686E-02    2.2074258742E-02
    2.1916535088E-02    2.1759920135E-02    2.1604406338E-02    2.1449986204E-02
    2.1296652286E-02    2.1144397184E-02    2.0993213547E-02    2.0843094070E-02
    2.0694031493E-02    2.0546018606E-02    2.0399048242E-02    2.0253113282E-02
    2.0108206651E-02    1.9964321321E-02    1.9821450308E-02    1.9679586674E-02
    1.9538723524E-02    1.9398854009E-02    1.9259971323E-02    1.9122068705E-02
    1.8985139438E-02    1.8849176846E-02    1.8714174298E-02    1.8580125207E-02
    1.8447023025E-02    1.8314861251E-02    1.8183633422E-02    1.8053333119E-02
    1.7923953966E-02    1.7795489626E-02    1.7667933805E-02    1.7541280247E-02
    1.7415522742E-02    1.7290655115E-02    1.7166671234E-02    1.7043565009E-02
    1.6921330385E-02    1.6799961350E-02    1.6679451931E-02    1.6559796194E-02
    1.6440988242E-02    1.6323022219E-02    1.6205892307E-02    1.6089592725E-02
    1.5974117732E-02    1.5859461622E-02    1.5745618729E-02    1.5632583424E-02
    1.5520350113E-02    1.5408913242E-02    1.5298267291E-02    1.5188406778E-02
    1.5079326256E-02    1.4971020315E-02    1.4863483581E-02    1.4756710715E-02
    1.4650696413E-02    1.4545435407E-02    1.4440922463E-02    1.4337152383E-02
    1.4234120002E-02    1.4131820190E-02    1.4030247852E-02    1.3929397926E-02
    1.3829265383E-02    1.3729845229E-02    1.3631132503E-02    1.3533122276E-02
    1.3435809652E-02    1.3339189769E-02    1.3243257797E-02    1.3148008937E-02
    1.3053438424E-02    1.2959541524E-02    1.2866313534E-02    1.2773749783E-02
    1.2681845633E-02    1.2590596474E-02    1.2499997729E-02    1.2410044852E-02
    1.2320733327E-02    1.2232058666E-02    1.2144016416E-02    1.2056602150E-02
    1.1969811472E-02    1.1883640017E-02    1.1798083446E-02    1.1713137454E-02
    1.1628797760E-02    1.1545060116E-02    1.1461920301E-02    1.1379374122E-02
    1.1297417416E-02    1.1216046045E-02    1.1135255903E-02    1.1055042910E-02
    1.0975403012E-02    1.0896332185E-02    1.0817826432E-02    1.0739881781E-02
    1.0662494289E-02    1.0585660039E-02    1.0509375142E-02    1.0433635733E-02
    1.0358437974E-02    1.0283778055E-02    1.0209652190E-02    1.0136056619E-02
    1.0062987608E-02    9.9904414495E-03    9.9184144589E-03    9.8469029785E-03
    9.7759033751E-03    9.7054120403E-03    9.6354253903E-03    9.5659398660E-03
    9.4969519323E-03    9.4284580786E-03    9.3604548182E-03    9.2929386883E-03
    9.2259062496E-03    9.1593540867E-03    9.0932788075E-03    9.0276770431E-03
    8.9625454476E-03    8.8978806984E-03    8.8336794954E-03    8.7699385614E-03
    8.7066546415E-03    8.6438245034E-03    8.5814449368E-03    8.5195127537E-03
    8.4580247878E-03    8.3969778949E-03    8.3363689523E-03    8.2761948588E-03
    8.2164525345E-03    8.1571389210E-03    8.0982509807E-03    8.0397856972E-03
    7.9817400748E-03    7.9241111384E-03    7.8668959338E-03    7.8100915268E-03
    7.7536950038E-03    7.6977034712E-03    7.6421140553E-03    7.5869239026E-03
    7.5321301791E-03    7.4777300706E-03    7.4237207823E-03    7.3700995387E-03
    7.3168635837E-03    7.2640101803E-03    7.2115366103E-03    7.1594401746E-03
    7.1077181928E-03    7.0563680029E-03    7.0053869616E-03    6.9547724440E-03
    6.9045218432E-03    6.8546325708E-03    6.8051020560E-03    6.7559277463E-03
    6.7071071065E-03    6.6586376195E-03    6.6105167855E-03    6.5627421221E-03
    6.5153111642E-03    6.4682214641E-03    6.4214705909E-03    6.3750561307E-03
    6.3289756867E-03    6.2832268785E-03    6.2378073424E-03    6.1927147314E-03
    6.1479467147E-03    6.1035009778E-03    6.0593752225E-03    6.0155671665E-03
    5.9720745436E-03    5.9288951034E-03    5.8860266114E-03    5.8434668483E-03
    5.8012136109E-03    5.7592647110E-03    5.7176179759E-03    5.6762712482E-03
    5.6352223856E-03    5.5944692605E-03    5.5540097608E-03    5.5138417886E-03
    5.4739632612E-03    5.4343721103E-03    5.3950662821E-03    5.3560437373E-03
    5.3173024509E-03    5.2788404122E-03    5.2406556244E-03    5.2027461050E-03
    5.1651098853E-03    5.1277450104E-03    5.0906495393E-03    5.0538215446E-03
    5.0172591124E-03    4.9809603424E-03    4.9449233474E-03    4.9091462538E-03
    4.8736272012E-03    4.8383643420E-03    4.8033558419E-03    4.7685998795E-03
    4.7340946460E-03    4.6998383458E-03    4.6658291955E-03    4.6320654245E-03
    4.5985452748E-03    4.5652670007E-03    4.5322288687E-03    4.4994291577E-03
    4.4668661587E-03    4.4345381749E-03    4.4024435213E-03    4.3705805248E-03
    4.3389475244E-03    4.3075428705E-03    4.2763649253E-03    4.2454120628E-03
    4.2146826682E-03    4.1841751382E-03    4.1538878810E-03    4.1238193158E-03
    4.0939678733E-03    4.0643319951E-03    4.0349101339E-03    4.0057007533E-03
    3.9767023280E-03    3.9479133432E-03    3.9193322951E-03    3.8909576905E-03
    3.8627880466E-03    3.8348218913E-03    3.8070577631E-03    3.7794942104E-03
    3.7521297924E-03    3.7249630781E-03    3.6979926471E-03    3.6712170887E-03
    3.6446350024E-03    3.6182449976E-03    3.5920456936E-03    3.5660357196E-03
    3.5402137143E-03    3.5145783263E-03    3.4891282137E-03    3.4638620442E-03
    3.4387784950E-03    3.4138762525E-03    3.3891540127E-03    3.3646104808E-03
    3.3402443712E-03    3.3160544073E-03    3.2920393218E-03    3.2681978565E-03
    3.2445287617E-03    3.2210307972E-03    3.1977027312E-03    3.1745433409E-03
    3.1515514120E-03    3.1287257390E-03    3.1060651251E-03    3.0835683819E-03
    3.0612343293E-03    3.0390617960E-03    3.0170496186E-03    2.9951966425E-03
    2.9735017209E-03    2.9519637155E-03    2.9305814959E-03    2.9093539398E-03
    2.8882799331E-03    2.8673583694E-03    2.8465881503E-03    2.8259681853E-03
    2.8054973917E-03    2.7851746944E-03    2.7649990260E-03    2.7449693269E-03
    2.7250845449E-03    2.7053436354E-03    2.6857455612E-03    2.6662892926E-03
    2.6469738071E-03    2.6277980898E-03    2.6087611327E-03    2.5898619353E-03
    2.5710995041E-03    2.5524728528E-03    2.5339810020E-03    2.5156229796E-03
    2.4973978201E-03    2.4793045651E-03    2.4613422632E-03    2.4435099695E-03
    2.4258067460E-03    2.4082316615E-03    2.3907837915E-03    2.3734622179E-03
    2.3562660293E-03    2.3391943208E-03    2.3222461941E-03    2.3054207573E-03
    2.2887171247E-03    2.2721344171E-03    2.2556717617E-03    2.2393282918E-03
    2.2231031469E-03    2.2069954727E-03    2.1910044213E-03    2.1751291503E-03
    2.1593688240E-03    2.1437226121E-03    2.1281896907E-03    2.1127692416E-03
    2.0974604524E-03    2.0822625169E-03    2.0671746341E-03    2.0521960093E-03
    2.0373258533E-03    2.0225633824E-03    2.0079078187E-03    1.9933583900E-03
    1.9789143293E-03    1.9645748754E-03    1.9503392726E-03    1.9362067703E-03
    1.9221766236E-03    1.9082480928E-03    1.8944204437E-03    1.8806929471E-03
    1.8670648792E-03    1.8535355214E-03    1.8401041602E-03    1.8267700874E-03
    1.8135325997E-03    1.8003909988E-03    1.7873445918E-03    1.7743926903E-03
    1.7615346111E-03    1.7487696761E-03    1.7360972116E-03    1.7235165491E-03
    1.7110270249E-03    1.6986279799E-03    1.6863187599E-03    1.6740987153E-03
    1.6619672013E-03    1.6499235776E-03    1.6379672085E-03    1.6260974631E-03
    1.6143137147E-03    1.6026153415E-03    1.5910017258E-03    1.5794722546E-03
    1.5680263192E-03    1.5566633154E-03    1.5453826432E-03    1.5341837070E-03
    1.5230659154E-03    1.5120286815E-03    1.5010714224E-03    1.4901935594E-03
    1.4793945181E-03    1.4686737282E-03    1.4580306234E-03    1.4474646416E-03
    1.4369752247E-03    1.4265618187E-03    1.4162238735E-03    1.4059608430E-03
    1.3957721850E-03    1.3856573613E-03    1.3756158374E-03    1.3656470829E-03
    1.3557505710E-03    1.3459257789E-03    1.3361721875E-03    1.3264892812E-03
    1.3168765485E-03    1.3073334814E-03    1.2978595756E-03    1.2884543303E-03
    1.2791172486E-03    1.2698478369E-03    1.2606456053E-03    1.2515100675E-03
    1.2424407405E-03    1.2334371450E-03    1.2244988050E-03    1.2156252480E-03
    1.2068160050E-03    1.1980706102E-03    1.1893886014E-03    1.1807695194E-03
    1.1722129087E-03    1.1637183168E-03    1.1552852946E-03    1.1469133961E-03
   </PP_CHI.3>
 </PP_PSWFC>
 <PP_NLCC type="real"  size="1148" columns="4">
    9.6014051135E-01    9.5991072356E-01    9.5922166913E-01    9.5807427429E-01
    9.5647008060E-01    9.5441124167E-01    9.5190051871E-01    9.4894127464E-01
    9.4553746714E-01    9.4169364027E-01    9.3741491504E-01    9.3270697868E-01
    9.2757607285E-01    9.2202898060E-01    9.1607301237E-01    9.0971599086E-01
    9.0296623493E-01    8.9583254250E-01    8.8832417253E-01    8.8045082622E-01
    8.7222262723E-01    8.6365010127E-01    8.5474415495E-01    8.4551605389E-01
    8.3597740035E-01    8.2614011024E-01    8.1601638969E-01    8.0561871118E-01
    7.9495978933E-01    7.8405255639E-01    7.7291013753E-01    7.6154582587E-01
    7.4997305751E-01    7.3820538649E-01    7.2625645971E-01    7.1413999202E-01
    7.0186974136E-01    6.8945948420E-01    6.7692299114E-01    6.6427400288E-01
    6.5152620661E-01    6.3869321268E-01    6.2578853190E-01    6.1282555330E-01
    5.9981752244E-01    5.8677752041E-01    5.7371844342E-01    5.6065298317E-01
    5.4759360789E-01    5.3455254423E-01    5.2154175990E-01    5.0857294723E-01
    4.9565750751E-01    4.8280653628E-01    4.7003080956E-01    4.5734077096E-01
    4.4474651976E-01    4.3225780002E-01    4.1988399054E-01    4.0763409591E-01
    3.9551673852E-01    3.8354015154E-01    3.7171217289E-01    3.6004024020E-01
    3.4853138677E-01    3.3719223844E-01    3.2602901145E-01    3.1504751127E-01
    3.0425313228E-01    2.9365085839E-01    2.8324526460E-01    2.7304051928E-01
    2.6304038742E-01    2.5324823461E-01    2.4366703183E-01    2.3429936093E-01
    2.2514742092E-01    2.1621303485E-01    2.0749765737E-01    1.9900238291E-01
    1.9072795442E-01    1.8267477263E-01    1.7484290586E-01    1.6723210023E-01
    1.5984179031E-01    1.5267111017E-01    1.4571890477E-01    1.3898374160E-01
    1.3246392266E-01    1.2615749662E-01    1.2006227117E-01    1.1417582555E-01
    1.0849552311E-01    1.0301852407E-01    9.7741798201E-02    9.2662137596E-02
    8.7776169347E-02    8.3080368207E-02    7.8571069139E-02    7.4244479741E-02
    7.0096692525E-02    6.6123697011E-02    6.2321391616E-02    5.8685595312E-02
    5.5212059031E-02    5.1896476793E-02    4.8734496535E-02    4.5721730630E-02
    4.2853766071E-02    4.0126174311E-02    3.7534520736E-02    3.5074373770E-02
    3.2741313594E-02    3.0530940472E-02    2.8438882676E-02    2.6460804005E-02
    2.4592410889E-02    2.2829459087E-02    2.1167759955E-02    1.9603186315E-02
    1.8131677889E-02    1.6749246334E-02    1.5451979864E-02    1.4236047457E-02
    1.3097702677E-02    1.2033287089E-02    1.1039233300E-02    1.0112067614E-02
    9.2484123224E-03    8.4449876424E-03    7.6986133005E-03    7.0062097871E-03
    6.3647992861E-03    5.7715062956E-03    5.2235579510E-03    4.7182840651E-03
    4.2531168991E-03    3.8255906775E-03    3.4333408624E-03    3.0741032006E-03
    2.7457125591E-03    2.4461015621E-03    2.1732990453E-03    1.9254283412E-03
    1.7007054096E-03    1.4974368280E-03    1.3140176545E-03    1.1489291790E-03
    1.0007365730E-03    8.6808645395E-04    7.4970437448E-04    6.4439225014E-04
    5.5102573656E-04    4.6855156771E-04    3.9598486615E-04    3.3240643539E-04
    2.7696004441E-04    2.2884971367E-04    1.8733701121E-04    1.5173836747E-04
    1.2142241622E-04    9.5807369027E-05    7.4358429895E-05    5.6585256090E-05
    4.2039470877E-05    3.0312233160E-05    2.1031868608E-05    1.3861566294E-05
    8.4971444134E-06    4.6648881311E-06    2.1194621737E-06    6.4190030281E-07
    3.7673391378E-08    1.3483740023E-07    7.8226215644E-07    1.8479414585E-06
    3.2173846761E-06    4.7920896751E-06    6.4880965854E-06    8.2346216317E-06
    9.9727699794E-06    1.1654326294E-05    1.3240621479E-05    1.4701473867E-05
    1.6014202916E-05    1.7162713341E-05    1.8136647425E-05    1.8930603154E-05
    1.9543415688E-05    1.9977499629E-05    2.0238249417E-05    2.0333495193E-05
    2.0273011393E-05    2.0068075304E-05    1.9731072853E-05    1.9275148846E-05
    1.8713898936E-05    1.8061100610E-05    1.7330480520E-05    1.6535515563E-05
    1.5689265124E-05    1.4804232024E-05    1.3892249746E-05    1.2964393605E-05
    1.2030913632E-05    1.1101187008E-05    1.0183688010E-05    9.2859734958E-06
    8.4146820845E-06    7.5755452852E-06    6.7734089209E-06    6.0122633116E-06
    5.2952807815E-06    4.6248591565E-06    4.0026700204E-06    3.4297106057E-06
    2.9063582851E-06    2.4324267342E-06    2.0072229165E-06    1.6296041451E-06
    1.2980345540E-06    1.0106403966E-06    7.6526366551E-07    5.5951360181E-07
    3.9081573611E-07    2.5645816633E-07    1.5363483753E-07    7.9485644289E-08
    3.1133236002E-08    5.7164474752E-09    4.2031965523E-10    1.2502717719E-08
    3.9317590431E-08    7.8334944123E-08    1.2715762729E-07    1.8353505453E-07
    2.4537401254E-07    3.1074670853E-07    3.7789623403E-07    4.4523963096E-07
    5.1136875050E-07    5.7504910118E-07    6.3521688718E-07    6.9097443521E-07
    7.4158420822E-07    7.8646160157E-07    8.2516670932E-07    8.5739524355E-07
    8.8296878428E-07    9.0182452300E-07    9.1400465642E-07    9.1964558095E-07
    9.1896701798E-07    9.1226119455E-07    8.9988219728E-07    8.8223559332E-07
    8.5976840956E-07    8.3295955241E-07    8.0231072706E-07    7.6833791497E-07
    7.3156345727E-07    6.9250877141E-07    6.5168773149E-07    6.0960072759E-07
    5.6672940607E-07    5.2353209726E-07    4.8043991847E-07    4.3785353608E-07
    3.9614057310E-07    3.5563362968E-07    3.1662889025E-07    2.7938528446E-07
    2.4412416175E-07    2.1102944372E-07    1.8024821081E-07    1.5189168161E-07
    1.2603654148E-07    1.0272657654E-07    8.1974570236E-08    6.3764418361E-08
    4.8053423552E-08    3.4774725004E-08    2.3839828482E-08    1.5141198245E-08
    8.5548748341E-09    3.9430919432E-09    1.1568548028E-09    3.8461475717E-11
    4.2393718554E-10    2.1453619109E-09    5.0330756950E-09    8.9177389712E-09
    1.3632244105E-08    1.9013458532E-08    2.4903798951E-08    3.1152627555E-08
    3.7617467142E-08    4.4165038273E-08    5.0672113136E-08    5.7026197365E-08
    6.3126036926E-08    6.8881962915E-08    7.4216077843E-08    7.9062294553E-08
    8.3366237392E-08    8.7085015633E-08    9.0186882139E-08    9.2650787538E-08
    9.4465843556E-08    9.5630707099E-08    9.6152897784E-08    9.6048061312E-08
    9.5339190619E-08    9.4055816351E-08    9.2233178644E-08    8.9911389316E-08
    8.7134597151E-08    8.3950161822E-08    8.0407850150E-08    7.6559056125E-08
    7.2456059273E-08    6.8151318937E-08    6.3696818875E-08    5.9143457479E-08
    5.4540495829E-08    4.9935058389E-08    4.5371695453E-08    4.0892002073E-08
    3.6534299570E-08    3.2333374371E-08    2.8320277571E-08    2.4522179959E-08
    2.0962283664E-08    1.7659785112E-08    1.4629888697E-08    1.1883865783E-08
    9.4291571520E-09    7.2695146739E-09    5.4051732605E-09    3.8335542160E-09
    2.5479389508E-09    1.5353246849E-09    7.8852866909E-10    3.1047738212E-10
    7.1531019793E-11   -9.7674871179E-12   -1.4476586439E-11    1.7961609438E-12
    5.4779978228E-12   -1.5784320886E-13   -1.0937070578E-12   -2.1804261359E-14
    0.0000000000E+00    0.0000000000E+00    0.0000000000E+00    0.0000000000E+00
    0.0000000000E+00    0.0000000000E+00    0.0000000000E+00    0.0000000000E+00
    0.0000000000E+00    0.0000000000E+00    0.0000000000E+00    0.0000000000E+00
    0.0000000000E+00    0.0000000000E+00    0.0000000000E+00    0.0000000000E+00
    0.0000000000E+00    0.0000000000E+00    0.0000000000E+00    0.0000000000E+00
    0.0000000000E+00    0.0000000000E+00    0.0000000000E+00    0.0000000000E+00
    0.0000000000E+00    0.0000000000E+00    0.0000000000E+00    0.0000000000E+00
    0.0000000000E+00    0.0000000000E+00    0.0000000000E+00    0.0000000000E+00
    0.0000000000E+00    0.0000000000E+00    0.0000000000E+00    0.0000000000E+00
    0.0000000000E+00    0.0000000000E+00    0.0000000000E+00    0.0000000000E+00
    0.0000000000E+00    0.0000000000E+00    0.0000000000E+00    0.0000000000E+00
    0.0000000000E+00    0.0000000000E+00    0.0000000000E+00    0.0000000000E+00
    0.0000000000E+00    0.0000000000E+00    0.0000000000E+00    0.0000000000E+00
    0.0000000000E+00    0.0000000000E+00    0.0000000000E+00    0.0000000000E+00
    0.0000000000E+00    0.0000000000E+00    0.0000000000E+00    0.0000000000E+00
    0.0000000000E+00    0.0000000000E+00    0.0000000000E+00    0.0000000000E+00
    0.0000000000E+00    0.0000000000E+00    0.0000000000E+00    0.0000000000E+00
    0.0000000000E+00    0.0000000000E+00    0.0000000000E+00    0.0000000000E+00
    0.0000000000E+00    0.0000000000E+00    0.0000000000E+00    0.0000000000E+00
    0.0000000000E+00    0.0000000000E+00    0.0000000000E+00    0.0000000000E+00
    0.0000000000E+00    0.0000000000E+00    0.0000000000E+00    0.0000000000E+00
    0.0000000000E+00    0.0000000000E+00    0.0000000000E+00    0.0000000000E+00
    0.0000000000E+00    0.0000000000E+00    0.0000000000E+00    0.0000000000E+00
    0.0000000000E+00    0.0000000000E+00    0.0000000000E+00    0.0000000000E+00
    0.0000000000E+00    0.0000000000E+00    0.0000000000E+00    0.0000000000E+00
    0.0000000000E+00    0.0000000000E+00    0.0000000000E+00    0.0000000000E+00
    0.0000000000E+00    0.0000000000E+00    0.0000000000E+00    0.0000000000E+00
    0.0000000000E+00    0.0000000000E+00    0.0000000000E+00    0.0000000000E+00
    0.0000000000E+00    0.0000000000E+00    0.0000000000E+00    0.0000000000E+00
    0.0000000000E+00    0.0000000000E+00    0.0000000000E+00    0.0000000000E+00
    0.0000000000E+00    0.0000000000E+00    0.0000000000E+00    0.0000000000E+00
    0.0000000000E+00    0.0000000000E+00    0.0000000000E+00    0.0000000000E+00
    0.0000000000E+00    0.0000000000E+00    0.0000000000E+00    0.0000000000E+00
    0.0000000000E+00    0.0000000000E+00    0.0000000000E+00    0.0000000000E+00
    0.0000000000E+00    0.0000000000E+00    0.0000000000E+00    0.0000000000E+00
    0.0000000000E+00    0.0000000000E+00    0.0000000000E+00    0.0000000000E+00
    0.0000000000E+00    0.0000000000E+00    0.0000000000E+00    0.0000000000E+00
    0.0000000000E+00    0.0000000000E+00    0.0000000000E+00    0.0000000000E+00
    0.0000000000E+00    0.0000000000E+00    0.0000000000E+00    0.0000000000E+00
    0.0000000000E+00    0.0000000000E+00    0.0000000000E+00    0.0000000000E+00
    0.0000000000E+00    0.0000000000E+00    0.0000000000E+00    0.0000000000E+00
    0.0000000000E+00    0.0000000000E+00    0.0000000000E+00    0.0000000000E+00
    0.0000000000E+00    0.0000000000E+00    0.0000000000E+00    0.0000000000E+00
    0.0000000000E+00    0.0000000000E+00    0.0000000000E+00    0.0000000000E+00
    0.0000000000E+00    0.0000000000E+00    0.0000000000E+00    0.0000000000E+00
    0.0000000000E+00    0.0000000000E+00    0.0000000000E+00    0.0000000000E+00
    0.0000000000E+00    0.0000000000E+00    0.0000000000E+00    0.0000000000E+00
    0.0000000000E+00    0.0000000000E+00    0.0000000000E+00    0.0000000000E+00
    0.0000000000E+00    0.0000000000E+00    0.0000000000E+00    0.0000000000E+00
    0.0000000000E+00    0.0000000000E+00    0.0000000000E+00    0.0000000000E+00
    0.0000000000E+00    0.0000000000E+00    0.0000000000E+00    0.0000000000E+00
    0.0000000000E+00    0.0000000000E+00    0.0000000000E+00    0.0000000000E+00
    0.0000000000E+00    0.0000000000E+00    0.0000000000E+00    0.0000000000E+00
    0.0000000000E+00    0.0000000000E+00    0.0000000000E+00    0.0000000000E+00
    0.0000000000E+00    0.0000000000E+00    0.0000000000E+00    0.0000000000E+00
    0.0000000000E+00    0.0000000000E+00    0.0000000000E+00    0.0000000000E+00
    0.0000000000E+00    0.0000000000E+00    0.0000000000E+00    0.0000000000E+00
    0.0000000000E+00    0.0000000000E+00    0.0000000000E+00    0.0000000000E+00
    0.0000000000E+00    0.0000000000E+00    0.0000000000E+00    0.0000000000E+00
    0.0000000000E+00    0.0000000000E+00    0.0000000000E+00    0.0000000000E+00
    0.0000000000E+00    0.0000000000E+00    0.0000000000E+00    0.0000000000E+00
    0.0000000000E+00    0.0000000000E+00    0.0000000000E+00    0.0000000000E+00
    0.0000000000E+00    0.0000000000E+00    0.0000000000E+00    0.0000000000E+00
    0.0000000000E+00    0.0000000000E+00    0.0000000000E+00    0.0000000000E+00
    0.0000000000E+00    0.0000000000E+00    0.0000000000E+00    0.0000000000E+00
    0.0000000000E+00    0.0000000000E+00    0.0000000000E+00    0.0000000000E+00
    0.0000000000E+00    0.0000000000E+00    0.0000000000E+00    0.0000000000E+00
    0.0000000000E+00    0.0000000000E+00    0.0000000000E+00    0.0000000000E+00
    0.0000000000E+00    0.0000000000E+00    0.0000000000E+00    0.0000000000E+00
    0.0000000000E+00    0.0000000000E+00    0.0000000000E+00    0.0000000000E+00
    0.0000000000E+00    0.0000000000E+00    0.0000000000E+00    0.0000000000E+00
    0.0000000000E+00    0.0000000000E+00    0.0000000000E+00    0.0000000000E+00
    0.0000000000E+00    0.0000000000E+00    0.0000000000E+00    0.0000000000E+00
    0.0000000000E+00    0.0000000000E+00    0.0000000000E+00    0.0000000000E+00
    0.0000000000E+00    0.0000000000E+00    0.0000000000E+00    0.0000000000E+00
    0.0000000000E+00    0.0000000000E+00    0.0000000000E+00    0.0000000000E+00
    0.0000000000E+00    0.0000000000E+00    0.0000000000E+00    0.0000000000E+00
    0.0000000000E+00    0.0000000000E+00    0.0000000000E+00    0.0000000000E+00
    0.0000000000E+00    0.0000000000E+00    0.0000000000E+00    0.0000000000E+00
    0.0000000000E+00    0.0000000000E+00    0.0000000000E+00    0.0000000000E+00
    0.0000000000E+00    0.0000000000E+00    0.0000000000E+00    0.0000000000E+00
    0.0000000000E+00    0.0000000000E+00    0.0000000000E+00    0.0000000000E+00
    0.0000000000E+00    0.0000000000E+00    0.0000000000E+00    0.0000000000E+00
    0.0000000000E+00    0.0000000000E+00    0.0000000000E+00    0.0000000000E+00
    0.0000000000E+00    0.0000000000E+00    0.0000000000E+00    0.0000000000E+00
    0.0000000000E+00    0.0000000000E+00    0.0000000000E+00    0.0000000000E+00
    0.0000000000E+00    0.0000000000E+00    0.0000000000E+00    0.0000000000E+00
    0.0000000000E+00    0.0000000000E+00    0.0000000000E+00    0.0000000000E+00
    0.0000000000E+00    0.0000000000E+00    0.0000000000E+00    0.0000000000E+00
    0.0000000000E+00    0.0000000000E+00    0.0000000000E+00    0.0000000000E+00
    0.0000000000E+00    0.0000000000E+00    0.0000000000E+00    0.0000000000E+00
    0.0000000000E+00    0.0000000000E+00    0.0000000000E+00    0.0000000000E+00
    0.0000000000E+00    0.0000000000E+00    0.0000000000E+00    0.0000000000E+00
    0.0000000000E+00    0.0000000000E+00    0.0000000000E+00    0.0000000000E+00
    0.0000000000E+00    0.0000000000E+00    0.0000000000E+00    0.0000000000E+00
    0.0000000000E+00    0.0000000000E+00    0.0000000000E+00    0.0000000000E+00
    0.0000000000E+00    0.0000000000E+00    0.0000000000E+00    0.0000000000E+00
    0.0000000000E+00    0.0000000000E+00    0.0000000000E+00    0.0000000000E+00
    0.0000000000E+00    0.0000000000E+00    0.0000000000E+00    0.0000000000E+00
    0.0000000000E+00    0.0000000000E+00    0.0000000000E+00    0.0000000000E+00
    0.0000000000E+00    0.0000000000E+00    0.0000000000E+00    0.0000000000E+00
    0.0000000000E+00    0.0000000000E+00    0.0000000000E+00    0.0000000000E+00
    0.0000000000E+00    0.0000000000E+00    0.0000000000E+00    0.0000000000E+00
    0.0000000000E+00    0.0000000000E+00    0.0000000000E+00    0.0000000000E+00
    0.0000000000E+00    0.0000000000E+00    0.0000000000E+00    0.0000000000E+00
    0.0000000000E+00    0.0000000000E+00    0.0000000000E+00    0.0000000000E+00
    0.0000000000E+00    0.0000000000E+00    0.0000000000E+00    0.0000000000E+00
    0.0000000000E+00    0.0000000000E+00    0.0000000000E+00    0.0000000000E+00
    0.0000000000E+00    0.0000000000E+00    0.0000000000E+00    0.0000000000E+00
    0.0000000000E+00    0.0000000000E+00    0.0000000000E+00    0.0000000000E+00
    0.0000000000E+00    0.0000000000E+00    0.0000000000E+00    0.0000000000E+00
    0.0000000000E+00    0.0000000000E+00    0.0000000000E+00    0.0000000000E+00
    0.0000000000E+00    0.0000000000E+00    0.0000000000E+00    0.0000000000E+00
    0.0000000000E+00    0.0000000000E+00    0.0000000000E+00    0.0000000000E+00
    0.0000000000E+00    0.0000000000E+00    0.0000000000E+00    0.0000000000E+00
    0.0000000000E+00    0.0000000000E+00    0.0000000000E+00    0.0000000000E+00
    0.0000000000E+00    0.0000000000E+00    0.0000000000E+00    0.0000000000E+00
    0.0000000000E+00    0.0000000000E+00    0.0000000000E+00    0.0000000000E+00
    0.0000000000E+00    0.0000000000E+00    0.0000000000E+00    0.0000000000E+00
    0.0000000000E+00    0.0000000000E+00    0.0000000000E+00    0.0000000000E+00
    0.0000000000E+00    0.0000000000E+00    0.0000000000E+00    0.0000000000E+00
    0.0000000000E+00    0.0000000000E+00    0.0000000000E+00    0.0000000000E+00
    0.0000000000E+00    0.0000000000E+00    0.0000000000E+00    0.0000000000E+00
    0.0000000000E+00    0.0000000000E+00    0.0000000000E+00    0.0000000000E+00
    0.0000000000E+00    0.0000000000E+00    0.0000000000E+00    0.0000000000E+00
    0.0000000000E+00    0.0000000000E+00    0.0000000000E+00    0.0000000000E+00
    0.0000000000E+00    0.0000000000E+00    0.0000000000E+00    0.0000000000E+00
    0.0000000000E+00    0.0000000000E+00    0.0000000000E+00    0.0000000000E+00
    0.0000000000E+00    0.0000000000E+00    0.0000000000E+00    0.0000000000E+00
    0.0000000000E+00    0.0000000000E+00    0.0000000000E+00    0.0000000000E+00
    0.0000000000E+00    0.0000000000E+00    0.0000000000E+00    0.0000000000E+00
    0.0000000000E+00    0.0000000000E+00    0.0000000000E+00    0.0000000000E+00
    0.0000000000E+00    0.0000000000E+00    0.0000000000E+00    0.0000000000E+00
    0.0000000000E+00    0.0000000000E+00    0.0000000000E+00    0.0000000000E+00
    0.0000000000E+00    0.0000000000E+00    0.0000000000E+00    0.0000000000E+00
    0.0000000000E+00    0.0000000000E+00    0.0000000000E+00    0.0000000000E+00
    0.0000000000E+00    0.0000000000E+00    0.0000000000E+00    0.0000000000E+00
    0.0000000000E+00    0.0000000000E+00    0.0000000000E+00    0.0000000000E+00
    0.0000000000E+00    0.0000000000E+00    0.0000000000E+00    0.0000000000E+00
    0.0000000000E+00    0.0000000000E+00    0.0000000000E+00    0.0000000000E+00
    0.0000000000E+00    0.0000000000E+00    0.0000000000E+00    0.0000000000E+00
    0.0000000000E+00    0.0000000000E+00    0.0000000000E+00    0.0000000000E+00
    0.0000000000E+00    0.0000000000E+00    0.0000000000E+00    0.0000000000E+00
    0.0000000000E+00    0.0000000000E+00    0.0000000000E+00    0.0000000000E+00
    0.0000000000E+00    0.0000000000E+00    0.0000000000E+00    0.0000000000E+00
    0.0000000000E+00    0.0000000000E+00    0.0000000000E+00    0.0000000000E+00
    0.0000000000E+00    0.0000000000E+00    0.0000000000E+00    0.0000000000E+00
    0.0000000000E+00    0.0000000000E+00    0.0000000000E+00    0.0000000000E+00
    0.0000000000E+00    0.0000000000E+00    0.0000000000E+00    0.0000000000E+00
    0.0000000000E+00    0.0000000000E+00    0.0000000000E+00    0.0000000000E+00
    0.0000000000E+00    0.0000000000E+00    0.0000000000E+00    0.0000000000E+00
    0.0000000000E+00    0.0000000000E+00    0.0000000000E+00    0.0000000000E+00
    0.0000000000E+00    0.0000000000E+00    0.0000000000E+00    0.0000000000E+00
    0.0000000000E+00    0.0000000000E+00    0.0000000000E+00    0.0000000000E+00
    0.0000000000E+00    0.0000000000E+00    0.0000000000E+00    0.0000000000E+00
    0.0000000000E+00    0.0000000000E+00    0.0000000000E+00    0.0000000000E+00
    0.0000000000E+00    0.0000000000E+00    0.0000000000E+00    0.0000000000E+00
    0.0000000000E+00    0.0000000000E+00    0.0000000000E+00    0.0000000000E+00
    0.0000000000E+00    0.0000000000E+00    0.0000000000E+00    0.0000000000E+00
    0.0000000000E+00    0.0000000000E+00    0.0000000000E+00    0.0000000000E+00
    0.0000000000E+00    0.0000000000E+00    0.0000000000E+00    0.0000000000E+00
    0.0000000000E+00    0.0000000000E+00    0.0000000000E+00    0.0000000000E+00
    0.0000000000E+00    0.0000000000E+00    0.0000000000E+00    0.0000000000E+00
    0.0000000000E+00    0.0000000000E+00    0.0000000000E+00    0.0000000000E+00
    0.0000000000E+00    0.0000000000E+00    0.0000000000E+00    0.0000000000E+00
    0.0000000000E+00    0.0000000000E+00    0.0000000000E+00    0.0000000000E+00
    0.0000000000E+00    0.0000000000E+00    0.0000000000E+00    0.0000000000E+00
    0.0000000000E+00    0.0000000000E+00    0.0000000000E+00    0.0000000000E+00
    0.0000000000E+00    0.0000000000E+00    0.0000000000E+00    0.0000000000E+00
    0.0000000000E+00    0.0000000000E+00    0.0000000000E+00    0.0000000000E+00
    0.0000000000E+00    0.0000000000E+00    0.0000000000E+00    0.0000000000E+00
    0.0000000000E+00    0.0000000000E+00    0.0000000000E+00    0.0000000000E+00
    0.0000000000E+00    0.0000000000E+00    0.0000000000E+00    0.0000000000E+00
    0.0000000000E+00    0.0000000000E+00    0.0000000000E+00    0.0000000000E+00
    0.0000000000E+00    0.0000000000E+00    0.0000000000E+00    0.0000000000E+00
    0.0000000000E+00    0.0000000000E+00    0.0000000000E+00    0.0000000000E+00
    0.0000000000E+00    0.0000000000E+00    0.0000000000E+00    0.0000000000E+00
    0.0000000000E+00    0.0000000000E+00    0.0000000000E+00    0.0000000000E+00
    0.0000000000E+00    0.0000000000E+00    0.0000000000E+00    0.0000000000E+00
    0.0000000000E+00    0.0000000000E+00    0.0000000000E+00    0.0000000000E+00
    0.0000000000E+00    0.0000000000E+00    0.0000000000E+00    0.0000000000E+00
    0.0000000000E+00    0.0000000000E+00    0.0000000000E+00    0.0000000000E+00
    0.0000000000E+00    0.0000000000E+00    0.0000000000E+00    0.0000000000E+00
    0.0000000000E+00    0.0000000000E+00    0.0000000000E+00    0.0000000000E+00
    0.0000000000E+00    0.0000000000E+00    0.0000000000E+00    0.0000000000E+00
    0.0000000000E+00    0.0000000000E+00    0.0000000000E+00    0.0000000000E+00
    0.0000000000E+00    0.0000000000E+00    0.0000000000E+00    0.0000000000E+00
    0.0000000000E+00    0.0000000000E+00    0.0000000000E+00    0.0000000000E+00
    0.0000000000E+00    0.0000000000E+00    0.0000000000E+00    0.0000000000E+00
    0.0000000000E+00    0.0000000000E+00    0.0000000000E+00    0.0000000000E+00
    0.0000000000E+00    0.0000000000E+00    0.0000000000E+00    0.0000000000E+00
    0.0000000000E+00    0.0000000000E+00    0.0000000000E+00    0.0000000000E+00
    0.0000000000E+00    0.0000000000E+00    0.0000000000E+00    0.0000000000E+00
    0.0000000000E+00    0.0000000000E+00    0.0000000000E+00    0.0000000000E+00
    0.0000000000E+00    0.0000000000E+00    0.0000000000E+00    0.0000000000E+00
    0.0000000000E+00    0.0000000000E+00    0.0000000000E+00    0.0000000000E+00
    0.0000000000E+00    0.0000000000E+00    0.0000000000E+00    0.0000000000E+00
    0.0000000000E+00    0.0000000000E+00    0.0000000000E+00    0.0000000000E+00
    0.0000000000E+00    0.0000000000E+00    0.0000000000E+00    0.0000000000E+00
 </PP_NLCC>
 <PP_RHOATOM type="real"  size="1148" columns="4">
    0.0000000000E+00    9.1668797373E-06    3.7004145245E-05    8.4522235282E-05
    1.5340707003E-04    2.4602279716E-04    3.6541556198E-04    5.1531822798E-04
    7.0015595372E-04    9.2505251280E-04    1.1958372245E-03    1.5190523449E-03
    1.9019607527E-03    2.3525537454E-03    2.8795587514E-03    3.4924467477E-03
    4.2014391620E-03    5.0175140311E-03    5.9524111756E-03    7.0186361490E-03
    8.2294627133E-03    9.5989335917E-03    1.1141859250E-02    1.2873814460E-02
    1.4811132403E-02    1.6970896082E-02    1.9370926807E-02    2.2029769559E-02
    2.4966675011E-02    2.8201578031E-02    3.1755072506E-02    3.5648382335E-02
    3.9903328459E-02    4.4542291842E-02    4.9588172320E-02    5.5064343267E-02
    6.0994602059E-02    6.7403116356E-02    7.4314366218E-02    8.1753082155E-02
    8.9744179184E-02    9.8312687049E-02    1.0748367676E-01    1.1728218365E-01
    1.2773312717E-01    1.3886122768E-01    1.5069092059E-01    1.6324626799E-01
    1.7655086835E-01    1.9062776447E-01    2.0549935009E-01    2.2118727573E-01
    2.3771235391E-01    2.5509446449E-01    2.7335246030E-01    2.9250407378E-01
    3.1256582485E-01    3.3355293074E-01    3.5547921798E-01    3.7835703724E-01
    4.0219718137E-01    4.2700880709E-01    4.5279936077E-01    4.7957450883E-01
    5.0733807296E-01    5.3609197068E-01    5.6583616162E-01    5.9656859969E-01
    6.2828519164E-01    6.6097976210E-01    6.9464402547E-01    7.2926756476E-01
    7.6483781759E-01    8.0134006951E-01    8.3875745466E-01    8.7707096386E-01
    9.1625946015E-01    9.5629970174E-01    9.9716637235E-01    1.0388321187E+00
    1.0812675954E+00    1.1244415162E+00    1.1683207130E+00    1.2128702002E+00
    1.2580532462E+00    1.3038314507E+00    1.3501648271E+00    1.3970118911E+00
    1.4443297533E+00    1.4920742174E+00    1.5401998816E+00    1.5886602445E+00
    1.6374078138E+00    1.6863942185E+00    1.7355703227E+00    1.7848863426E+00
    1.8342919639E+00    1.8837364612E+00    1.9331688175E+00    1.9825378446E+00
    2.0317923028E+00    2.0808810201E+00    2.1297530106E+00    2.1783575911E+00
    2.2266444968E+00    2.2745639933E+00    2.3220669878E+00    2.3691051362E+00
    2.4156309476E+00    2.4615978848E+00    2.5069604617E+00    2.5516743364E+00
    2.5956963993E+00    2.6389848579E+00    2.6814993163E+00    2.7232008494E+00
    2.7640520726E+00    2.8040172063E+00    2.8430621347E+00    2.8811544597E+00
    2.9182635483E+00    2.9543605755E+00    2.9894185614E+00    3.0234124016E+00
    3.0563188935E+00    3.0881167557E+00    3.1187866426E+00    3.1483111531E+00
    3.1766748335E+00    3.2038641760E+00    3.2298676109E+00    3.2546754939E+00
    3.2782800887E+00    3.3006755444E+00    3.3218578682E+00    3.3418248936E+00
    3.3605762441E+00    3.3781132929E+00    3.3944391186E+00    3.4095584570E+00
    3.4234776496E+00    3.4362045887E+00    3.4477486593E+00    3.4581206788E+00
    3.4673328333E+00    3.4753986127E+00    3.4823327428E+00    3.4881511162E+00
    3.4928707218E+00    3.4965095730E+00    3.4990866348E+00    3.5006217507E+00
    3.5011355688E+00    3.5006494680E+00    3.4991854843E+00    3.4967662375E+00
    3.4934148587E+00    3.4891549183E+00    3.4840103555E+00    3.4780054090E+00
    3.4711645490E+00    3.4635124113E+00    3.4550737330E+00    3.4458732905E+00
    3.4359358398E+00    3.4252860586E+00    3.4139484920E+00    3.4019474997E+00
    3.3893072065E+00    3.3760514557E+00    3.3622037652E+00    3.3477872868E+00
    3.3328247678E+00    3.3173385168E+00    3.3013503711E+00    3.2848816684E+00
    3.2679532209E+00    3.2505852927E+00    3.2327975807E+00    3.2146091979E+00
    3.1960386595E+00    3.1771038731E+00    3.1578221716E+00    3.1382104285E+00
    3.1182851756E+00    3.0980626051E+00    3.0775585442E+00    3.0567884690E+00
    3.0357675038E+00    3.0145104209E+00    2.9930316430E+00    2.9713452445E+00
    2.9494649535E+00    2.9274041546E+00    2.9051758914E+00    2.8827928693E+00
    2.8602674592E+00    2.8376117003E+00    2.8148373044E+00    2.7919556595E+00
    2.7689778336E+00    2.7459145794E+00    2.7227763383E+00    2.6995732448E+00
    2.6763151313E+00    2.6530115327E+00    2.6296716913E+00    2.6063045614E+00
    2.5829188142E+00    2.5595228433E+00    2.5361247689E+00    2.5127324434E+00
    2.4893534566E+00    2.4659951401E+00    2.4426645732E+00    2.4193685874E+00
    2.3961137718E+00    2.3729064782E+00    2.3497528261E+00    2.3266587075E+00
    2.3036297926E+00    2.2806715341E+00    2.2577891724E+00    2.2349877407E+00
    2.2122720695E+00    2.1896467920E+00    2.1671163481E+00    2.1446849897E+00
    2.1223567854E+00    2.1001356246E+00    2.0780252225E+00    2.0560291244E+00
    2.0341507102E+00    2.0123931986E+00    1.9907596517E+00    1.9692529789E+00
    1.9478759410E+00    1.9266311548E+00    1.9055210964E+00    1.8845481057E+00
    1.8637143901E+00    1.8430220282E+00    1.8224729735E+00    1.8020690583E+00
    1.7818119970E+00    1.7617033898E+00    1.7417447262E+00    1.7219373880E+00
    1.7022826530E+00    1.6827816981E+00    1.6634356023E+00    1.6442453501E+00
    1.6252118342E+00    1.6063358588E+00    1.5876181420E+00    1.5690593191E+00
    1.5506599453E+00    1.5324204979E+00    1.5143413796E+00    1.4964229207E+00
    1.4786653815E+00    1.4610689551E+00    1.4436337695E+00    1.4263598899E+00
    1.4092473212E+00    1.3922960101E+00    1.3755058472E+00    1.3588766691E+00
    1.3424082605E+00    1.3261003560E+00    1.3099526425E+00    1.2939647606E+00
    1.2781363065E+00    1.2624668342E+00    1.2469558566E+00    1.2316028479E+00
    1.2164072445E+00    1.2013684472E+00    1.1864858224E+00    1.1717587039E+00
    1.1571863941E+00    1.1427681655E+00    1.1285032621E+00    1.1143909008E+00
    1.1004302727E+00    1.0866205443E+00    1.0729608587E+00    1.0594503370E+00
    1.0460880791E+00    1.0328731653E+00    1.0198046569E+00    1.0068815976E+00
    9.9410301442E-01    9.8146791865E-01    9.6897530685E-01    9.5662416177E-01
    9.4441345329E-01    9.3234213923E-01    9.2040916626E-01    9.0861347069E-01
    8.9695397925E-01    8.8542960987E-01    8.7403927243E-01    8.6278186946E-01
    8.5165629686E-01    8.4066144454E-01    8.2979619705E-01    8.1905943428E-01
    8.0845003198E-01    7.9796686240E-01    7.8760879480E-01    7.7737469605E-01
    7.6726343109E-01    7.5727386350E-01    7.4740485592E-01    7.3765527056E-01
    7.2802396962E-01    7.1850981576E-01    7.0911167248E-01    6.9982840452E-01
    6.9065887829E-01    6.8160196217E-01    6.7265652692E-01    6.6382144600E-01
    6.5509559589E-01    6.4647785640E-01    6.3796711100E-01    6.2956224704E-01
    6.2126215611E-01    6.1306573424E-01    6.0497188217E-01    5.9697950558E-01
    5.8908751532E-01    5.8129482765E-01    5.7360036442E-01    5.6600305325E-01
    5.5850182776E-01    5.5109562773E-01    5.4378339925E-01    5.3656409490E-01
    5.2943667387E-01    5.2240010215E-01    5.1545335263E-01    5.0859540522E-01
    5.0182524698E-01    4.9514187224E-01    4.8854428268E-01    4.8203148746E-01
    4.7560250325E-01    4.6925635438E-01    4.6299207288E-01    4.5680869855E-01
    4.5070527905E-01    4.4468086993E-01    4.3873453468E-01    4.3286534483E-01
    4.2707237991E-01    4.2135472757E-01    4.1571148356E-01    4.1014175179E-01
    4.0464464433E-01    3.9921928143E-01    3.9386479157E-01    3.8858031144E-01
    3.8336498595E-01    3.7821796824E-01    3.7313841970E-01    3.6812550993E-01
    3.6317841677E-01    3.5829632627E-01    3.5347843267E-01    3.4872393843E-01
    3.4403205414E-01    3.3940199859E-01    3.3483299866E-01    3.3032428936E-01
    3.2587511376E-01    3.2148472299E-01    3.1715237619E-01    3.1287734048E-01
    3.0865889092E-01    3.0449631051E-01    3.0038889009E-01    2.9633592835E-01
    2.9233673174E-01    2.8839061448E-01    2.8449689847E-01    2.8065491329E-01
    2.7686399609E-01    2.7312349159E-01    2.6943275202E-01    2.6579113705E-01
    2.6219801376E-01    2.5865275659E-01    2.5515474725E-01    2.5170337470E-01
    2.4829803509E-01    2.4493813168E-01    2.4162307483E-01    2.3835228189E-01
    2.3512517716E-01    2.3194119187E-01    2.2879976404E-01    2.2570033851E-01
    2.2264236682E-01    2.1962530717E-01    2.1664862435E-01    2.1371178971E-01
    2.1081428105E-01    2.0795558260E-01    2.0513518495E-01    2.0235258496E-01
    1.9960728575E-01    1.9689879660E-01    1.9422663288E-01    1.9159031604E-01
    1.8898937350E-01    1.8642333859E-01    1.8389175053E-01    1.8139415432E-01
    1.7893010073E-01    1.7649914619E-01    1.7410085275E-01    1.7173478801E-01
    1.6940052511E-01    1.6709764259E-01    1.6482572437E-01    1.6258435973E-01
    1.6037314316E-01    1.5819167439E-01    1.5603955827E-01    1.5391640475E-01
    1.5182182880E-01    1.4975545036E-01    1.4771689429E-01    1.4570579029E-01
    1.4372177288E-01    1.4176448130E-01    1.3983355950E-01    1.3792865603E-01
    1.3604942405E-01    1.3419552123E-01    1.3236660970E-01    1.3056235601E-01
    1.2878243107E-01    1.2702651011E-01    1.2529427260E-01    1.2358540222E-01
    1.2189958681E-01    1.2023651829E-01    1.1859589265E-01    1.1697740989E-01
    1.1538077393E-01    1.1380569262E-01    1.1225187765E-01    1.1071904453E-01
    1.0920691250E-01    1.0771520453E-01    1.0624364726E-01    1.0479197093E-01
    1.0335990937E-01    1.0194719991E-01    1.0055358338E-01    9.9178804051E-02
    9.7822609575E-02    9.6484750956E-02    9.5164982507E-02    9.3863061803E-02
    9.2578749641E-02    9.1311809998E-02    9.0062009990E-02    8.8829119833E-02
    8.7612912798E-02    8.6413165177E-02    8.5229656240E-02    8.4062168197E-02
    8.2910486162E-02    8.1774398109E-02    8.0653694842E-02    7.9548169953E-02
    7.8457619788E-02    7.7381843406E-02    7.6320642552E-02    7.5273821613E-02
    7.4241187588E-02    7.3222550053E-02    7.2217721125E-02    7.1226515430E-02
    7.0248750071E-02    6.9284244591E-02    6.8332820946E-02    6.7394303470E-02
    6.6468518842E-02    6.5555296058E-02    6.4654466400E-02    6.3765863403E-02
    6.2889322826E-02    6.2024682626E-02    6.1171782921E-02    6.0330465971E-02
    5.9500576141E-02    5.8681959877E-02    5.7874465679E-02    5.7077944069E-02
    5.6292247570E-02    5.5517230675E-02    5.4752749823E-02    5.3998663371E-02
    5.3254831570E-02    5.2521116539E-02    5.1797382240E-02    5.1083494453E-02
    5.0379320754E-02    4.9684730487E-02    4.8999594742E-02    4.8323786335E-02
    4.7657179780E-02    4.6999651268E-02    4.6351078646E-02    4.5711341392E-02
    4.5080320595E-02    4.4457898935E-02    4.3843960659E-02    4.3238391560E-02
    4.2641078957E-02    4.2051911678E-02    4.1470780031E-02    4.0897575795E-02
    4.0332192193E-02    3.9774523874E-02    3.9224466895E-02    3.8681918703E-02
    3.8146778114E-02    3.7618945296E-02    3.7098321751E-02    3.6584810296E-02
    3.6078315049E-02    3.5578741406E-02    3.5085996028E-02    3.4599986823E-02
    3.4120622929E-02    3.3647814698E-02    3.3181473680E-02    3.2721512605E-02
    3.2267845371E-02    3.1820387024E-02    3.1379053746E-02    3.0943762840E-02
    3.0514432711E-02    3.0090982855E-02    2.9673333846E-02    2.9261407314E-02
    2.8855125941E-02    2.8454413438E-02    2.8059194538E-02    2.7669394979E-02
    2.7284941490E-02    2.6905761780E-02    2.6531784524E-02    2.6162939349E-02
    2.5799156823E-02    2.5440368443E-02    2.5086506619E-02    2.4737504666E-02
    2.4393296791E-02    2.4053818077E-02    2.3719004480E-02    2.3388792806E-02
    2.3063120711E-02    2.2741926682E-02    2.2425150029E-02    2.2112730872E-02
    2.1804610134E-02    2.1500729528E-02    2.1201031544E-02    2.0905459445E-02
    2.0613957249E-02    2.0326469725E-02    2.0042942382E-02    1.9763321456E-02
    1.9487553904E-02    1.9215587392E-02    1.8947370286E-02    1.8682851646E-02
    1.8421981210E-02    1.8164709393E-02    1.7910987270E-02    1.7660766574E-02
    1.7413999685E-02    1.7170639619E-02    1.6930640022E-02    1.6693955161E-02
    1.6460539918E-02    1.6230349776E-02    1.6003340819E-02    1.5779469717E-02
    1.5558693722E-02    1.5340970658E-02    1.5126258918E-02    1.4914517449E-02
    1.4705705753E-02    1.4499783872E-02    1.4296712387E-02    1.4096452407E-02
    1.3898965563E-02    1.3704214001E-02    1.3512160378E-02    1.3322767849E-02
    1.3136000067E-02    1.2951821173E-02    1.2770195788E-02    1.2591089010E-02
    1.2414466409E-02    1.2240294013E-02    1.2068538310E-02    1.1899166240E-02
    1.1732145185E-02    1.1567442969E-02    1.1405027846E-02    1.1244868500E-02
    1.1086934037E-02    1.0931193977E-02    1.0777618253E-02    1.0626177201E-02
    1.0476841559E-02    1.0329582459E-02    1.0184371422E-02    1.0041180352E-02
    9.8999815344E-03    9.7607476274E-03    9.6234516584E-03    9.4880670190E-03
    9.3545674600E-03    9.2229270872E-03    9.0931203558E-03    8.9651220666E-03
    8.8389073607E-03    8.7144517156E-03    8.5917309404E-03    8.4707211711E-03
    8.3513988671E-03    8.2337408060E-03    8.1177240800E-03    8.0033260914E-03
    7.8905245484E-03    7.7792974615E-03    7.6696231389E-03    7.5614801829E-03
    7.4548474859E-03    7.3497042266E-03    7.2460298659E-03    7.1438041435E-03
    7.0430070740E-03    6.9436189435E-03    6.8456203053E-03    6.7489919773E-03
    6.6537150376E-03    6.5597708215E-03    6.4671409182E-03    6.3758071670E-03
    6.2857516540E-03    6.1969567092E-03    6.1094049030E-03    6.0230790428E-03
    5.9379621703E-03    5.8540375577E-03    5.7712887054E-03    5.6896993384E-03
    5.6092534035E-03    5.5299350662E-03    5.4517287081E-03    5.3746189235E-03
    5.2985905170E-03    5.2236285006E-03    5.1497180907E-03    5.0768447055E-03
    5.0049939624E-03    4.9341516752E-03    4.8643038515E-03    4.7954366900E-03
    4.7275365783E-03    4.6605900899E-03    4.5945839819E-03    4.5295051928E-03
    4.4653408395E-03    4.4020782154E-03    4.3397047878E-03    4.2782081956E-03
    4.2175762471E-03    4.1577969176E-03    4.0988583471E-03    4.0407488382E-03
    3.9834568540E-03    3.9269710156E-03    3.8712801004E-03    3.8163730397E-03
    3.7622389168E-03    3.7088669647E-03    3.6562465645E-03    3.6043672429E-03
    3.5532186706E-03    3.5027906604E-03    3.4530731648E-03    3.4040562749E-03
    3.3557302175E-03    3.3080853545E-03    3.2611121798E-03    3.2148013186E-03
    3.1691435249E-03    3.1241296801E-03    3.0797507913E-03    3.0359979893E-03
    2.9928625272E-03    2.9503357787E-03    2.9084092365E-03    2.8670745104E-03
    2.8263233262E-03    2.7861475237E-03    2.7465390553E-03    2.7074899846E-03
    2.6689924847E-03    2.6310388369E-03    2.5936214289E-03    2.5567327539E-03
    2.5203654087E-03    2.4845120922E-03    2.4491656047E-03    2.4143188458E-03
    2.3799648135E-03    2.3460966024E-03    2.3127074029E-03    2.2797904998E-03
    2.2473392705E-03    2.2153471844E-03    2.1838078014E-03    2.1527147705E-03
    2.1220618288E-03    2.0918428002E-03    2.0620515941E-03    2.0326822048E-03
    2.0037287093E-03    1.9751852674E-03    1.9470461195E-03    1.9193055862E-03
    1.8919580669E-03    1.8649980388E-03    1.8384200556E-03    1.8122187471E-03
    1.7863888174E-03    1.7609250443E-03    1.7358222783E-03    1.7110754413E-03
    1.6866795261E-03    1.6626295949E-03    1.6389207789E-03    1.6155482768E-03
    1.5925073544E-03    1.5697933431E-03    1.5474016396E-03    1.5253277046E-03
    1.5035670621E-03    1.4821152985E-03    1.4609680616E-03    1.4401210600E-03
    1.4195700621E-03    1.3993108953E-03    1.3793394452E-03    1.3596516550E-03
    1.3402435243E-03    1.3211111085E-03    1.3022505183E-03    1.2836579186E-03
    1.2653295279E-03    1.2472616174E-03    1.2294505105E-03    1.2118925820E-03
    1.1945842575E-03    1.1775220123E-03    1.1607023711E-03    1.1441219074E-03
    1.1277772423E-03    1.1116650444E-03    1.0957820289E-03    1.0801249569E-03
    1.0646906350E-03    1.0494759143E-03    1.0344776902E-03    1.0196929015E-03
    1.0051185299E-03    9.9075159928E-04    9.7658917546E-04    9.6262836525E-04
    9.4886631604E-04    9.3530021524E-04    9.2192728971E-04    9.0874480520E-04
    8.9575006584E-04    8.8294041358E-04    8.7031322767E-04    8.5786592418E-04
    8.4559595543E-04    8.3350080954E-04    8.2157800990E-04    8.0982511468E-04
    7.9823971640E-04    7.8681944135E-04    7.7556194925E-04    7.6446493265E-04
    7.5352611661E-04    7.4274325813E-04    7.3211414577E-04    7.2163659922E-04
    7.1130846882E-04    7.0112763516E-04    6.9109200867E-04    6.8119952919E-04
    6.7144816556E-04    6.6183591521E-04    6.5236080379E-04    6.4302088475E-04
    6.3381423896E-04    6.2473897433E-04    6.1579322542E-04    6.0697515312E-04
    5.9828294419E-04    5.8971481100E-04    5.8126899109E-04    5.7294374687E-04
    5.6473736526E-04    5.5664815735E-04    5.4867445804E-04    5.4081462574E-04
    5.3306704202E-04    5.2543011130E-04    5.1790226051E-04    5.1048193880E-04
    5.0316761723E-04    4.9595778844E-04    4.8885096635E-04    4.8184568589E-04
    4.7494050270E-04    4.6813399279E-04    4.6142475233E-04    4.5481139733E-04
    4.4829256334E-04    4.4186690523E-04    4.3553309687E-04    4.2928983090E-04
    4.2313581843E-04    4.1706978883E-04    4.1109048942E-04    4.0519668526E-04
    3.9938715888E-04    3.9366071006E-04    3.8801615553E-04    3.8245232881E-04
    3.7696807992E-04    3.7156227515E-04    3.6623379687E-04    3.6098154328E-04
    3.5580442817E-04    3.5070138072E-04    3.4567134529E-04    3.4071328121E-04
    3.3582616254E-04    3.3100897790E-04    3.2626073022E-04    3.2158043660E-04
    3.1696712805E-04    3.1241984934E-04    3.0793765877E-04    3.0351962801E-04
    2.9916484190E-04    2.9487239826E-04    2.9064140771E-04    2.8647099349E-04
    2.8236029129E-04    2.7830844905E-04    2.7431462684E-04    2.7037799662E-04
    2.6649774213E-04    2.6267305868E-04    2.5890315302E-04    2.5518724318E-04
    2.5152455827E-04    2.4791433838E-04    2.4435583437E-04    2.4084830776E-04
    2.3739103057E-04    2.3398328514E-04    2.3062436405E-04    2.2731356989E-04
    2.2405021521E-04    2.2083362231E-04    2.1766312312E-04    2.1453805909E-04
    2.1145778102E-04    2.0842164896E-04    2.0542903204E-04    2.0247930838E-04
    1.9957186496E-04    1.9670609746E-04    1.9388141017E-04    1.9109721586E-04
    1.8835293566E-04    1.8564799892E-04    1.8298184314E-04    1.8035391382E-04
    1.7776366435E-04    1.7521055591E-04    1.7269405733E-04    1.7021364505E-04
    1.6776880293E-04    1.6535902220E-04    1.6298380133E-04    1.6064264593E-04
    1.5833506867E-04    1.5606058916E-04    1.5381873385E-04    1.5160903593E-04
    1.4943103528E-04    1.4728427829E-04    1.4516831785E-04    1.4308271322E-04
    1.4102702994E-04    1.3900083974E-04    1.3700372045E-04    1.3503525595E-04
    1.3309503604E-04    1.3118265636E-04    1.2929771832E-04    1.2743982904E-04
    1.2560860121E-04    1.2380365308E-04    1.2202460833E-04    1.2027109601E-04
    1.1854275047E-04    1.1683921127E-04    1.1516012312E-04    1.1350513580E-04
    1.1187390410E-04    1.1026608773E-04    1.0868135125E-04    1.0711936403E-04
    1.0557980014E-04    1.0406233832E-04    1.0256666189E-04    1.0109245870E-04
    9.9639421045E-05    9.8207245637E-05    9.6795633504E-05    9.5404289952E-05
    9.4032924496E-05    9.2681250801E-05    9.1348986624E-05    9.0035853757E-05
    8.8741577966E-05    8.7465888939E-05    8.6208520226E-05    8.4969209186E-05
    8.3747696932E-05    8.2543728279E-05    8.1357051691E-05    8.0187419228E-05
    7.9034586494E-05    7.7898312590E-05    7.6778360060E-05    7.5674494845E-05
    7.4586486235E-05    7.3514106818E-05    7.2457132435E-05    7.1415342134E-05
    7.0388518125E-05    6.9376445732E-05    6.8378913353E-05    6.7395712410E-05
    6.6426637314E-05    6.5471485414E-05    6.4530056961E-05    6.3602155066E-05
    6.2687585655E-05    6.1786157434E-05    6.0897681847E-05    6.0021973036E-05
    5.9158847804E-05    5.8308125579E-05    5.7469628370E-05    5.6643180738E-05
    5.5828609755E-05    5.5025744967E-05    5.4234418366E-05    5.3454464345E-05
    5.2685719671E-05    5.1928023449E-05    5.1181217087E-05    5.0445144267E-05
    4.9719650908E-05    4.9004585137E-05    4.8299797257E-05    4.7605139715E-05
    4.6920467073E-05    4.6245635975E-05    4.5580505121E-05    4.4924935236E-05
    4.4278789038E-05    4.3641931214E-05    4.3014228392E-05    4.2395549108E-05
    4.1785763784E-05    4.1184744699E-05    4.0592365965E-05    4.0008503494E-05
    3.9433034979E-05    3.8865839868E-05    3.8306799334E-05    3.7755796257E-05
    3.7212715194E-05    3.6677442357E-05    3.6149865591E-05    3.5629874348E-05
    3.5117359665E-05    3.4612214144E-05    3.4114331925E-05    3.3623608666E-05
    3.3139941522E-05    3.2663229124E-05    3.2193371555E-05    3.1730270333E-05
    3.1273828388E-05    3.0823950042E-05    3.0380540990E-05    2.9943508280E-05
    2.9512760294E-05    2.9088206726E-05    2.8669758569E-05    2.8257328091E-05
    2.7850828819E-05    2.7450175521E-05    2.7055284189E-05    2.6666072018E-05
    2.6282457395E-05    2.5904359875E-05    2.5531700170E-05    2.5164400126E-05
    2.4802382715E-05    2.4445572013E-05    2.4093893185E-05    2.3747272472E-05
    2.3405637171E-05    2.3068915625E-05    2.2737037204E-05    2.2409932295E-05
    2.2087532280E-05    2.1769769528E-05    2.1456577382E-05    2.1147890137E-05
    2.0843643034E-05    2.0543772243E-05    2.0248214853E-05    1.9956908852E-05
    1.9669793123E-05    1.9386807423E-05    1.9107892376E-05    1.8832989458E-05
    1.8562040987E-05    1.8294990106E-05    1.8031780779E-05    1.7772357771E-05
    1.7516666643E-05    1.7264653735E-05    1.7016266161E-05    1.6771451793E-05
    1.6530159253E-05    1.6292337898E-05    1.6057937815E-05    1.5826909809E-05
    1.5599205388E-05    1.5374776760E-05    1.5153576819E-05    1.4935559135E-05
    1.4720677946E-05    1.4508888145E-05    1.4300145275E-05    1.4094405520E-05
    1.3891625689E-05    1.3691763215E-05    1.3494776141E-05    1.3300623114E-05
    1.3109263373E-05    1.2920656747E-05    1.2734763637E-05    1.2551545018E-05
    1.2370962423E-05    1.2192977938E-05    1.2017554194E-05    1.1844654359E-05
    1.1674242132E-05    1.1506281733E-05    1.1340737893E-05    1.1177575856E-05
    1.1016761360E-05    1.0858260638E-05    1.0702040409E-05    1.0548067869E-05
    1.0396310685E-05    1.0246736992E-05    1.0099315379E-05    9.9540148894E-06
    9.8108050101E-06    9.6696556676E-06    9.5305372202E-06    9.3934204526E-06
    9.2582765694E-06    9.1250771892E-06    8.9937943387E-06    8.8644004465E-06
    8.7368683382E-06    8.6111712296E-06    8.4872827220E-06    8.3651767960E-06
    8.2448278063E-06    8.1262104764E-06    8.0092998933E-06    7.8940715024E-06
    7.7805011019E-06    7.6685648384E-06    7.5582392010E-06    7.4495010172E-06
    7.3423274476E-06    7.2366959814E-06    7.1325844316E-06    7.0299709300E-06
    6.9288339231E-06    6.8291521673E-06    6.7309047245E-06    6.6340709576E-06
    6.5386305267E-06    6.4445633840E-06    6.3518497705E-06    6.2604702109E-06
    6.1704055104E-06    6.0816367499E-06    5.9941452826E-06    5.9079127302E-06
    5.8229209783E-06    5.7391521735E-06    5.6565887187E-06    5.5752132702E-06
 </PP_RHOATOM>
 <PP_SPIN_ORB>
   <PP_RELBETA.1  index="1"  lll="0" jjj="0.5"/>
   <PP_RELBETA.2  index="2"  lll="0" jjj="0.5"/>
   <PP_RELBETA.3  index="3"  lll="1" jjj="0.5"/>
   <PP_RELBETA.4  index="4"  lll="1" jjj="1.5"/>
   <PP_RELBETA.5  index="5"  lll="1" jjj="0.5"/>
   <PP_RELBETA.6  index="6"  lll="1" jjj="1.5"/>
   <PP_RELBETA.7  index="7"  lll="2" jjj="1.5"/>
   <PP_RELBETA.8  index="8"  lll="2" jjj="2.5"/>
   <PP_RELBETA.9  index="9"  lll="2" jjj="1.5"/>
   <PP_RELBETA.10 index="10" lll="2" jjj="2.5"/>
   <PP_RELWFC.1  index="1"  lchi="0" jchi="0.5" nn="1"/>
   <PP_RELWFC.2  index="2"  lchi="1" jchi="1.5" nn="2"/>
   <PP_RELWFC.3  index="3"  lchi="1" jchi="0.5" nn="2"/>
 </PP_SPIN_ORB>
</UPF>

