<UPF version="2.0.1">
  <PP_INFO>

 This pseudopotential file has been produced using the code
 ONCVPSP  (Optimized Norm-Conservinng Vanderbilt PSeudopotential)
 fully-relativistic version 4.0.1 06/20/2107 by D. R. Hamann
 The code is available through a link at URL www.mat-simresearch.com.
 Documentation with the package provides a full discription of the
 input data below.


 While it is not required under the terms of the GNU GPL, it is
 suggested that you cite D. R. Hamann, Phys. Rev. B 88, 085117 (2013)
 in any publication using these pseudopotentials.

    <PP_INPUTFILE>
# ATOM AND REFERENCE CONFIGURATION
# atsym  z   nc   nv     iexc    psfile
  Sc 21.00    3    4       4      upf
#
#   n    l    f        energy (Ha)
    1    0    2.00
    2    0    2.00
    2    1    6.00
    3    0    2.00
    3    1    6.00
    3    2    1.00
    4    0    2.00
#
# PSEUDOPOTENTIAL AND OPTIMIZATION
# lmax
    2
#
#   l,   rc,     ep,   ncon, nbas, qcut
    0   2.50000  -2.02265    4    8   7.50000
    1   2.50000  -1.23568    4    8   7.50000
    2   2.36398  -0.11882    4    8   6.67894
#
# LOCAL POTENTIAL
# lloc, lpopt,  rc(5),   dvloc0
    4    5   1.30000      0.00000
#
# VANDERBILT-KLEINMAN-BYLANDER PROJECTORs
# l, nproj, debl
    0    2   1.86892
    1    2   2.00000
    2    2   2.00000
#
# MODEL CORE CHARGE
# icmod, fcfact, rcfact
    3   5.00000   1.25000
#
# LOG DERIVATIVE ANALYSIS
# epsh1, epsh2, depsh
  -12.00   12.00    0.02
#
# OUTPUT GRID
# rlmax, drl
    6.00    0.01
#
# TEST CONFIGURATIONS
# ncnf
    0
# nvcnf
#   n    l    f
    </PP_INPUTFILE>
  </PP_INFO>
  <!--                               -->
  <!-- END OF HUMAN READABLE SECTION -->
  <!--                               -->
    <PP_HEADER
       generated="Generated using ONCVPSP code by D. R. Hamann"
       author="anonymous"
       date="260612"
       comment=""
       element="Sc"
       pseudo_type="NC"
       relativistic="full"
       is_ultrasoft="F"
       is_paw="F"
       is_coulomb="F"
       has_so="T"
       has_wfc="F"
       has_gipaw="F"
       core_correction="T"
       functional="PBE"
       z_valence="   11.00"
       total_psenergy="  -9.29644896349E+01"
       rho_cutoff="   1.64900000000E+01"
       l_max="2"
       l_local="-1"
       mesh_size="  1650"
       number_of_wfc="6"
       number_of_proj="10"/>
 <PP_MESH>
   <PP_R type="real"  size="1650" columns="8">
    0.0000    0.0100    0.0200    0.0300    0.0400    0.0500    0.0600    0.0700
    0.0800    0.0900    0.1000    0.1100    0.1200    0.1300    0.1400    0.1500
    0.1600    0.1700    0.1800    0.1900    0.2000    0.2100    0.2200    0.2300
    0.2400    0.2500    0.2600    0.2700    0.2800    0.2900    0.3000    0.3100
    0.3200    0.3300    0.3400    0.3500    0.3600    0.3700    0.3800    0.3900
    0.4000    0.4100    0.4200    0.4300    0.4400    0.4500    0.4600    0.4700
    0.4800    0.4900    0.5000    0.5100    0.5200    0.5300    0.5400    0.5500
    0.5600    0.5700    0.5800    0.5900    0.6000    0.6100    0.6200    0.6300
    0.6400    0.6500    0.6600    0.6700    0.6800    0.6900    0.7000    0.7100
    0.7200    0.7300    0.7400    0.7500    0.7600    0.7700    0.7800    0.7900
    0.8000    0.8100    0.8200    0.8300    0.8400    0.8500    0.8600    0.8700
    0.8800    0.8900    0.9000    0.9100    0.9200    0.9300    0.9400    0.9500
    0.9600    0.9700    0.9800    0.9900    1.0000    1.0100    1.0200    1.0300
    1.0400    1.0500    1.0600    1.0700    1.0800    1.0900    1.1000    1.1100
    1.1200    1.1300    1.1400    1.1500    1.1600    1.1700    1.1800    1.1900
    1.2000    1.2100    1.2200    1.2300    1.2400    1.2500    1.2600    1.2700
    1.2800    1.2900    1.3000    1.3100    1.3200    1.3300    1.3400    1.3500
    1.3600    1.3700    1.3800    1.3900    1.4000    1.4100    1.4200    1.4300
    1.4400    1.4500    1.4600    1.4700    1.4800    1.4900    1.5000    1.5100
    1.5200    1.5300    1.5400    1.5500    1.5600    1.5700    1.5800    1.5900
    1.6000    1.6100    1.6200    1.6300    1.6400    1.6500    1.6600    1.6700
    1.6800    1.6900    1.7000    1.7100    1.7200    1.7300    1.7400    1.7500
    1.7600    1.7700    1.7800    1.7900    1.8000    1.8100    1.8200    1.8300
    1.8400    1.8500    1.8600    1.8700    1.8800    1.8900    1.9000    1.9100
    1.9200    1.9300    1.9400    1.9500    1.9600    1.9700    1.9800    1.9900
    2.0000    2.0100    2.0200    2.0300    2.0400    2.0500    2.0600    2.0700
    2.0800    2.0900    2.1000    2.1100    2.1200    2.1300    2.1400    2.1500
    2.1600    2.1700    2.1800    2.1900    2.2000    2.2100    2.2200    2.2300
    2.2400    2.2500    2.2600    2.2700    2.2800    2.2900    2.3000    2.3100
    2.3200    2.3300    2.3400    2.3500    2.3600    2.3700    2.3800    2.3900
    2.4000    2.4100    2.4200    2.4300    2.4400    2.4500    2.4600    2.4700
    2.4800    2.4900    2.5000    2.5100    2.5200    2.5300    2.5400    2.5500
    2.5600    2.5700    2.5800    2.5900    2.6000    2.6100    2.6200    2.6300
    2.6400    2.6500    2.6600    2.6700    2.6800    2.6900    2.7000    2.7100
    2.7200    2.7300    2.7400    2.7500    2.7600    2.7700    2.7800    2.7900
    2.8000    2.8100    2.8200    2.8300    2.8400    2.8500    2.8600    2.8700
    2.8800    2.8900    2.9000    2.9100    2.9200    2.9300    2.9400    2.9500
    2.9600    2.9700    2.9800    2.9900    3.0000    3.0100    3.0200    3.0300
    3.0400    3.0500    3.0600    3.0700    3.0800    3.0900    3.1000    3.1100
    3.1200    3.1300    3.1400    3.1500    3.1600    3.1700    3.1800    3.1900
    3.2000    3.2100    3.2200    3.2300    3.2400    3.2500    3.2600    3.2700
    3.2800    3.2900    3.3000    3.3100    3.3200    3.3300    3.3400    3.3500
    3.3600    3.3700    3.3800    3.3900    3.4000    3.4100    3.4200    3.4300
    3.4400    3.4500    3.4600    3.4700    3.4800    3.4900    3.5000    3.5100
    3.5200    3.5300    3.5400    3.5500    3.5600    3.5700    3.5800    3.5900
    3.6000    3.6100    3.6200    3.6300    3.6400    3.6500    3.6600    3.6700
    3.6800    3.6900    3.7000    3.7100    3.7200    3.7300    3.7400    3.7500
    3.7600    3.7700    3.7800    3.7900    3.8000    3.8100    3.8200    3.8300
    3.8400    3.8500    3.8600    3.8700    3.8800    3.8900    3.9000    3.9100
    3.9200    3.9300    3.9400    3.9500    3.9600    3.9700    3.9800    3.9900
    4.0000    4.0100    4.0200    4.0300    4.0400    4.0500    4.0600    4.0700
    4.0800    4.0900    4.1000    4.1100    4.1200    4.1300    4.1400    4.1500
    4.1600    4.1700    4.1800    4.1900    4.2000    4.2100    4.2200    4.2300
    4.2400    4.2500    4.2600    4.2700    4.2800    4.2900    4.3000    4.3100
    4.3200    4.3300    4.3400    4.3500    4.3600    4.3700    4.3800    4.3900
    4.4000    4.4100    4.4200    4.4300    4.4400    4.4500    4.4600    4.4700
    4.4800    4.4900    4.5000    4.5100    4.5200    4.5300    4.5400    4.5500
    4.5600    4.5700    4.5800    4.5900    4.6000    4.6100    4.6200    4.6300
    4.6400    4.6500    4.6600    4.6700    4.6800    4.6900    4.7000    4.7100
    4.7200    4.7300    4.7400    4.7500    4.7600    4.7700    4.7800    4.7900
    4.8000    4.8100    4.8200    4.8300    4.8400    4.8500    4.8600    4.8700
    4.8800    4.8900    4.9000    4.9100    4.9200    4.9300    4.9400    4.9500
    4.9600    4.9700    4.9800    4.9900    5.0000    5.0100    5.0200    5.0300
    5.0400    5.0500    5.0600    5.0700    5.0800    5.0900    5.1000    5.1100
    5.1200    5.1300    5.1400    5.1500    5.1600    5.1700    5.1800    5.1900
    5.2000    5.2100    5.2200    5.2300    5.2400    5.2500    5.2600    5.2700
    5.2800    5.2900    5.3000    5.3100    5.3200    5.3300    5.3400    5.3500
    5.3600    5.3700    5.3800    5.3900    5.4000    5.4100    5.4200    5.4300
    5.4400    5.4500    5.4600    5.4700    5.4800    5.4900    5.5000    5.5100
    5.5200    5.5300    5.5400    5.5500    5.5600    5.5700    5.5800    5.5900
    5.6000    5.6100    5.6200    5.6300    5.6400    5.6500    5.6600    5.6700
    5.6800    5.6900    5.7000    5.7100    5.7200    5.7300    5.7400    5.7500
    5.7600    5.7700    5.7800    5.7900    5.8000    5.8100    5.8200    5.8300
    5.8400    5.8500    5.8600    5.8700    5.8800    5.8900    5.9000    5.9100
    5.9200    5.9300    5.9400    5.9500    5.9600    5.9700    5.9800    5.9900
    6.0000    6.0100    6.0200    6.0300    6.0400    6.0500    6.0600    6.0700
    6.0800    6.0900    6.1000    6.1100    6.1200    6.1300    6.1400    6.1500
    6.1600    6.1700    6.1800    6.1900    6.2000    6.2100    6.2200    6.2300
    6.2400    6.2500    6.2600    6.2700    6.2800    6.2900    6.3000    6.3100
    6.3200    6.3300    6.3400    6.3500    6.3600    6.3700    6.3800    6.3900
    6.4000    6.4100    6.4200    6.4300    6.4400    6.4500    6.4600    6.4700
    6.4800    6.4900    6.5000    6.5100    6.5200    6.5300    6.5400    6.5500
    6.5600    6.5700    6.5800    6.5900    6.6000    6.6100    6.6200    6.6300
    6.6400    6.6500    6.6600    6.6700    6.6800    6.6900    6.7000    6.7100
    6.7200    6.7300    6.7400    6.7500    6.7600    6.7700    6.7800    6.7900
    6.8000    6.8100    6.8200    6.8300    6.8400    6.8500    6.8600    6.8700
    6.8800    6.8900    6.9000    6.9100    6.9200    6.9300    6.9400    6.9500
    6.9600    6.9700    6.9800    6.9900    7.0000    7.0100    7.0200    7.0300
    7.0400    7.0500    7.0600    7.0700    7.0800    7.0900    7.1000    7.1100
    7.1200    7.1300    7.1400    7.1500    7.1600    7.1700    7.1800    7.1900
    7.2000    7.2100    7.2200    7.2300    7.2400    7.2500    7.2600    7.2700
    7.2800    7.2900    7.3000    7.3100    7.3200    7.3300    7.3400    7.3500
    7.3600    7.3700    7.3800    7.3900    7.4000    7.4100    7.4200    7.4300
    7.4400    7.4500    7.4600    7.4700    7.4800    7.4900    7.5000    7.5100
    7.5200    7.5300    7.5400    7.5500    7.5600    7.5700    7.5800    7.5900
    7.6000    7.6100    7.6200    7.6300    7.6400    7.6500    7.6600    7.6700
    7.6800    7.6900    7.7000    7.7100    7.7200    7.7300    7.7400    7.7500
    7.7600    7.7700    7.7800    7.7900    7.8000    7.8100    7.8200    7.8300
    7.8400    7.8500    7.8600    7.8700    7.8800    7.8900    7.9000    7.9100
    7.9200    7.9300    7.9400    7.9500    7.9600    7.9700    7.9800    7.9900
    8.0000    8.0100    8.0200    8.0300    8.0400    8.0500    8.0600    8.0700
    8.0800    8.0900    8.1000    8.1100    8.1200    8.1300    8.1400    8.1500
    8.1600    8.1700    8.1800    8.1900    8.2000    8.2100    8.2200    8.2300
    8.2400    8.2500    8.2600    8.2700    8.2800    8.2900    8.3000    8.3100
    8.3200    8.3300    8.3400    8.3500    8.3600    8.3700    8.3800    8.3900
    8.4000    8.4100    8.4200    8.4300    8.4400    8.4500    8.4600    8.4700
    8.4800    8.4900    8.5000    8.5100    8.5200    8.5300    8.5400    8.5500
    8.5600    8.5700    8.5800    8.5900    8.6000    8.6100    8.6200    8.6300
    8.6400    8.6500    8.6600    8.6700    8.6800    8.6900    8.7000    8.7100
    8.7200    8.7300    8.7400    8.7500    8.7600    8.7700    8.7800    8.7900
    8.8000    8.8100    8.8200    8.8300    8.8400    8.8500    8.8600    8.8700
    8.8800    8.8900    8.9000    8.9100    8.9200    8.9300    8.9400    8.9500
    8.9600    8.9700    8.9800    8.9900    9.0000    9.0100    9.0200    9.0300
    9.0400    9.0500    9.0600    9.0700    9.0800    9.0900    9.1000    9.1100
    9.1200    9.1300    9.1400    9.1500    9.1600    9.1700    9.1800    9.1900
    9.2000    9.2100    9.2200    9.2300    9.2400    9.2500    9.2600    9.2700
    9.2800    9.2900    9.3000    9.3100    9.3200    9.3300    9.3400    9.3500
    9.3600    9.3700    9.3800    9.3900    9.4000    9.4100    9.4200    9.4300
    9.4400    9.4500    9.4600    9.4700    9.4800    9.4900    9.5000    9.5100
    9.5200    9.5300    9.5400    9.5500    9.5600    9.5700    9.5800    9.5900
    9.6000    9.6100    9.6200    9.6300    9.6400    9.6500    9.6600    9.6700
    9.6800    9.6900    9.7000    9.7100    9.7200    9.7300    9.7400    9.7500
    9.7600    9.7700    9.7800    9.7900    9.8000    9.8100    9.8200    9.8300
    9.8400    9.8500    9.8600    9.8700    9.8800    9.8900    9.9000    9.9100
    9.9200    9.9300    9.9400    9.9500    9.9600    9.9700    9.9800    9.9900
   10.0000   10.0100   10.0200   10.0300   10.0400   10.0500   10.0600   10.0700
   10.0800   10.0900   10.1000   10.1100   10.1200   10.1300   10.1400   10.1500
   10.1600   10.1700   10.1800   10.1900   10.2000   10.2100   10.2200   10.2300
   10.2400   10.2500   10.2600   10.2700   10.2800   10.2900   10.3000   10.3100
   10.3200   10.3300   10.3400   10.3500   10.3600   10.3700   10.3800   10.3900
   10.4000   10.4100   10.4200   10.4300   10.4400   10.4500   10.4600   10.4700
   10.4800   10.4900   10.5000   10.5100   10.5200   10.5300   10.5400   10.5500
   10.5600   10.5700   10.5800   10.5900   10.6000   10.6100   10.6200   10.6300
   10.6400   10.6500   10.6600   10.6700   10.6800   10.6900   10.7000   10.7100
   10.7200   10.7300   10.7400   10.7500   10.7600   10.7700   10.7800   10.7900
   10.8000   10.8100   10.8200   10.8300   10.8400   10.8500   10.8600   10.8700
   10.8800   10.8900   10.9000   10.9100   10.9200   10.9300   10.9400   10.9500
   10.9600   10.9700   10.9800   10.9900   11.0000   11.0100   11.0200   11.0300
   11.0400   11.0500   11.0600   11.0700   11.0800   11.0900   11.1000   11.1100
   11.1200   11.1300   11.1400   11.1500   11.1600   11.1700   11.1800   11.1900
   11.2000   11.2100   11.2200   11.2300   11.2400   11.2500   11.2600   11.2700
   11.2800   11.2900   11.3000   11.3100   11.3200   11.3300   11.3400   11.3500
   11.3600   11.3700   11.3800   11.3900   11.4000   11.4100   11.4200   11.4300
   11.4400   11.4500   11.4600   11.4700   11.4800   11.4900   11.5000   11.5100
   11.5200   11.5300   11.5400   11.5500   11.5600   11.5700   11.5800   11.5900
   11.6000   11.6100   11.6200   11.6300   11.6400   11.6500   11.6600   11.6700
   11.6800   11.6900   11.7000   11.7100   11.7200   11.7300   11.7400   11.7500
   11.7600   11.7700   11.7800   11.7900   11.8000   11.8100   11.8200   11.8300
   11.8400   11.8500   11.8600   11.8700   11.8800   11.8900   11.9000   11.9100
   11.9200   11.9300   11.9400   11.9500   11.9600   11.9700   11.9800   11.9900
   12.0000   12.0100   12.0200   12.0300   12.0400   12.0500   12.0600   12.0700
   12.0800   12.0900   12.1000   12.1100   12.1200   12.1300   12.1400   12.1500
   12.1600   12.1700   12.1800   12.1900   12.2000   12.2100   12.2200   12.2300
   12.2400   12.2500   12.2600   12.2700   12.2800   12.2900   12.3000   12.3100
   12.3200   12.3300   12.3400   12.3500   12.3600   12.3700   12.3800   12.3900
   12.4000   12.4100   12.4200   12.4300   12.4400   12.4500   12.4600   12.4700
   12.4800   12.4900   12.5000   12.5100   12.5200   12.5300   12.5400   12.5500
   12.5600   12.5700   12.5800   12.5900   12.6000   12.6100   12.6200   12.6300
   12.6400   12.6500   12.6600   12.6700   12.6800   12.6900   12.7000   12.7100
   12.7200   12.7300   12.7400   12.7500   12.7600   12.7700   12.7800   12.7900
   12.8000   12.8100   12.8200   12.8300   12.8400   12.8500   12.8600   12.8700
   12.8800   12.8900   12.9000   12.9100   12.9200   12.9300   12.9400   12.9500
   12.9600   12.9700   12.9800   12.9900   13.0000   13.0100   13.0200   13.0300
   13.0400   13.0500   13.0600   13.0700   13.0800   13.0900   13.1000   13.1100
   13.1200   13.1300   13.1400   13.1500   13.1600   13.1700   13.1800   13.1900
   13.2000   13.2100   13.2200   13.2300   13.2400   13.2500   13.2600   13.2700
   13.2800   13.2900   13.3000   13.3100   13.3200   13.3300   13.3400   13.3500
   13.3600   13.3700   13.3800   13.3900   13.4000   13.4100   13.4200   13.4300
   13.4400   13.4500   13.4600   13.4700   13.4800   13.4900   13.5000   13.5100
   13.5200   13.5300   13.5400   13.5500   13.5600   13.5700   13.5800   13.5900
   13.6000   13.6100   13.6200   13.6300   13.6400   13.6500   13.6600   13.6700
   13.6800   13.6900   13.7000   13.7100   13.7200   13.7300   13.7400   13.7500
   13.7600   13.7700   13.7800   13.7900   13.8000   13.8100   13.8200   13.8300
   13.8400   13.8500   13.8600   13.8700   13.8800   13.8900   13.9000   13.9100
   13.9200   13.9300   13.9400   13.9500   13.9600   13.9700   13.9800   13.9900
   14.0000   14.0100   14.0200   14.0300   14.0400   14.0500   14.0600   14.0700
   14.0800   14.0900   14.1000   14.1100   14.1200   14.1300   14.1400   14.1500
   14.1600   14.1700   14.1800   14.1900   14.2000   14.2100   14.2200   14.2300
   14.2400   14.2500   14.2600   14.2700   14.2800   14.2900   14.3000   14.3100
   14.3200   14.3300   14.3400   14.3500   14.3600   14.3700   14.3800   14.3900
   14.4000   14.4100   14.4200   14.4300   14.4400   14.4500   14.4600   14.4700
   14.4800   14.4900   14.5000   14.5100   14.5200   14.5300   14.5400   14.5500
   14.5600   14.5700   14.5800   14.5900   14.6000   14.6100   14.6200   14.6300
   14.6400   14.6500   14.6600   14.6700   14.6800   14.6900   14.7000   14.7100
   14.7200   14.7300   14.7400   14.7500   14.7600   14.7700   14.7800   14.7900
   14.8000   14.8100   14.8200   14.8300   14.8400   14.8500   14.8600   14.8700
   14.8800   14.8900   14.9000   14.9100   14.9200   14.9300   14.9400   14.9500
   14.9600   14.9700   14.9800   14.9900   15.0000   15.0100   15.0200   15.0300
   15.0400   15.0500   15.0600   15.0700   15.0800   15.0900   15.1000   15.1100
   15.1200   15.1300   15.1400   15.1500   15.1600   15.1700   15.1800   15.1900
   15.2000   15.2100   15.2200   15.2300   15.2400   15.2500   15.2600   15.2700
   15.2800   15.2900   15.3000   15.3100   15.3200   15.3300   15.3400   15.3500
   15.3600   15.3700   15.3800   15.3900   15.4000   15.4100   15.4200   15.4300
   15.4400   15.4500   15.4600   15.4700   15.4800   15.4900   15.5000   15.5100
   15.5200   15.5300   15.5400   15.5500   15.5600   15.5700   15.5800   15.5900
   15.6000   15.6100   15.6200   15.6300   15.6400   15.6500   15.6600   15.6700
   15.6800   15.6900   15.7000   15.7100   15.7200   15.7300   15.7400   15.7500
   15.7600   15.7700   15.7800   15.7900   15.8000   15.8100   15.8200   15.8300
   15.8400   15.8500   15.8600   15.8700   15.8800   15.8900   15.9000   15.9100
   15.9200   15.9300   15.9400   15.9500   15.9600   15.9700   15.9800   15.9900
   16.0000   16.0100   16.0200   16.0300   16.0400   16.0500   16.0600   16.0700
   16.0800   16.0900   16.1000   16.1100   16.1200   16.1300   16.1400   16.1500
   16.1600   16.1700   16.1800   16.1900   16.2000   16.2100   16.2200   16.2300
   16.2400   16.2500   16.2600   16.2700   16.2800   16.2900   16.3000   16.3100
   16.3200   16.3300   16.3400   16.3500   16.3600   16.3700   16.3800   16.3900
   16.4000   16.4100   16.4200   16.4300   16.4400   16.4500   16.4600   16.4700
   16.4800   16.4900
   </PP_R>
   <PP_RAB type="real"  size="1650" columns="8">
    0.0100    0.0100    0.0100    0.0100    0.0100    0.0100    0.0100    0.0100
    0.0100    0.0100    0.0100    0.0100    0.0100    0.0100    0.0100    0.0100
    0.0100    0.0100    0.0100    0.0100    0.0100    0.0100    0.0100    0.0100
    0.0100    0.0100    0.0100    0.0100    0.0100    0.0100    0.0100    0.0100
    0.0100    0.0100    0.0100    0.0100    0.0100    0.0100    0.0100    0.0100
    0.0100    0.0100    0.0100    0.0100    0.0100    0.0100    0.0100    0.0100
    0.0100    0.0100    0.0100    0.0100    0.0100    0.0100    0.0100    0.0100
    0.0100    0.0100    0.0100    0.0100    0.0100    0.0100    0.0100    0.0100
    0.0100    0.0100    0.0100    0.0100    0.0100    0.0100    0.0100    0.0100
    0.0100    0.0100    0.0100    0.0100    0.0100    0.0100    0.0100    0.0100
    0.0100    0.0100    0.0100    0.0100    0.0100    0.0100    0.0100    0.0100
    0.0100    0.0100    0.0100    0.0100    0.0100    0.0100    0.0100    0.0100
    0.0100    0.0100    0.0100    0.0100    0.0100    0.0100    0.0100    0.0100
    0.0100    0.0100    0.0100    0.0100    0.0100    0.0100    0.0100    0.0100
    0.0100    0.0100    0.0100    0.0100    0.0100    0.0100    0.0100    0.0100
    0.0100    0.0100    0.0100    0.0100    0.0100    0.0100    0.0100    0.0100
    0.0100    0.0100    0.0100    0.0100    0.0100    0.0100    0.0100    0.0100
    0.0100    0.0100    0.0100    0.0100    0.0100    0.0100    0.0100    0.0100
    0.0100    0.0100    0.0100    0.0100    0.0100    0.0100    0.0100    0.0100
    0.0100    0.0100    0.0100    0.0100    0.0100    0.0100    0.0100    0.0100
    0.0100    0.0100    0.0100    0.0100    0.0100    0.0100    0.0100    0.0100
    0.0100    0.0100    0.0100    0.0100    0.0100    0.0100    0.0100    0.0100
    0.0100    0.0100    0.0100    0.0100    0.0100    0.0100    0.0100    0.0100
    0.0100    0.0100    0.0100    0.0100    0.0100    0.0100    0.0100    0.0100
    0.0100    0.0100    0.0100    0.0100    0.0100    0.0100    0.0100    0.0100
    0.0100    0.0100    0.0100    0.0100    0.0100    0.0100    0.0100    0.0100
    0.0100    0.0100    0.0100    0.0100    0.0100    0.0100    0.0100    0.0100
    0.0100    0.0100    0.0100    0.0100    0.0100    0.0100    0.0100    0.0100
    0.0100    0.0100    0.0100    0.0100    0.0100    0.0100    0.0100    0.0100
    0.0100    0.0100    0.0100    0.0100    0.0100    0.0100    0.0100    0.0100
    0.0100    0.0100    0.0100    0.0100    0.0100    0.0100    0.0100    0.0100
    0.0100    0.0100    0.0100    0.0100    0.0100    0.0100    0.0100    0.0100
    0.0100    0.0100    0.0100    0.0100    0.0100    0.0100    0.0100    0.0100
    0.0100    0.0100    0.0100    0.0100    0.0100    0.0100    0.0100    0.0100
    0.0100    0.0100    0.0100    0.0100    0.0100    0.0100    0.0100    0.0100
    0.0100    0.0100    0.0100    0.0100    0.0100    0.0100    0.0100    0.0100
    0.0100    0.0100    0.0100    0.0100    0.0100    0.0100    0.0100    0.0100
    0.0100    0.0100    0.0100    0.0100    0.0100    0.0100    0.0100    0.0100
    0.0100    0.0100    0.0100    0.0100    0.0100    0.0100    0.0100    0.0100
    0.0100    0.0100    0.0100    0.0100    0.0100    0.0100    0.0100    0.0100
    0.0100    0.0100    0.0100    0.0100    0.0100    0.0100    0.0100    0.0100
    0.0100    0.0100    0.0100    0.0100    0.0100    0.0100    0.0100    0.0100
    0.0100    0.0100    0.0100    0.0100    0.0100    0.0100    0.0100    0.0100
    0.0100    0.0100    0.0100    0.0100    0.0100    0.0100    0.0100    0.0100
    0.0100    0.0100    0.0100    0.0100    0.0100    0.0100    0.0100    0.0100
    0.0100    0.0100    0.0100    0.0100    0.0100    0.0100    0.0100    0.0100
    0.0100    0.0100    0.0100    0.0100    0.0100    0.0100    0.0100    0.0100
    0.0100    0.0100    0.0100    0.0100    0.0100    0.0100    0.0100    0.0100
    0.0100    0.0100    0.0100    0.0100    0.0100    0.0100    0.0100    0.0100
    0.0100    0.0100    0.0100    0.0100    0.0100    0.0100    0.0100    0.0100
    0.0100    0.0100    0.0100    0.0100    0.0100    0.0100    0.0100    0.0100
    0.0100    0.0100    0.0100    0.0100    0.0100    0.0100    0.0100    0.0100
    0.0100    0.0100    0.0100    0.0100    0.0100    0.0100    0.0100    0.0100
    0.0100    0.0100    0.0100    0.0100    0.0100    0.0100    0.0100    0.0100
    0.0100    0.0100    0.0100    0.0100    0.0100    0.0100    0.0100    0.0100
    0.0100    0.0100    0.0100    0.0100    0.0100    0.0100    0.0100    0.0100
    0.0100    0.0100    0.0100    0.0100    0.0100    0.0100    0.0100    0.0100
    0.0100    0.0100    0.0100    0.0100    0.0100    0.0100    0.0100    0.0100
    0.0100    0.0100    0.0100    0.0100    0.0100    0.0100    0.0100    0.0100
    0.0100    0.0100    0.0100    0.0100    0.0100    0.0100    0.0100    0.0100
    0.0100    0.0100    0.0100    0.0100    0.0100    0.0100    0.0100    0.0100
    0.0100    0.0100    0.0100    0.0100    0.0100    0.0100    0.0100    0.0100
    0.0100    0.0100    0.0100    0.0100    0.0100    0.0100    0.0100    0.0100
    0.0100    0.0100    0.0100    0.0100    0.0100    0.0100    0.0100    0.0100
    0.0100    0.0100    0.0100    0.0100    0.0100    0.0100    0.0100    0.0100
    0.0100    0.0100    0.0100    0.0100    0.0100    0.0100    0.0100    0.0100
    0.0100    0.0100    0.0100    0.0100    0.0100    0.0100    0.0100    0.0100
    0.0100    0.0100    0.0100    0.0100    0.0100    0.0100    0.0100    0.0100
    0.0100    0.0100    0.0100    0.0100    0.0100    0.0100    0.0100    0.0100
    0.0100    0.0100    0.0100    0.0100    0.0100    0.0100    0.0100    0.0100
    0.0100    0.0100    0.0100    0.0100    0.0100    0.0100    0.0100    0.0100
    0.0100    0.0100    0.0100    0.0100    0.0100    0.0100    0.0100    0.0100
    0.0100    0.0100    0.0100    0.0100    0.0100    0.0100    0.0100    0.0100
    0.0100    0.0100    0.0100    0.0100    0.0100    0.0100    0.0100    0.0100
    0.0100    0.0100    0.0100    0.0100    0.0100    0.0100    0.0100    0.0100
    0.0100    0.0100    0.0100    0.0100    0.0100    0.0100    0.0100    0.0100
    0.0100    0.0100    0.0100    0.0100    0.0100    0.0100    0.0100    0.0100
    0.0100    0.0100    0.0100    0.0100    0.0100    0.0100    0.0100    0.0100
    0.0100    0.0100    0.0100    0.0100    0.0100    0.0100    0.0100    0.0100
    0.0100    0.0100    0.0100    0.0100    0.0100    0.0100    0.0100    0.0100
    0.0100    0.0100    0.0100    0.0100    0.0100    0.0100    0.0100    0.0100
    0.0100    0.0100    0.0100    0.0100    0.0100    0.0100    0.0100    0.0100
    0.0100    0.0100    0.0100    0.0100    0.0100    0.0100    0.0100    0.0100
    0.0100    0.0100    0.0100    0.0100    0.0100    0.0100    0.0100    0.0100
    0.0100    0.0100    0.0100    0.0100    0.0100    0.0100    0.0100    0.0100
    0.0100    0.0100    0.0100    0.0100    0.0100    0.0100    0.0100    0.0100
    0.0100    0.0100    0.0100    0.0100    0.0100    0.0100    0.0100    0.0100
    0.0100    0.0100    0.0100    0.0100    0.0100    0.0100    0.0100    0.0100
    0.0100    0.0100    0.0100    0.0100    0.0100    0.0100    0.0100    0.0100
    0.0100    0.0100    0.0100    0.0100    0.0100    0.0100    0.0100    0.0100
    0.0100    0.0100    0.0100    0.0100    0.0100    0.0100    0.0100    0.0100
    0.0100    0.0100    0.0100    0.0100    0.0100    0.0100    0.0100    0.0100
    0.0100    0.0100    0.0100    0.0100    0.0100    0.0100    0.0100    0.0100
    0.0100    0.0100    0.0100    0.0100    0.0100    0.0100    0.0100    0.0100
    0.0100    0.0100    0.0100    0.0100    0.0100    0.0100    0.0100    0.0100
    0.0100    0.0100    0.0100    0.0100    0.0100    0.0100    0.0100    0.0100
    0.0100    0.0100    0.0100    0.0100    0.0100    0.0100    0.0100    0.0100
    0.0100    0.0100    0.0100    0.0100    0.0100    0.0100    0.0100    0.0100
    0.0100    0.0100    0.0100    0.0100    0.0100    0.0100    0.0100    0.0100
    0.0100    0.0100    0.0100    0.0100    0.0100    0.0100    0.0100    0.0100
    0.0100    0.0100    0.0100    0.0100    0.0100    0.0100    0.0100    0.0100
    0.0100    0.0100    0.0100    0.0100    0.0100    0.0100    0.0100    0.0100
    0.0100    0.0100    0.0100    0.0100    0.0100    0.0100    0.0100    0.0100
    0.0100    0.0100    0.0100    0.0100    0.0100    0.0100    0.0100    0.0100
    0.0100    0.0100    0.0100    0.0100    0.0100    0.0100    0.0100    0.0100
    0.0100    0.0100    0.0100    0.0100    0.0100    0.0100    0.0100    0.0100
    0.0100    0.0100    0.0100    0.0100    0.0100    0.0100    0.0100    0.0100
    0.0100    0.0100    0.0100    0.0100    0.0100    0.0100    0.0100    0.0100
    0.0100    0.0100    0.0100    0.0100    0.0100    0.0100    0.0100    0.0100
    0.0100    0.0100    0.0100    0.0100    0.0100    0.0100    0.0100    0.0100
    0.0100    0.0100    0.0100    0.0100    0.0100    0.0100    0.0100    0.0100
    0.0100    0.0100    0.0100    0.0100    0.0100    0.0100    0.0100    0.0100
    0.0100    0.0100    0.0100    0.0100    0.0100    0.0100    0.0100    0.0100
    0.0100    0.0100    0.0100    0.0100    0.0100    0.0100    0.0100    0.0100
    0.0100    0.0100    0.0100    0.0100    0.0100    0.0100    0.0100    0.0100
    0.0100    0.0100    0.0100    0.0100    0.0100    0.0100    0.0100    0.0100
    0.0100    0.0100    0.0100    0.0100    0.0100    0.0100    0.0100    0.0100
    0.0100    0.0100    0.0100    0.0100    0.0100    0.0100    0.0100    0.0100
    0.0100    0.0100    0.0100    0.0100    0.0100    0.0100    0.0100    0.0100
    0.0100    0.0100    0.0100    0.0100    0.0100    0.0100    0.0100    0.0100
    0.0100    0.0100    0.0100    0.0100    0.0100    0.0100    0.0100    0.0100
    0.0100    0.0100    0.0100    0.0100    0.0100    0.0100    0.0100    0.0100
    0.0100    0.0100    0.0100    0.0100    0.0100    0.0100    0.0100    0.0100
    0.0100    0.0100    0.0100    0.0100    0.0100    0.0100    0.0100    0.0100
    0.0100    0.0100    0.0100    0.0100    0.0100    0.0100    0.0100    0.0100
    0.0100    0.0100    0.0100    0.0100    0.0100    0.0100    0.0100    0.0100
    0.0100    0.0100    0.0100    0.0100    0.0100    0.0100    0.0100    0.0100
    0.0100    0.0100    0.0100    0.0100    0.0100    0.0100    0.0100    0.0100
    0.0100    0.0100    0.0100    0.0100    0.0100    0.0100    0.0100    0.0100
    0.0100    0.0100    0.0100    0.0100    0.0100    0.0100    0.0100    0.0100
    0.0100    0.0100    0.0100    0.0100    0.0100    0.0100    0.0100    0.0100
    0.0100    0.0100    0.0100    0.0100    0.0100    0.0100    0.0100    0.0100
    0.0100    0.0100    0.0100    0.0100    0.0100    0.0100    0.0100    0.0100
    0.0100    0.0100    0.0100    0.0100    0.0100    0.0100    0.0100    0.0100
    0.0100    0.0100    0.0100    0.0100    0.0100    0.0100    0.0100    0.0100
    0.0100    0.0100    0.0100    0.0100    0.0100    0.0100    0.0100    0.0100
    0.0100    0.0100    0.0100    0.0100    0.0100    0.0100    0.0100    0.0100
    0.0100    0.0100    0.0100    0.0100    0.0100    0.0100    0.0100    0.0100
    0.0100    0.0100    0.0100    0.0100    0.0100    0.0100    0.0100    0.0100
    0.0100    0.0100    0.0100    0.0100    0.0100    0.0100    0.0100    0.0100
    0.0100    0.0100    0.0100    0.0100    0.0100    0.0100    0.0100    0.0100
    0.0100    0.0100    0.0100    0.0100    0.0100    0.0100    0.0100    0.0100
    0.0100    0.0100    0.0100    0.0100    0.0100    0.0100    0.0100    0.0100
    0.0100    0.0100    0.0100    0.0100    0.0100    0.0100    0.0100    0.0100
    0.0100    0.0100    0.0100    0.0100    0.0100    0.0100    0.0100    0.0100
    0.0100    0.0100    0.0100    0.0100    0.0100    0.0100    0.0100    0.0100
    0.0100    0.0100    0.0100    0.0100    0.0100    0.0100    0.0100    0.0100
    0.0100    0.0100    0.0100    0.0100    0.0100    0.0100    0.0100    0.0100
    0.0100    0.0100    0.0100    0.0100    0.0100    0.0100    0.0100    0.0100
    0.0100    0.0100    0.0100    0.0100    0.0100    0.0100    0.0100    0.0100
    0.0100    0.0100    0.0100    0.0100    0.0100    0.0100    0.0100    0.0100
    0.0100    0.0100    0.0100    0.0100    0.0100    0.0100    0.0100    0.0100
    0.0100    0.0100    0.0100    0.0100    0.0100    0.0100    0.0100    0.0100
    0.0100    0.0100    0.0100    0.0100    0.0100    0.0100    0.0100    0.0100
    0.0100    0.0100    0.0100    0.0100    0.0100    0.0100    0.0100    0.0100
    0.0100    0.0100    0.0100    0.0100    0.0100    0.0100    0.0100    0.0100
    0.0100    0.0100    0.0100    0.0100    0.0100    0.0100    0.0100    0.0100
    0.0100    0.0100    0.0100    0.0100    0.0100    0.0100    0.0100    0.0100
    0.0100    0.0100    0.0100    0.0100    0.0100    0.0100    0.0100    0.0100
    0.0100    0.0100    0.0100    0.0100    0.0100    0.0100    0.0100    0.0100
    0.0100    0.0100    0.0100    0.0100    0.0100    0.0100    0.0100    0.0100
    0.0100    0.0100    0.0100    0.0100    0.0100    0.0100    0.0100    0.0100
    0.0100    0.0100    0.0100    0.0100    0.0100    0.0100    0.0100    0.0100
    0.0100    0.0100    0.0100    0.0100    0.0100    0.0100    0.0100    0.0100
    0.0100    0.0100    0.0100    0.0100    0.0100    0.0100    0.0100    0.0100
    0.0100    0.0100    0.0100    0.0100    0.0100    0.0100    0.0100    0.0100
    0.0100    0.0100    0.0100    0.0100    0.0100    0.0100    0.0100    0.0100
    0.0100    0.0100    0.0100    0.0100    0.0100    0.0100    0.0100    0.0100
    0.0100    0.0100    0.0100    0.0100    0.0100    0.0100    0.0100    0.0100
    0.0100    0.0100    0.0100    0.0100    0.0100    0.0100    0.0100    0.0100
    0.0100    0.0100    0.0100    0.0100    0.0100    0.0100    0.0100    0.0100
    0.0100    0.0100    0.0100    0.0100    0.0100    0.0100    0.0100    0.0100
    0.0100    0.0100    0.0100    0.0100    0.0100    0.0100    0.0100    0.0100
    0.0100    0.0100    0.0100    0.0100    0.0100    0.0100    0.0100    0.0100
    0.0100    0.0100    0.0100    0.0100    0.0100    0.0100    0.0100    0.0100
    0.0100    0.0100    0.0100    0.0100    0.0100    0.0100    0.0100    0.0100
    0.0100    0.0100    0.0100    0.0100    0.0100    0.0100    0.0100    0.0100
    0.0100    0.0100    0.0100    0.0100    0.0100    0.0100    0.0100    0.0100
    0.0100    0.0100    0.0100    0.0100    0.0100    0.0100    0.0100    0.0100
    0.0100    0.0100    0.0100    0.0100    0.0100    0.0100    0.0100    0.0100
    0.0100    0.0100    0.0100    0.0100    0.0100    0.0100    0.0100    0.0100
    0.0100    0.0100    0.0100    0.0100    0.0100    0.0100    0.0100    0.0100
    0.0100    0.0100    0.0100    0.0100    0.0100    0.0100    0.0100    0.0100
    0.0100    0.0100    0.0100    0.0100    0.0100    0.0100    0.0100    0.0100
    0.0100    0.0100    0.0100    0.0100    0.0100    0.0100    0.0100    0.0100
    0.0100    0.0100    0.0100    0.0100    0.0100    0.0100    0.0100    0.0100
    0.0100    0.0100    0.0100    0.0100    0.0100    0.0100    0.0100    0.0100
    0.0100    0.0100    0.0100    0.0100    0.0100    0.0100    0.0100    0.0100
    0.0100    0.0100    0.0100    0.0100    0.0100    0.0100    0.0100    0.0100
    0.0100    0.0100    0.0100    0.0100    0.0100    0.0100    0.0100    0.0100
    0.0100    0.0100    0.0100    0.0100    0.0100    0.0100    0.0100    0.0100
    0.0100    0.0100    0.0100    0.0100    0.0100    0.0100    0.0100    0.0100
    0.0100    0.0100    0.0100    0.0100    0.0100    0.0100    0.0100    0.0100
    0.0100    0.0100    0.0100    0.0100    0.0100    0.0100    0.0100    0.0100
    0.0100    0.0100    0.0100    0.0100    0.0100    0.0100    0.0100    0.0100
    0.0100    0.0100    0.0100    0.0100    0.0100    0.0100    0.0100    0.0100
    0.0100    0.0100    0.0100    0.0100    0.0100    0.0100    0.0100    0.0100
    0.0100    0.0100    0.0100    0.0100    0.0100    0.0100    0.0100    0.0100
    0.0100    0.0100    0.0100    0.0100    0.0100    0.0100    0.0100    0.0100
    0.0100    0.0100    0.0100    0.0100    0.0100    0.0100    0.0100    0.0100
    0.0100    0.0100    0.0100    0.0100    0.0100    0.0100    0.0100    0.0100
    0.0100    0.0100    0.0100    0.0100    0.0100    0.0100    0.0100    0.0100
    0.0100    0.0100    0.0100    0.0100    0.0100    0.0100    0.0100    0.0100
    0.0100    0.0100    0.0100    0.0100    0.0100    0.0100    0.0100    0.0100
    0.0100    0.0100    0.0100    0.0100    0.0100    0.0100    0.0100    0.0100
    0.0100    0.0100    0.0100    0.0100    0.0100    0.0100    0.0100    0.0100
    0.0100    0.0100
   </PP_RAB>
 </PP_MESH>
  <PP_LOCAL type="real"  size="1650" columns="4">
   -3.5078348111E+01   -3.5076636204E+01   -3.5071504807E+01   -3.5062966875E+01
   -3.5051043614E+01   -3.5035763936E+01   -3.5017163737E+01   -3.4995285006E+01
   -3.4970174828E+01   -3.4941884308E+01   -3.4910467452E+01   -3.4875980054E+01
   -3.4838478618E+01   -3.4798019344E+01   -3.4754657204E+01   -3.4708445126E+01
   -3.4659433299E+01   -3.4607668595E+01   -3.4553194123E+01   -3.4496048892E+01
   -3.4436267594E+01   -3.4373880474E+01   -3.4308913298E+01   -3.4241387381E+01
   -3.4171319684E+01   -3.4098722943E+01   -3.4023605846E+01   -3.3945973220E+01
   -3.3865826236E+01   -3.3783162620E+01   -3.3697976865E+01   -3.3610260435E+01
   -3.3520001973E+01   -3.3427187493E+01   -3.3331800567E+01   -3.3233822517E+01
   -3.3133232589E+01   -3.3030008134E+01   -3.2924124787E+01   -3.2815556644E+01
   -3.2704276441E+01   -3.2590255727E+01   -3.2473465042E+01   -3.2353874087E+01
   -3.2231451877E+01   -3.2106166896E+01   -3.1977987231E+01   -3.1846880696E+01
   -3.1712814959E+01   -3.1575757665E+01   -3.1435676598E+01   -3.1292539891E+01
   -3.1146316323E+01   -3.0996975762E+01   -3.0844489772E+01   -3.0688832465E+01
   -3.0529981611E+01   -3.0367920052E+01   -3.0202637411E+01   -3.0034132074E+01
   -2.9862413385E+01   -2.9687503920E+01   -2.9509441725E+01   -2.9328282300E+01
   -2.9144100158E+01   -2.8956989755E+01   -2.8767065627E+01   -2.8574461640E+01
   -2.8379329324E+01   -2.8181835357E+01   -2.7982158357E+01   -2.7780485220E+01
   -2.7577007261E+01   -2.7371916473E+01   -2.7165402145E+01   -2.6957648058E+01
   -2.6748830396E+01   -2.6539116408E+01   -2.6328663804E+01   -2.6117620800E+01
   -2.5906126667E+01   -2.5694312664E+01   -2.5482303178E+01   -2.5270216970E+01
   -2.5058168394E+01   -2.4846268521E+01   -2.4634626112E+01   -2.4423348392E+01
   -2.4212541638E+01   -2.4002311547E+01   -2.3792763423E+01   -2.3584002189E+01
   -2.3376132246E+01   -2.3169257208E+01   -2.2963479546E+01   -2.2758900159E+01
   -2.2555617910E+01   -2.2353729142E+01   -2.2153327206E+01   -2.1954502016E+01
   -2.1757339640E+01   -2.1561921951E+01   -2.1368326331E+01   -2.1176625446E+01
   -2.0986887077E+01   -2.0799174011E+01   -2.0613543995E+01   -2.0430049725E+01
   -2.0248738889E+01   -2.0069654233E+01   -1.9892833657E+01   -1.9718310323E+01
   -1.9546112778E+01   -1.9376265079E+01   -1.9208786913E+01   -1.9043693715E+01
   -1.8880996776E+01   -1.8720703331E+01   -1.8562816648E+01   -1.8407336084E+01
   -1.8254257134E+01   -1.8103571464E+01   -1.7955266920E+01   -1.7809327529E+01
   -1.7665733479E+01   -1.7524461084E+01   -1.7385482739E+01   -1.7248766860E+01
   -1.7114277812E+01   -1.6981975827E+01   -1.6851816924E+01   -1.6723752793E+01
   -1.6597732131E+01   -1.6473704146E+01   -1.6351619661E+01   -1.6231431025E+01
   -1.6113092033E+01   -1.5996557856E+01   -1.5881784969E+01   -1.5768731077E+01
   -1.5657355051E+01   -1.5547616870E+01   -1.5439477562E+01   -1.5332899155E+01
   -1.5227844631E+01   -1.5124277896E+01   -1.5022163738E+01   -1.4921467811E+01
   -1.4822156612E+01   -1.4724197467E+01   -1.4627558525E+01   -1.4532208751E+01
   -1.4438117929E+01   -1.4345256662E+01   -1.4253596380E+01   -1.4163109343E+01
   -1.4073768651E+01   -1.3985548248E+01   -1.3898422931E+01   -1.3812368349E+01
   -1.3727361009E+01   -1.3643378274E+01   -1.3560398355E+01   -1.3478400307E+01
   -1.3397364014E+01   -1.3317270176E+01   -1.3238100289E+01   -1.3159836621E+01
   -1.3082462187E+01   -1.3005960719E+01   -1.2930316637E+01   -1.2855515011E+01
   -1.2781541531E+01   -1.2708382465E+01   -1.2636024626E+01   -1.2564455332E+01
   -1.2493662371E+01   -1.2423633960E+01   -1.2354358716E+01   -1.2285825615E+01
   -1.2218023962E+01   -1.2150943360E+01   -1.2084573679E+01   -1.2018905029E+01
   -1.1953927732E+01   -1.1889632304E+01   -1.1826009424E+01   -1.1763049924E+01
   -1.1700744762E+01   -1.1639085009E+01   -1.1578061837E+01   -1.1517666498E+01
   -1.1457890320E+01   -1.1398724691E+01   -1.1340161054E+01   -1.1282190894E+01
   -1.1224805740E+01   -1.1167997152E+01   -1.1111756724E+01   -1.1056076079E+01
   -1.1000946871E+01   -1.0946360788E+01   -1.0892309555E+01   -1.0838784939E+01
   -1.0785778757E+01   -1.0733282890E+01   -1.0681289289E+01   -1.0629789992E+01
   -1.0578777139E+01   -1.0528242987E+01   -1.0478179931E+01   -1.0428580517E+01
   -1.0379437490E+01   -1.0330743720E+01   -1.0282492161E+01   -1.0234677918E+01
   -1.0187289308E+01   -1.0140318170E+01   -1.0093766833E+01   -1.0047633533E+01
   -1.0001909079E+01   -9.9565854193E+00   -9.9116592335E+00   -9.8671258260E+00
   -9.8229809614E+00   -9.7792207108E+00   -9.7358413756E+00   -9.6928394910E+00
   -9.6502118065E+00   -9.6079552634E+00   -9.5660669702E+00   -9.5245441753E+00
   -9.4833842441E+00   -9.4425846062E+00   -9.4021427534E+00   -9.3620562288E+00
   -9.3223227025E+00   -9.2829387245E+00   -9.2438980989E+00   -9.2051898101E+00
   -9.1668048629E+00   -9.1287414662E+00   -9.0909958632E+00   -9.0535638012E+00
   -9.0164415428E+00   -8.9796252506E+00   -8.9431111048E+00   -8.9068953148E+00
   -8.8709741173E+00   -8.8353437892E+00   -8.8000005346E+00   -8.7649403535E+00
   -8.7301589575E+00   -8.6956522583E+00   -8.6614172280E+00   -8.6274508002E+00
   -8.5937497157E+00   -8.5603108963E+00   -8.5271313005E+00   -8.4942079212E+00
   -8.4615378027E+00   -8.4291180342E+00   -8.3969457490E+00   -8.3650181242E+00
   -8.3333323795E+00   -8.3018857765E+00   -8.2706756183E+00   -8.2396992479E+00
   -8.2089540483E+00   -8.1784374413E+00   -8.1481468868E+00   -8.1180798823E+00
   -8.0882339620E+00   -8.0586066962E+00   -8.0291956909E+00   -7.9999985867E+00
   -7.9710130584E+00   -7.9422368144E+00   -7.9136675961E+00   -7.8853031774E+00
   -7.8571413637E+00   -7.8291799919E+00   -7.8014169296E+00   -7.7738500743E+00
   -7.7464773534E+00   -7.7192967232E+00   -7.6923061686E+00   -7.6655037027E+00
   -7.6388873662E+00   -7.6124552269E+00   -7.5862053790E+00   -7.5601359434E+00
   -7.5342450662E+00   -7.5085309194E+00   -7.4829916993E+00   -7.4576256270E+00
   -7.4324309476E+00   -7.4074059298E+00   -7.3825488656E+00   -7.3578580697E+00
   -7.3333318794E+00   -7.3089686541E+00   -7.2847667750E+00   -7.2607246444E+00
   -7.2368406859E+00   -7.2131133437E+00   -7.1895410823E+00   -7.1661223863E+00
   -7.1428557598E+00   -7.1197397264E+00   -7.0967728288E+00   -7.0739536283E+00
   -7.0512807048E+00   -7.0287526563E+00   -7.0063680985E+00   -6.9841256649E+00
   -6.9620240062E+00   -6.9400617902E+00   -6.9182377013E+00   -6.8965504405E+00
   -6.8749987251E+00   -6.8535812883E+00   -6.8322968790E+00   -6.8111442617E+00
   -6.7901222161E+00   -6.7692295369E+00   -6.7484650336E+00   -6.7278275302E+00
   -6.7073158653E+00   -6.6869288914E+00   -6.6666654748E+00   -6.6465244957E+00
   -6.6265048478E+00   -6.6066054380E+00   -6.5868251863E+00   -6.5671630257E+00
   -6.5476179016E+00   -6.5281887724E+00   -6.5088746083E+00   -6.4896743921E+00
   -6.4705871183E+00   -6.4516117934E+00   -6.4327474351E+00   -6.4139930732E+00
   -6.3953477481E+00   -6.3768105119E+00   -6.3583804273E+00   -6.3400565680E+00
   -6.3218380181E+00   -6.3037238725E+00   -6.2857132363E+00   -6.2678052248E+00
   -6.2499989633E+00   -6.2322935872E+00   -6.2146882413E+00   -6.1971820805E+00
   -6.1797742689E+00   -6.1624639800E+00   -6.1452503966E+00   -6.1281327106E+00
   -6.1111101229E+00   -6.0941818430E+00   -6.0773470896E+00   -6.0606050896E+00
   -6.0439550786E+00   -6.0273963005E+00   -6.0109280075E+00   -5.9945494599E+00
   -5.9782599262E+00   -5.9620586826E+00   -5.9459450133E+00   -5.9299182101E+00
   -5.9139775725E+00   -5.8981224075E+00   -5.8823520294E+00   -5.8666657600E+00
   -5.8510629282E+00   -5.8355428700E+00   -5.8201049285E+00   -5.8047484537E+00
   -5.7894728024E+00   -5.7742773383E+00   -5.7591614315E+00   -5.7441244590E+00
   -5.7291658040E+00   -5.7142848564E+00   -5.6994810120E+00   -5.6847536733E+00
   -5.6701022487E+00   -5.6555261528E+00   -5.6410248061E+00   -5.6265976350E+00
   -5.6122440720E+00   -5.5979635551E+00   -5.5837555280E+00   -5.5696194404E+00
   -5.5555547472E+00   -5.5415609088E+00   -5.5276373912E+00   -5.5137836657E+00
   -5.4999992088E+00   -5.4862835023E+00   -5.4726360331E+00   -5.4590562933E+00
   -5.4455437800E+00   -5.4320979951E+00   -5.4187184456E+00   -5.4054046433E+00
   -5.3921561047E+00   -5.3789723512E+00   -5.3658529086E+00   -5.3527973076E+00
   -5.3398050834E+00   -5.3268757754E+00   -5.3140089279E+00   -5.3012040894E+00
   -5.2884608125E+00   -5.2757786545E+00   -5.2631571767E+00   -5.2505959446E+00
   -5.2380945279E+00   -5.2256525003E+00   -5.2132694397E+00   -5.2009449279E+00
   -5.1886785506E+00   -5.1764698974E+00   -5.1643185619E+00   -5.1522241413E+00
   -5.1401862366E+00   -5.1282044528E+00   -5.1162783982E+00   -5.1044076849E+00
   -5.0925919287E+00   -5.0808307487E+00   -5.0691237677E+00   -5.0574706119E+00
   -5.0458709110E+00   -5.0343242979E+00   -5.0228304092E+00   -5.0113888844E+00
   -4.9999993666E+00   -4.9886615019E+00   -4.9773749398E+00   -4.9661393328E+00
   -4.9549543367E+00   -4.9438196102E+00   -4.9327348153E+00   -4.9216996168E+00
   -4.9107136826E+00   -4.8997766835E+00   -4.8888882933E+00   -4.8780481887E+00
   -4.8672560491E+00   -4.8565115570E+00   -4.8458143975E+00   -4.8351642585E+00
   -4.8245608306E+00   -4.8140038072E+00   -4.8034928844E+00   -4.7930277608E+00
   -4.7826081378E+00   -4.7722337192E+00   -4.7619042115E+00   -4.7516193238E+00
   -4.7413787675E+00   -4.7311822566E+00   -4.7210295075E+00   -4.7109202392E+00
   -4.7008541728E+00   -4.6908310322E+00   -4.6808505432E+00   -4.6709124344E+00
   -4.6610164361E+00   -4.6511622814E+00   -4.6413497054E+00   -4.6315784454E+00
   -4.6218482412E+00   -4.6121588346E+00   -4.6025099694E+00   -4.5929013917E+00
   -4.5833328498E+00   -4.5738040939E+00   -4.5643148764E+00   -4.5548649518E+00
   -4.5454540764E+00   -4.5360820088E+00   -4.5267485094E+00   -4.5174533406E+00
   -4.5081962667E+00   -4.4989770541E+00   -4.4897954709E+00   -4.4806512872E+00
   -4.4715442750E+00   -4.4624742082E+00   -4.4534408622E+00   -4.4444440146E+00
   -4.4354834446E+00   -4.4265589332E+00   -4.4176702633E+00   -4.4088172192E+00
   -4.3999995874E+00   -4.3912171557E+00   -4.3824697137E+00   -4.3737570529E+00
   -4.3650789660E+00   -4.3564352479E+00   -4.3478256946E+00   -4.3392501040E+00
   -4.3307082756E+00   -4.3222000104E+00   -4.3137251110E+00   -4.3052833813E+00
   -4.2968746272E+00   -4.2884986558E+00   -4.2801552756E+00   -4.2718442970E+00
   -4.2635655314E+00   -4.2553187920E+00   -4.2471038932E+00   -4.2389206511E+00
   -4.2307688830E+00   -4.2226484077E+00   -4.2145590453E+00   -4.2065006173E+00
   -4.1984729467E+00   -4.1904758577E+00   -4.1825091759E+00   -4.1745727281E+00
   -4.1666663426E+00   -4.1587898490E+00   -4.1509430779E+00   -4.1431258615E+00
   -4.1353380332E+00   -4.1275794274E+00   -4.1198498801E+00   -4.1121492282E+00
   -4.1044773102E+00   -4.0968339653E+00   -4.0892190344E+00   -4.0816323593E+00
   -4.0740737829E+00   -4.0665431495E+00   -4.0590403043E+00   -4.0515650940E+00
   -4.0441173660E+00   -4.0366969692E+00   -4.0293037532E+00   -4.0219375691E+00
   -4.0145982689E+00   -4.0072857057E+00   -3.9999997335E+00   -3.9927402077E+00
   -3.9855069846E+00   -3.9782999213E+00   -3.9711188763E+00   -3.9639637089E+00
   -3.9568342796E+00   -3.9497304496E+00   -3.9426520813E+00   -3.9355990381E+00
   -3.9285711844E+00   -3.9215683854E+00   -3.9145905073E+00   -3.9076374175E+00
   -3.9007089839E+00   -3.8938050758E+00   -3.8869255631E+00   -3.8800703167E+00
   -3.8732392086E+00   -3.8664321113E+00   -3.8596488985E+00   -3.8528894448E+00
   -3.8461536256E+00   -3.8394413170E+00   -3.8327523963E+00   -3.8260867413E+00
   -3.8194442310E+00   -3.8128247450E+00   -3.8062281637E+00   -3.7996543685E+00
   -3.7931032416E+00   -3.7865746659E+00   -3.7800685251E+00   -3.7735847038E+00
   -3.7671230874E+00   -3.7606835620E+00   -3.7542660144E+00   -3.7478703324E+00
   -3.7414964044E+00   -3.7351441197E+00   -3.7288133680E+00   -3.7225040403E+00
   -3.7162160278E+00   -3.7099492227E+00   -3.7037035180E+00   -3.6974788072E+00
   -3.6912749848E+00   -3.6850919456E+00   -3.6789295855E+00   -3.6727878008E+00
   -3.6666664888E+00   -3.6605655471E+00   -3.6544848744E+00   -3.6484243697E+00
   -3.6423839329E+00   -3.6363634644E+00   -3.6303628655E+00   -3.6243820379E+00
   -3.6184208841E+00   -3.6124793071E+00   -3.6065572107E+00   -3.6006544991E+00
   -3.5947710775E+00   -3.5889068514E+00   -3.5830617270E+00   -3.5772356111E+00
   -3.5714284111E+00   -3.5656400352E+00   -3.5598703918E+00   -3.5541193902E+00
   -3.5483869403E+00   -3.5426729523E+00   -3.5369773372E+00   -3.5313000067E+00
   -3.5256408727E+00   -3.5199998479E+00   -3.5143768455E+00   -3.5087717794E+00
   -3.5031845637E+00   -3.4976151135E+00   -3.4920633440E+00   -3.4865291712E+00
   -3.4810125117E+00   -3.4755132823E+00   -3.4700314007E+00   -3.4645667848E+00
   -3.4591193532E+00   -3.4536890251E+00   -3.4482757198E+00   -3.4428793577E+00
   -3.4374998591E+00   -3.4321371453E+00   -3.4267911377E+00   -3.4214617584E+00
   -3.4161489300E+00   -3.4108525755E+00   -3.4055726183E+00   -3.4003089825E+00
   -3.3950615925E+00   -3.3898303732E+00   -3.3846152499E+00   -3.3794161485E+00
   -3.3742329952E+00   -3.3690657169E+00   -3.3639142406E+00   -3.3587784940E+00
   -3.3536584052E+00   -3.3485539026E+00   -3.3434649152E+00   -3.3383913724E+00
   -3.3333332039E+00   -3.3282903401E+00   -3.3232627115E+00   -3.3182502491E+00
   -3.3132528846E+00   -3.3082705497E+00   -3.3033031768E+00   -3.2983506985E+00
   -3.2934130480E+00   -3.2884901588E+00   -3.2835819648E+00   -3.2786884003E+00
   -3.2738093999E+00   -3.2689448988E+00   -3.2640948325E+00   -3.2592591366E+00
   -3.2544377476E+00   -3.2496306020E+00   -3.2448376367E+00   -3.2400587892E+00
   -3.2352939970E+00   -3.2305431984E+00   -3.2258063318E+00   -3.2210833359E+00
   -3.2163741499E+00   -3.2116787134E+00   -3.2069969662E+00   -3.2023288486E+00
   -3.1976743010E+00   -3.1930332645E+00   -3.1884056803E+00   -3.1837914899E+00
   -3.1791906353E+00   -3.1746030589E+00   -3.1700287030E+00   -3.1654675109E+00
   -3.1609194255E+00   -3.1563843907E+00   -3.1518623502E+00   -3.1473532483E+00
   -3.1428570296E+00   -3.1383736388E+00   -3.1339030213E+00   -3.1294451224E+00
   -3.1249998881E+00   -3.1205672643E+00   -3.1161471975E+00   -3.1117396345E+00
   -3.1073445222E+00   -3.1029618079E+00   -3.0985914394E+00   -3.0942333644E+00
   -3.0898875312E+00   -3.0855538883E+00   -3.0812323844E+00   -3.0769229687E+00
   -3.0726255904E+00   -3.0683401993E+00   -3.0640667451E+00   -3.0598051782E+00
   -3.0555554490E+00   -3.0513175082E+00   -3.0470913068E+00   -3.0428767962E+00
   -3.0386739279E+00   -3.0344826537E+00   -3.0303029257E+00   -3.0261346963E+00
   -3.0219779181E+00   -3.0178325439E+00   -3.0136985269E+00   -3.0095758205E+00
   -3.0054643783E+00   -3.0013641543E+00   -2.9972751025E+00   -2.9931971774E+00
   -2.9891303336E+00   -2.9850745260E+00   -2.9810297098E+00   -2.9769958403E+00
   -2.9729728731E+00   -2.9689607642E+00   -2.9649594696E+00   -2.9609689456E+00
   -2.9569891489E+00   -2.9530200361E+00   -2.9490615644E+00   -2.9451136911E+00
   -2.9411763735E+00   -2.9372495695E+00   -2.9333332370E+00   -2.9294273341E+00
   -2.9255318193E+00   -2.9216466511E+00   -2.9177717884E+00   -2.9139071902E+00
   -2.9100528159E+00   -2.9062086248E+00   -2.9023745767E+00   -2.8985506315E+00
   -2.8947367494E+00   -2.8909328906E+00   -2.8871390156E+00   -2.8833550853E+00
   -2.8795810606E+00   -2.8758169026E+00   -2.8720625727E+00   -2.8683180324E+00
   -2.8645832436E+00   -2.8608581681E+00   -2.8571427682E+00   -2.8534370061E+00
   -2.8497408444E+00   -2.8460542459E+00   -2.8423771735E+00   -2.8387095904E+00
   -2.8350514597E+00   -2.8314027451E+00   -2.8277634102E+00   -2.8241334190E+00
   -2.8205127354E+00   -2.8169013237E+00   -2.8132991484E+00   -2.8097061741E+00
   -2.8061223655E+00   -2.8025476876E+00   -2.7989821056E+00   -2.7954255848E+00
   -2.7918780907E+00   -2.7883395889E+00   -2.7848100455E+00   -2.7812894262E+00
   -2.7777776975E+00   -2.7742748255E+00   -2.7707807769E+00   -2.7672955184E+00
   -2.7638190168E+00   -2.7603512392E+00   -2.7568921527E+00   -2.7534417248E+00
   -2.7499999230E+00   -2.7465667149E+00   -2.7431420685E+00   -2.7397259516E+00
   -2.7363183326E+00   -2.7329191797E+00   -2.7295284615E+00   -2.7261461465E+00
   -2.7227722036E+00   -2.7194066017E+00   -2.7160493099E+00   -2.7127002975E+00
   -2.7093595340E+00   -2.7060269887E+00   -2.7027026316E+00   -2.6993864324E+00
   -2.6960783611E+00   -2.6927783880E+00   -2.6894864832E+00   -2.6862026172E+00
   -2.6829267607E+00   -2.6796588844E+00   -2.6763989591E+00   -2.6731469559E+00
   -2.6699028458E+00   -2.6666666003E+00   -2.6634381907E+00   -2.6602175887E+00
   -2.6570047659E+00   -2.6537996941E+00   -2.6506023454E+00   -2.6474126920E+00
   -2.6442307059E+00   -2.6410563597E+00   -2.6378896258E+00   -2.6347304769E+00
   -2.6315788858E+00   -2.6284348254E+00   -2.6252982687E+00   -2.6221691888E+00
   -2.6190475592E+00   -2.6159333532E+00   -2.6128265444E+00   -2.6097271064E+00
   -2.6066350130E+00   -2.6035502382E+00   -2.6004727560E+00   -2.5974025406E+00
   -2.5943395663E+00   -2.5912838075E+00   -2.5882352387E+00   -2.5851938345E+00
   -2.5821595698E+00   -2.5791324195E+00   -2.5761123585E+00   -2.5730993619E+00
   -2.5700934051E+00   -2.5670944634E+00   -2.5641025121E+00   -2.5611175271E+00
   -2.5581394838E+00   -2.5551683582E+00   -2.5522041261E+00   -2.5492467637E+00
   -2.5462962469E+00   -2.5433525522E+00   -2.5404156559E+00   -2.5374855344E+00
   -2.5345621644E+00   -2.5316455224E+00   -2.5287355854E+00   -2.5258323302E+00
   -2.5229357339E+00   -2.5200457735E+00   -2.5171624264E+00   -2.5142856697E+00
   -2.5114154809E+00   -2.5085518377E+00   -2.5056947175E+00   -2.5028440982E+00
   -2.4999999575E+00   -2.4971622735E+00   -2.4943310241E+00   -2.4915061876E+00
   -2.4886877420E+00   -2.4858756659E+00   -2.4830699375E+00   -2.4802705355E+00
   -2.4774774384E+00   -2.4746906250E+00   -2.4719100741E+00   -2.4691357646E+00
   -2.4663676756E+00   -2.4636057861E+00   -2.4608500753E+00   -2.4581005225E+00
   -2.4553571071E+00   -2.4526198086E+00   -2.4498886065E+00   -2.4471634805E+00
   -2.4444444103E+00   -2.4417313758E+00   -2.4390243570E+00   -2.4363233337E+00
   -2.4336282861E+00   -2.4309391944E+00   -2.4282560390E+00   -2.4255788001E+00
   -2.4229074581E+00   -2.4202419937E+00   -2.4175823875E+00   -2.4149286202E+00
   -2.4122806725E+00   -2.4096385254E+00   -2.4070021597E+00   -2.4043715566E+00
   -2.4017466972E+00   -2.3991275627E+00   -2.3965141343E+00   -2.3939063935E+00
   -2.3913043217E+00   -2.3887079005E+00   -2.3861171113E+00   -2.3835319361E+00
   -2.3809523564E+00   -2.3783783542E+00   -2.3758099114E+00   -2.3732470100E+00
   -2.3706896322E+00   -2.3681377599E+00   -2.3655913756E+00   -2.3630504615E+00
   -2.3605150000E+00   -2.3579849735E+00   -2.3554603647E+00   -2.3529411561E+00
   -2.3504273304E+00   -2.3479188704E+00   -2.3454157590E+00   -2.3429179790E+00
   -2.3404255134E+00   -2.3379383453E+00   -2.3354564578E+00   -2.3329798341E+00
   -2.3305084575E+00   -2.3280423113E+00   -2.3255813790E+00   -2.3231256440E+00
   -2.3206750899E+00   -2.3182297002E+00   -2.3157894588E+00   -2.3133543493E+00
   -2.3109243556E+00   -2.3084994615E+00   -2.3060796511E+00   -2.3036649083E+00
   -2.3012552173E+00   -2.2988505623E+00   -2.2964509274E+00   -2.2940562969E+00
   -2.2916666553E+00   -2.2892819869E+00   -2.2869022762E+00   -2.2845275078E+00
   -2.2821576663E+00   -2.2797927364E+00   -2.2774327029E+00   -2.2750775504E+00
   -2.2727272640E+00   -2.2703818286E+00   -2.2680412291E+00   -2.2657054506E+00
   -2.2633744782E+00   -2.2610482972E+00   -2.2587268927E+00   -2.2564102500E+00
   -2.2540983546E+00   -2.2517911918E+00   -2.2494887472E+00   -2.2471910062E+00
   -2.2448979544E+00   -2.2426095776E+00   -2.2403258615E+00   -2.2380467917E+00
   -2.2357723542E+00   -2.2335025349E+00   -2.2312373197E+00   -2.2289766945E+00
   -2.2267206455E+00   -2.2244691588E+00   -2.2222222206E+00   -2.2199798171E+00
   -2.2177419345E+00   -2.2155085592E+00   -2.2132796777E+00   -2.2110552763E+00
   -2.2088353416E+00   -2.2066198601E+00   -2.2044088185E+00   -2.2022022033E+00
   -2.2000000014E+00   -2.1978021995E+00   -2.1956087844E+00   -2.1934197431E+00
   -2.1912350624E+00   -2.1890547293E+00   -2.1868787308E+00   -2.1847070541E+00
   -2.1825396863E+00   -2.1803766146E+00   -2.1782178261E+00   -2.1760633083E+00
   -2.1739130484E+00   -2.1717670338E+00   -2.1696252520E+00   -2.1674876905E+00
   -2.1653543368E+00   -2.1632251784E+00   -2.1611002031E+00   -2.1589793984E+00
   -2.1568627523E+00   -2.1547502523E+00   -2.1526418864E+00   -2.1505376424E+00
   -2.1484375083E+00   -2.1463414719E+00   -2.1442495215E+00   -2.1421616449E+00
   -2.1400778304E+00   -2.1379980660E+00   -2.1359223400E+00   -2.1338506406E+00
   -2.1317829562E+00   -2.1297192750E+00   -2.1276595854E+00   -2.1256038759E+00
   -2.1235521350E+00   -2.1215043512E+00   -2.1194605130E+00   -2.1174206090E+00
   -2.1153846279E+00   -2.1133525584E+00   -2.1113243892E+00   -2.1093001092E+00
   -2.1072797070E+00   -2.1052631717E+00   -2.1032504921E+00   -2.1012416571E+00
   -2.0992366558E+00   -2.0972354771E+00   -2.0952381103E+00   -2.0932445443E+00
   -2.0912547684E+00   -2.0892687717E+00   -2.0872865436E+00   -2.0853080732E+00
   -2.0833333499E+00   -2.0813623631E+00   -2.0793951021E+00   -2.0774315565E+00
   -2.0754717156E+00   -2.0735155691E+00   -2.0715631065E+00   -2.0696143174E+00
   -2.0676691914E+00   -2.0657277183E+00   -2.0637898876E+00   -2.0618556893E+00
   -2.0599251131E+00   -2.0579981488E+00   -2.0560747863E+00   -2.0541550155E+00
   -2.0522388264E+00   -2.0503262089E+00   -2.0484171531E+00   -2.0465116490E+00
   -2.0446096868E+00   -2.0427112565E+00   -2.0408163483E+00   -2.0389249525E+00
   -2.0370370593E+00   -2.0351526589E+00   -2.0332717418E+00   -2.0313942981E+00
   -2.0295203184E+00   -2.0276497930E+00   -2.0257827124E+00   -2.0239190671E+00
   -2.0220588476E+00   -2.0202020445E+00   -2.0183486484E+00   -2.0164986499E+00
   -2.0146520396E+00   -2.0128088084E+00   -2.0109689468E+00   -2.0091324458E+00
   -2.0072992960E+00   -2.0054694883E+00   -2.0036430136E+00   -2.0018198628E+00
   -2.0000000268E+00   -1.9981834966E+00   -1.9963702632E+00   -1.9945603176E+00
   -1.9927536509E+00   -1.9909502541E+00   -1.9891501185E+00   -1.9873532352E+00
   -1.9855595953E+00   -1.9837691902E+00   -1.9819820110E+00   -1.9801980490E+00
   -1.9784172956E+00   -1.9766397421E+00   -1.9748653800E+00   -1.9730942005E+00
   -1.9713261952E+00   -1.9695613555E+00   -1.9677996730E+00   -1.9660411391E+00
   -1.9642857455E+00   -1.9625334837E+00   -1.9607843453E+00   -1.9590383221E+00
   -1.9572954057E+00   -1.9555555878E+00   -1.9538188602E+00   -1.9520852146E+00
   -1.9503546429E+00   -1.9486271368E+00   -1.9469026882E+00   -1.9451812891E+00
   -1.9434629313E+00   -1.9417476068E+00   -1.9400353076E+00   -1.9383260256E+00
   -1.9366197530E+00   -1.9349164817E+00   -1.9332162038E+00   -1.9315189115E+00
   -1.9298245969E+00   -1.9281332522E+00   -1.9264448696E+00   -1.9247594413E+00
   -1.9230769595E+00   -1.9213974165E+00   -1.9197208047E+00   -1.9180471164E+00
   -1.9163763439E+00   -1.9147084796E+00   -1.9130435160E+00   -1.9113814454E+00
   -1.9097222604E+00   -1.9080659534E+00   -1.9064125169E+00   -1.9047619436E+00
   -1.9031142259E+00   -1.9014693564E+00   -1.8998273279E+00   -1.8981881329E+00
   -1.8965517641E+00   -1.8949182141E+00   -1.8932874758E+00   -1.8916595419E+00
   -1.8900344051E+00   -1.8884120582E+00   -1.8867924941E+00   -1.8851757056E+00
   -1.8835616855E+00   -1.8819504269E+00   -1.8803419225E+00   -1.8787361653E+00
   -1.8771331484E+00   -1.8755328646E+00   -1.8739353071E+00   -1.8723404688E+00
   -1.8707483428E+00   -1.8691589222E+00   -1.8675722002E+00   -1.8659881697E+00
   -1.8644068241E+00   -1.8628281564E+00   -1.8612521599E+00   -1.8596788279E+00
   -1.8581081535E+00   -1.8565401300E+00   -1.8549747507E+00   -1.8534120090E+00
   -1.8518518981E+00   -1.8502944115E+00   -1.8487395426E+00   -1.8471872846E+00
   -1.8456376311E+00   -1.8440905756E+00   -1.8425461114E+00   -1.8410042320E+00
   -1.8394649311E+00   -1.8379282021E+00   -1.8363940387E+00   -1.8348624342E+00
   -1.8333333825E+00   -1.8318068770E+00   -1.8302829115E+00   -1.8287614797E+00
   -1.8272425751E+00   -1.8257261915E+00   -1.8242123226E+00   -1.8227009622E+00
   -1.8211921041E+00   -1.8196857420E+00   -1.8181818698E+00   -1.8166804813E+00
   -1.8151815703E+00   -1.8136851307E+00   -1.8121911565E+00   -1.8106996414E+00
   -1.8092105795E+00   -1.8077239647E+00   -1.8062397910E+00   -1.8047580523E+00
   -1.8032787427E+00   -1.8018018563E+00   -1.8003273870E+00   -1.7988553289E+00
   -1.7973856762E+00   -1.7959184229E+00   -1.7944535632E+00   -1.7929910911E+00
   -1.7915310010E+00   -1.7900732869E+00   -1.7886179431E+00   -1.7871649638E+00
   -1.7857143432E+00   -1.7842660756E+00   -1.7828201553E+00   -1.7813765765E+00
   -1.7799353337E+00   -1.7784964210E+00   -1.7770598330E+00   -1.7756255639E+00
   -1.7741936081E+00   -1.7727639601E+00   -1.7713366143E+00   -1.7699115650E+00
   -1.7684888069E+00   -1.7670683343E+00   -1.7656501417E+00   -1.7642342238E+00
   -1.7628205749E+00   -1.7614091897E+00   -1.7600000627E+00   -1.7585931885E+00
   -1.7571885617E+00   -1.7557861769E+00   -1.7543860288E+00   -1.7529881120E+00
   -1.7515924212E+00   -1.7501989511E+00   -1.7488076963E+00   -1.7474186517E+00
   -1.7460318118E+00   -1.7446471716E+00   -1.7432647257E+00   -1.7418844690E+00
   -1.7405063962E+00   -1.7391305022E+00   -1.7377567818E+00   -1.7363852299E+00
   -1.7350158413E+00   -1.7336486109E+00   -1.7322835336E+00   -1.7309206044E+00
   -1.7295598182E+00   -1.7282011699E+00   -1.7268446544E+00   -1.7254902669E+00
   -1.7241380022E+00   -1.7227878554E+00   -1.7214398215E+00   -1.7200938955E+00
   -1.7187500726E+00   -1.7174083477E+00   -1.7160687160E+00   -1.7147311726E+00
   -1.7133957126E+00   -1.7120623312E+00   -1.7107310234E+00   -1.7094017845E+00
   -1.7080746097E+00   -1.7067494940E+00   -1.7054264328E+00   -1.7041054213E+00
   -1.7027864547E+00   -1.7014695283E+00   -1.7001546373E+00   -1.6988417770E+00
   -1.6975309428E+00   -1.6962221299E+00   -1.6949153336E+00   -1.6936105494E+00
   -1.6923077725E+00   -1.6910069983E+00   -1.6897082223E+00   -1.6884114398E+00
   -1.6871166462E+00   -1.6858238370E+00   -1.6845330076E+00   -1.6832441535E+00
   -1.6819572700E+00   -1.6806723528E+00   -1.6793893973E+00   -1.6781083990E+00
   -1.6768293535E+00   -1.6755522563E+00   -1.6742771028E+00   -1.6730038888E+00
   -1.6717326098E+00   -1.6704632613E+00   -1.6691958390E+00   -1.6679303385E+00
   -1.6666667555E+00   -1.6654050855E+00   -1.6641453242E+00   -1.6628874674E+00
   -1.6616315106E+00   -1.6603774496E+00   -1.6591252801E+00   -1.6578749979E+00
   -1.6566265986E+00   -1.6553800780E+00   -1.6541354319E+00   -1.6528926560E+00
   -1.6516517462E+00   -1.6504126982E+00   -1.6491755078E+00   -1.6479401709E+00
   -1.6467066834E+00   -1.6454750410E+00   -1.6442452396E+00   -1.6430172751E+00
   -1.6417911434E+00   -1.6405668404E+00   -1.6393443620E+00   -1.6381237041E+00
   -1.6369048626E+00   -1.6356878336E+00   -1.6344726130E+00   -1.6332591967E+00
   -1.6320475807E+00   -1.6308377610E+00   -1.6296297337E+00   -1.6284234947E+00
   -1.6272190401E+00   -1.6260163659E+00   -1.6248154682E+00   -1.6236163431E+00
   -1.6224189865E+00   -1.6212233947E+00   -1.6200295637E+00   -1.6188374897E+00
   -1.6176471687E+00   -1.6164585969E+00   -1.6152717704E+00   -1.6140866854E+00
   -1.6129033381E+00   -1.6117217246E+00   -1.6105418412E+00   -1.6093636840E+00
   -1.6081872493E+00   -1.6070125332E+00   -1.6058395321E+00   -1.6046682422E+00
   -1.6034986596E+00   -1.6023307808E+00   -1.6011646019E+00   -1.6000001193E+00
   -1.5988373293E+00   -1.5976762281E+00   -1.5965168122E+00   -1.5953590778E+00
   -1.5942030213E+00   -1.5930486390E+00   -1.5918959273E+00   -1.5907448826E+00
   -1.5895955012E+00   -1.5884477796E+00   -1.5873017142E+00   -1.5861573014E+00
   -1.5850145376E+00   -1.5838734192E+00   -1.5827339428E+00   -1.5815961047E+00
   -1.5804599014E+00   -1.5793253295E+00   -1.5781923854E+00   -1.5770610655E+00
   -1.5759313665E+00   -1.5748032847E+00   -1.5736768169E+00   -1.5725519594E+00
   -1.5714287089E+00   -1.5703070619E+00   -1.5691870150E+00   -1.5680685647E+00
   -1.5669517077E+00   -1.5658364405E+00   -1.5647227597E+00   -1.5636106620E+00
   -1.5625001440E+00   -1.5613912023E+00   -1.5602838336E+00   -1.5591780346E+00
   -1.5580738018E+00   -1.5569711320E+00   -1.5558700218E+00   -1.5547704680E+00
   -1.5536724673E+00   -1.5525760163E+00   -1.5514811118E+00   -1.5503877505E+00
   -1.5492959291E+00   -1.5482056445E+00   -1.5471168933E+00   -1.5460296724E+00
   -1.5449439784E+00   -1.5438598082E+00   -1.5427771587E+00   -1.5416960265E+00
   -1.5406164085E+00   -1.5395383015E+00   -1.5384617024E+00   -1.5373866079E+00
   -1.5363130151E+00   -1.5352409205E+00   -1.5341703213E+00   -1.5331012142E+00
   -1.5320335961E+00   -1.5309674639E+00   -1.5299028145E+00   -1.5288396449E+00
   -1.5277779518E+00   -1.5267177323E+00   -1.5256589834E+00   -1.5246017018E+00
   -1.5235458847E+00   -1.5224915289E+00   -1.5214386314E+00   -1.5203871892E+00
   -1.5193371992E+00   -1.5182886586E+00   -1.5172415642E+00   -1.5161959131E+00
   -1.5151517023E+00   -1.5141089289E+00   -1.5130675897E+00   -1.5120276820E+00
   -1.5109892028E+00   -1.5099521491E+00   -1.5089165179E+00   -1.5078823064E+00
   -1.5068495116E+00   -1.5058181307E+00   -1.5047881607E+00   -1.5037595987E+00
   -1.5027324419E+00   -1.5017066873E+00   -1.5006823322E+00   -1.4996593736E+00
   -1.4986378087E+00   -1.4976176346E+00   -1.4965988485E+00   -1.4955814476E+00
   -1.4945654291E+00   -1.4935507901E+00   -1.4925375278E+00   -1.4915256394E+00
   -1.4905151222E+00   -1.4895059733E+00   -1.4884981900E+00   -1.4874917695E+00
   -1.4864867090E+00   -1.4854830058E+00   -1.4844806571E+00   -1.4834796603E+00
   -1.4824800125E+00   -1.4814817111E+00   -1.4804847532E+00   -1.4794891363E+00
   -1.4784948576E+00   -1.4775019144E+00   -1.4765103040E+00   -1.4755200238E+00
   -1.4745310710E+00   -1.4735434430E+00   -1.4725571372E+00   -1.4715721509E+00
   -1.4705884813E+00   -1.4696061260E+00   -1.4686250823E+00   -1.4676453475E+00
   -1.4666669190E+00   -1.4656897943E+00   -1.4647139706E+00   -1.4637394455E+00
   -1.4627662163E+00   -1.4617942804E+00   -1.4608236354E+00   -1.4598542785E+00
   -1.4588862072E+00   -1.4579194190E+00   -1.4569539113E+00   -1.4559896817E+00
   -1.4550267274E+00   -1.4540650461E+00   -1.4531046352E+00   -1.4521454922E+00
   -1.4511876146E+00   -1.4502309998E+00   -1.4492756454E+00   -1.4483215489E+00
   -1.4473687078E+00   -1.4464171197E+00   -1.4454667819E+00   -1.4445176922E+00
   -1.4435698481E+00   -1.4426232470E+00   -1.4416778865E+00   -1.4407337643E+00
   -1.4397908779E+00   -1.4388492248E+00   -1.4379088026E+00   -1.4369696090E+00
   -1.4360316415E+00   -1.4350948977E+00   -1.4341593752E+00   -1.4332250717E+00
   -1.4322919847E+00   -1.4313601119E+00   -1.4304294509E+00   -1.4294999994E+00
   -1.4285717550E+00   -1.4276447153E+00   -1.4267188780E+00   -1.4257942408E+00
   -1.4248708013E+00   -1.4239485573E+00   -1.4230275063E+00   -1.4221076461E+00
   -1.4211889744E+00   -1.4202714888E+00   -1.4193551871E+00   -1.4184400670E+00
   -1.4175261262E+00   -1.4166133624E+00   -1.4157017734E+00   -1.4147913568E+00
   -1.4138821105E+00   -1.4129740321E+00   -1.4120671194E+00   -1.4111613703E+00
   -1.4102567823E+00   -1.4093533534E+00   -1.4084510812E+00   -1.4075499636E+00
   -1.4066499984E+00   -1.4057511832E+00   -1.4048535160E+00   -1.4039569946E+00
   -1.4030616167E+00   -1.4021673801E+00   -1.4012742828E+00   -1.4003823224E+00
   -1.3994914969E+00   -1.3986018040E+00   -1.3977132416E+00   -1.3968258076E+00
   -1.3959394998E+00   -1.3950543161E+00   -1.3941702543E+00   -1.3932873123E+00
   -1.3924054879E+00   -1.3915247791E+00   -1.3906451838E+00   -1.3897666998E+00
   -1.3888893250E+00   -1.3880130573E+00   -1.3871378946E+00   -1.3862638349E+00
   -1.3853908760E+00   -1.3845190160E+00   -1.3836482526E+00   -1.3827785838E+00
   -1.3819100077E+00   -1.3810425220E+00   -1.3801761248E+00   -1.3793108141E+00
   -1.3784465877E+00   -1.3775834436E+00   -1.3767213799E+00   -1.3758603944E+00
   -1.3750004852E+00   -1.3741416502E+00   -1.3732838875E+00   -1.3724271950E+00
   -1.3715715707E+00   -1.3707170126E+00   -1.3698635188E+00   -1.3690110872E+00
   -1.3681597159E+00   -1.3673094029E+00   -1.3664601462E+00   -1.3656119438E+00
   -1.3647647938E+00   -1.3639186943E+00   -1.3630736432E+00   -1.3622296387E+00
   -1.3613866788E+00   -1.3605447615E+00   -1.3597038849E+00   -1.3588640472E+00
   -1.3580252463E+00   -1.3571874803E+00   -1.3563507474E+00   -1.3555150456E+00
   -1.3546803730E+00   -1.3538467278E+00   -1.3530141080E+00   -1.3521825117E+00
   -1.3513519370E+00   -1.3505223822E+00   -1.3496938452E+00   -1.3488663242E+00
   -1.3480398174E+00   -1.3472143229E+00   -1.3463898388E+00   -1.3455663633E+00
   -1.3447438945E+00   -1.3439224306E+00   -1.3431019698E+00   -1.3422825101E+00
   -1.3414640499E+00   -1.3406465872E+00   -1.3398301202E+00   -1.3390146471E+00
   -1.3382001661E+00   -1.3373866754E+00   -1.3365741732E+00   -1.3357626576E+00
   -1.3349521270E+00   -1.3341425794E+00
  </PP_LOCAL>
 <PP_NONLOCAL>
   <PP_BETA.1
       type="real"
       size="1650"
       columns="4"
       index="1"
       angular_momentum="0"
       cutoff_radius_index=" 256"
       cutoff_radius="    2.5500000000E+00" >
    1.2579937092E-12    5.4756576956E-02    1.0943447027E-01    1.6395512616E-01
    2.1824025033E-01    2.7221193739E-01    3.2579279971E-01    3.7890609567E-01
    4.3147585710E-01    4.8342701578E-01    5.3468552873E-01    5.8517850233E-01
    6.3483431485E-01    6.8358273740E-01    7.3135505308E-01    7.7808417408E-01
    8.2370475664E-01    8.6815331368E-01    9.1136832486E-01    9.5329034389E-01
    9.9386210297E-01    1.0330286141E+00    1.0707372671E+00    1.1069379241E+00
    1.1415830102E+00    1.1746276008E+00    1.2060295038E+00    1.2357493389E+00
    1.2637506108E+00    1.2899997793E+00    1.3144663233E+00    1.3371228004E+00
    1.3579449012E+00    1.3769114977E+00    1.3940046868E+00    1.4092098273E+00
    1.4225155715E+00    1.4339138903E+00    1.4434000925E+00    1.4509728373E+00
    1.4566341401E+00    1.4603893724E+00    1.4622472546E+00    1.4622198413E+00
    1.4603225011E+00    1.4565738878E+00    1.4509959060E+00    1.4436136691E+00
    1.4344554495E+00    1.4235526234E+00    1.4109396067E+00    1.3966537856E+00
    1.3807354392E+00    1.3632276552E+00    1.3441762402E+00    1.3236296213E+00
    1.3016387432E+00    1.2782569579E+00    1.2535399086E+00    1.2275454075E+00
    1.2003333084E+00    1.1719653737E+00    1.1425051355E+00    1.1120177536E+00
    1.0805698668E+00    1.0482294420E+00    1.0150656181E+00    9.8114854705E-01
    9.4654923168E-01    9.1133936086E-01    8.7559114240E-01    8.3937713411E-01
    8.0277007353E-01    7.6584270668E-01    7.2866761647E-01    6.9131705101E-01
    6.5386275256E-01    6.1637578742E-01    5.7892637736E-01    5.4158373306E-01
    5.0441589009E-01    4.6748954788E-01    4.3086991222E-01    3.9462054180E-01
    3.5880319928E-01    3.2347770732E-01    2.8870181012E-01    2.5453104094E-01
    2.2101859601E-01    1.8821521526E-01    1.5616907046E-01    1.2492566091E-01
    9.4527717361E-02    6.5015114367E-02    3.6424791456E-02    8.7906835200E-03
   -1.7856339326E-02   -4.3488522106E-02   -6.8081265289E-02   -9.1613154822E-02
   -1.1406598166E-01   -1.3542475062E-01   -1.5567767840E-01   -1.7481618061E-01
   -1.9283484778E-01   -2.0973141022E-01   -2.2550669169E-01   -2.4016455192E-01
   -2.5371181799E-01   -2.6615820453E-01   -2.7751622296E-01   -2.8780107983E-01
   -2.9703056432E-01   -3.0522492517E-01   -3.1240673721E-01   -3.1860075767E-01
   -3.2383377254E-01   -3.2813443332E-01   -3.3153308431E-01   -3.3406158091E-01
   -3.3575309920E-01   -3.3664193711E-01   -3.3676330774E-01   -3.3615312493E-01
   -3.3484778189E-01   -3.3288392287E-01   -3.3029820875E-01   -3.2712707662E-01
   -3.2340649413E-01   -3.1917170869E-01   -3.1445699414E-01   -3.0929538843E-01
   -3.0371872262E-01   -2.9775816234E-01   -2.9144438582E-01   -2.8480754444E-01
   -2.7787722984E-01   -2.7068244171E-01   -2.6325155655E-01   -2.5561229868E-01
   -2.4779171227E-01   -2.3981613507E-01   -2.3171117375E-01   -2.2350168074E-01
   -2.1521173259E-01   -2.0686460998E-01   -1.9848277921E-01   -1.9008787542E-01
   -1.8170068749E-01   -1.7334114357E-01   -1.6502830002E-01   -1.5678033029E-01
   -1.4861451628E-01   -1.4054724107E-01   -1.3259398332E-01   -1.2476931335E-01
   -1.1708689078E-01   -1.0955946392E-01   -1.0219887071E-01   -9.5016041400E-02
   -8.8021002805E-02   -8.1222884257E-02   -7.4629925152E-02   -6.8249484138E-02
   -6.2088049905E-02   -5.6151253558E-02   -5.0443882544E-02   -4.4969896123E-02
   -3.9732442319E-02   -3.4733876335E-02   -2.9975780383E-02   -2.5458984871E-02
   -2.1183590904E-02   -1.7148994033E-02   -1.3353909199E-02   -9.7963967943E-03
   -6.4738897828E-03   -3.3832217977E-03   -5.2065615000E-04    2.1180843408E-03
    4.5377867592E-03    6.7437168425E-03    8.7415871348E-03    1.0537524636E-02
    1.2138038030E-02    1.3549984546E-02    1.4780536546E-02    1.5837147977E-02
    1.6727520663E-02    1.7459570503E-02    1.8041393812E-02    1.8481233692E-02
    1.8787446591E-02    1.8968469117E-02    1.9032785150E-02    1.8988893350E-02
    1.8845275108E-02    1.8610363023E-02    1.8292509987E-02    1.7899958936E-02
    1.7440813362E-02    1.6923008673E-02    1.6354284485E-02    1.5742157947E-02
    1.5093898210E-02    1.4416502131E-02    1.3716671361E-02    1.3000790913E-02
    1.2274909354E-02    1.1544720760E-02    1.0815548564E-02    1.0092331456E-02
    9.3796114539E-03    8.6815243143E-03    8.0017923925E-03    7.3437200999E-03
    6.7101920603E-03    6.1036740658E-03    5.5262169154E-03    4.9794631874E-03
    4.4646569667E-03    3.9826565225E-03    3.5339498928E-03    3.1186732899E-03
    2.7366321954E-03    2.3873249849E-03    2.0699688577E-03    1.7835278095E-03
    1.5267423598E-03    1.2981606763E-03    1.0961707213E-03    9.1903301206E-04
    7.6491356853E-04    6.3191658759E-04    5.1811672007E-04    4.2158709293E-04
    3.4043703819E-04    2.7282746608E-04    2.1697882535E-04    1.7102509754E-04
    1.3329360187E-04    1.0254181407E-04    7.7637458930E-05    5.7580701016E-05
    4.1523519521E-05    2.8767605888E-05    1.8763465048E-05    1.1107908771E-05
    5.4924775907E-06    1.8744224415E-06    1.9593673890E-07   -1.4797044061E-07
    9.6708755097E-09    2.6936159739E-08   -6.8758581481E-09    2.3622513860E-11
 0. 0. 0. 0.
 0. 0. 0. 0.
 0. 0. 0. 0.
 0. 0. 0. 0.
 0. 0. 0. 0.
 0. 0. 0. 0.
 0. 0. 0. 0.
 0. 0. 0. 0.
 0. 0. 0. 0.
 0. 0. 0. 0.
 0. 0. 0. 0.
 0. 0. 0. 0.
 0. 0. 0. 0.
 0. 0. 0. 0.
 0. 0. 0. 0.
 0. 0. 0. 0.
 0. 0. 0. 0.
 0. 0. 0. 0.
 0. 0. 0. 0.
 0. 0. 0. 0.
 0. 0. 0. 0.
 0. 0. 0. 0.
 0. 0. 0. 0.
 0. 0. 0. 0.
 0. 0. 0. 0.
 0. 0. 0. 0.
 0. 0. 0. 0.
 0. 0. 0. 0.
 0. 0. 0. 0.
 0. 0. 0. 0.
 0. 0. 0. 0.
 0. 0. 0. 0.
 0. 0. 0. 0.
 0. 0. 0. 0.
 0. 0. 0. 0.
 0. 0. 0. 0.
 0. 0. 0. 0.
 0. 0. 0. 0.
 0. 0. 0. 0.
 0. 0. 0. 0.
 0. 0. 0. 0.
 0. 0. 0. 0.
 0. 0. 0. 0.
 0. 0. 0. 0.
 0. 0. 0. 0.
 0. 0. 0. 0.
 0. 0. 0. 0.
 0. 0. 0. 0.
 0. 0. 0. 0.
 0. 0. 0. 0.
 0. 0. 0. 0.
 0. 0. 0. 0.
 0. 0. 0. 0.
 0. 0. 0. 0.
 0. 0. 0. 0.
 0. 0. 0. 0.
 0. 0. 0. 0.
 0. 0. 0. 0.
 0. 0. 0. 0.
 0. 0. 0. 0.
 0. 0. 0. 0.
 0. 0. 0. 0.
 0. 0. 0. 0.
 0. 0. 0. 0.
 0. 0. 0. 0.
 0. 0. 0. 0.
 0. 0. 0. 0.
 0. 0. 0. 0.
 0. 0. 0. 0.
 0. 0. 0. 0.
 0. 0. 0. 0.
 0. 0. 0. 0.
 0. 0. 0. 0.
 0. 0. 0. 0.
 0. 0. 0. 0.
 0. 0. 0. 0.
 0. 0. 0. 0.
 0. 0. 0. 0.
 0. 0. 0. 0.
 0. 0. 0. 0.
 0. 0. 0. 0.
 0. 0. 0. 0.
 0. 0. 0. 0.
 0. 0. 0. 0.
 0. 0. 0. 0.
 0. 0. 0. 0.
 0. 0. 0. 0.
 0. 0. 0. 0.
 0. 0. 0. 0.
 0. 0. 0. 0.
 0. 0. 0. 0.
 0. 0. 0. 0.
 0. 0. 0. 0.
 0. 0. 0. 0.
 0. 0. 0. 0.
 0. 0. 0. 0.
 0. 0. 0. 0.
 0. 0. 0. 0.
 0. 0. 0. 0.
 0. 0. 0. 0.
 0. 0. 0. 0.
 0. 0. 0. 0.
 0. 0. 0. 0.
 0. 0. 0. 0.
 0. 0. 0. 0.
 0. 0. 0. 0.
 0. 0. 0. 0.
 0. 0. 0. 0.
 0. 0. 0. 0.
 0. 0. 0. 0.
 0. 0. 0. 0.
 0. 0. 0. 0.
 0. 0. 0. 0.
 0. 0. 0. 0.
 0. 0. 0. 0.
 0. 0. 0. 0.
 0. 0. 0. 0.
 0. 0. 0. 0.
 0. 0. 0. 0.
 0. 0. 0. 0.
 0. 0. 0. 0.
 0. 0. 0. 0.
 0. 0. 0. 0.
 0. 0. 0. 0.
 0. 0. 0. 0.
 0. 0. 0. 0.
 0. 0. 0. 0.
 0. 0. 0. 0.
 0. 0. 0. 0.
 0. 0. 0. 0.
 0. 0. 0. 0.
 0. 0. 0. 0.
 0. 0. 0. 0.
 0. 0. 0. 0.
 0. 0. 0. 0.
 0. 0. 0. 0.
 0. 0. 0. 0.
 0. 0. 0. 0.
 0. 0. 0. 0.
 0. 0. 0. 0.
 0. 0. 0. 0.
 0. 0. 0. 0.
 0. 0. 0. 0.
 0. 0. 0. 0.
 0. 0. 0. 0.
 0. 0. 0. 0.
 0. 0. 0. 0.
 0. 0. 0. 0.
 0. 0. 0. 0.
 0. 0. 0. 0.
 0. 0. 0. 0.
 0. 0. 0. 0.
 0. 0. 0. 0.
 0. 0. 0. 0.
 0. 0. 0. 0.
 0. 0. 0. 0.
 0. 0. 0. 0.
 0. 0. 0. 0.
 0. 0. 0. 0.
 0. 0. 0. 0.
 0. 0. 0. 0.
 0. 0. 0. 0.
 0. 0. 0. 0.
 0. 0. 0. 0.
 0. 0. 0. 0.
 0. 0. 0. 0.
 0. 0. 0. 0.
 0. 0. 0. 0.
 0. 0. 0. 0.
 0. 0. 0. 0.
 0. 0. 0. 0.
 0. 0. 0. 0.
 0. 0. 0. 0.
 0. 0. 0. 0.
 0. 0. 0. 0.
 0. 0. 0. 0.
 0. 0. 0. 0.
 0. 0. 0. 0.
 0. 0. 0. 0.
 0. 0. 0. 0.
 0. 0. 0. 0.
 0. 0. 0. 0.
 0. 0. 0. 0.
 0. 0. 0. 0.
 0. 0. 0. 0.
 0. 0. 0. 0.
 0. 0. 0. 0.
 0. 0. 0. 0.
 0. 0. 0. 0.
 0. 0. 0. 0.
 0. 0. 0. 0.
 0. 0. 0. 0.
 0. 0. 0. 0.
 0. 0. 0. 0.
 0. 0. 0. 0.
 0. 0. 0. 0.
 0. 0. 0. 0.
 0. 0. 0. 0.
 0. 0. 0. 0.
 0. 0. 0. 0.
 0. 0. 0. 0.
 0. 0. 0. 0.
 0. 0. 0. 0.
 0. 0. 0. 0.
 0. 0. 0. 0.
 0. 0. 0. 0.
 0. 0. 0. 0.
 0. 0. 0. 0.
 0. 0. 0. 0.
 0. 0. 0. 0.
 0. 0. 0. 0.
 0. 0. 0. 0.
 0. 0. 0. 0.
 0. 0. 0. 0.
 0. 0. 0. 0.
 0. 0. 0. 0.
 0. 0. 0. 0.
 0. 0. 0. 0.
 0. 0. 0. 0.
 0. 0. 0. 0.
 0. 0. 0. 0.
 0. 0. 0. 0.
 0. 0. 0. 0.
 0. 0. 0. 0.
 0. 0. 0. 0.
 0. 0. 0. 0.
 0. 0. 0. 0.
 0. 0. 0. 0.
 0. 0. 0. 0.
 0. 0. 0. 0.
 0. 0. 0. 0.
 0. 0. 0. 0.
 0. 0. 0. 0.
 0. 0. 0. 0.
 0. 0. 0. 0.
 0. 0. 0. 0.
 0. 0. 0. 0.
 0. 0. 0. 0.
 0. 0. 0. 0.
 0. 0. 0. 0.
 0. 0. 0. 0.
 0. 0. 0. 0.
 0. 0. 0. 0.
 0. 0. 0. 0.
 0. 0. 0. 0.
 0. 0. 0. 0.
 0. 0. 0. 0.
 0. 0. 0. 0.
 0. 0. 0. 0.
 0. 0. 0. 0.
 0. 0. 0. 0.
 0. 0. 0. 0.
 0. 0. 0. 0.
 0. 0. 0. 0.
 0. 0. 0. 0.
 0. 0. 0. 0.
 0. 0. 0. 0.
 0. 0. 0. 0.
 0. 0. 0. 0.
 0. 0. 0. 0.
 0. 0. 0. 0.
 0. 0. 0. 0.
 0. 0. 0. 0.
 0. 0. 0. 0.
 0. 0. 0. 0.
 0. 0. 0. 0.
 0. 0. 0. 0.
 0. 0. 0. 0.
 0. 0. 0. 0.
 0. 0. 0. 0.
 0. 0. 0. 0.
 0. 0. 0. 0.
 0. 0. 0. 0.
 0. 0. 0. 0.
 0. 0. 0. 0.
 0. 0. 0. 0.
 0. 0. 0. 0.
 0. 0. 0. 0.
 0. 0. 0. 0.
 0. 0. 0. 0.
 0. 0. 0. 0.
 0. 0. 0. 0.
 0. 0. 0. 0.
 0. 0. 0. 0.
 0. 0. 0. 0.
 0. 0. 0. 0.
 0. 0. 0. 0.
 0. 0. 0. 0.
 0. 0. 0. 0.
 0. 0. 0. 0.
 0. 0. 0. 0.
 0. 0. 0. 0.
 0. 0. 0. 0.
 0. 0. 0. 0.
 0. 0. 0. 0.
 0. 0. 0. 0.
 0. 0. 0. 0.
 0. 0. 0. 0.
 0. 0. 0. 0.
 0. 0. 0. 0.
 0. 0. 0. 0.
 0. 0. 0. 0.
 0. 0. 0. 0.
 0. 0. 0. 0.
 0. 0. 0. 0.
 0. 0. 0. 0.
 0. 0. 0. 0.
 0. 0. 0. 0.
 0. 0. 0. 0.
 0. 0. 0. 0.
 0. 0. 0. 0.
 0. 0. 0. 0.
 0. 0. 0. 0.
 0. 0. 0. 0.
 0. 0. 0. 0.
 0. 0. 0. 0.
 0. 0. 0. 0.
 0. 0. 0. 0.
 0. 0. 0. 0.
 0. 0. 0. 0.
 0. 0. 0. 0.
 0. 0. 0. 0.
 0. 0. 0. 0.
 0. 0. 0. 0.
 0. 0. 0. 0.
 0. 0. 0. 0.
 0. 0. 0. 0.
 0. 0. 0. 0.
 0. 0. 0. 0.
 0. 0. 0. 0.
 0. 0. 0. 0.
 0. 0. 0. 0.
 0. 0. 0. 0.
 0. 0. 0. 0.
 0. 0. 0. 0.
 0. 0. 0. 0.
 0. 0. 0. 0.
 0. 0. 0. 0.
 0. 0. 0. 0.
 0. 0. 0. 0.
 0. 0. 0. 0.
 0. 0. 0. 0.
 0. 0. 0. 0.
 0. 0. 0. 0.
 0. 0. 0. 0.
 0. 0. 0. 0.
 0. 0. 0. 0.
 0. 0. 0. 0.
 0. 0.
   </PP_BETA.1>
   <PP_BETA.2
       type="real"
       size="1650"
       columns="4"
       index="2"
       angular_momentum="0"
       cutoff_radius_index=" 256"
       cutoff_radius="    2.5500000000E+00" >
   -5.4736493116E-12   -1.9106915057E-02   -3.8148182559E-02   -5.7058279773E-02
   -7.5771933566E-02   -9.4224245075E-02   -1.1235081423E-01   -1.3008786408E-01
   -1.4737236479E-01   -1.6414215739E-01   -1.8033607701E-01   -1.9589407565E-01
   -2.1075734436E-01   -2.2486843469E-01   -2.3817137930E-01   -2.5061181160E-01
   -2.6213708434E-01   -2.7269638684E-01   -2.8224086085E-01   -2.9072371471E-01
   -2.9810033576E-01   -3.0432840058E-01   -3.0936798304E-01   -3.1318165972E-01
   -3.1573461261E-01   -3.1699472871E-01   -3.1693269618E-01   -3.1552209692E-01
   -3.1273949518E-01   -3.0856452174E-01   -3.0297995360E-01   -2.9597178862E-01
   -2.8752931485E-01   -2.7764517425E-01   -2.6631542035E-01   -2.5353956955E-01
   -2.3932064574E-01   -2.2366521787E-01   -2.0658343005E-01   -1.8808902408E-01
   -1.6819935374E-01   -1.4693539087E-01   -1.2432172276E-01   -1.0038654053E-01
   -7.5161618445E-02   -4.8682283696E-02   -2.0987376569E-02    7.8807992285E-03
    3.7876536255E-02    6.8950793157E-02    1.0105127475E-01    1.3412252238E-01
    1.6810601470E-01    2.0294027874E-01    2.3856101132E-01    2.7490121067E-01
    3.1189131825E-01    3.4945937040E-01    3.8753115987E-01    4.2603040681E-01
    4.6487893897E-01    5.0399688085E-01    5.4330285131E-01    5.8271416931E-01
    6.2214706731E-01    6.6151691176E-01    7.0073843019E-01    7.3972594430E-01
    7.7839360841E-01    8.1665565256E-01    8.5442662969E-01    8.9162166598E-01
    9.2815671365E-01    9.6394880544E-01    9.9891630996E-01    1.0329791868E+00
    1.0660592409E+00    1.0980803750E+00    1.1289688391E+00    1.1586534763E+00
    1.1870659641E+00    1.2141410496E+00    1.2398167785E+00    1.2640347159E+00
    1.2867401587E+00    1.3078823386E+00    1.3274146137E+00    1.3452946495E+00
    1.3614845866E+00    1.3759511952E+00    1.3886660150E+00    1.3996054796E+00
    1.4087510258E+00    1.4160891842E+00    1.4216116531E+00    1.4253153534E+00
    1.4272024646E+00    1.4272804396E+00    1.4255620004E+00    1.4220651112E+00
    1.4168129303E+00    1.4098337395E+00    1.4011608509E+00    1.3908324901E+00
    1.3788916565E+00    1.3653859594E+00    1.3503674303E+00    1.3338923109E+00
    1.3160208173E+00    1.2968168792E+00    1.2763478557E+00    1.2546842266E+00
    1.2318992597E+00    1.2080686544E+00    1.1832701617E+00    1.1575831816E+00
    1.1310883373E+00    1.1038670268E+00    1.0760009539E+00    1.0475716366E+00
    1.0186598958E+00    9.8934532402E-01    9.5970573435E-01    9.2981659155E-01
    8.9975042508E-01    8.6957622542E-01    8.3935882442E-01    8.0915826045E-01
    7.7902912956E-01    7.4901992253E-01    7.1917236198E-01    6.8952069410E-01
    6.6009299012E-01    6.3091565217E-01    6.0201492820E-01    5.7341682166E-01
    5.4514703755E-01    5.1723092280E-01    4.8969340360E-01    4.6255892823E-01
    4.3585140713E-01    4.0959415548E-01    3.8380983651E-01    3.5852040610E-01
    3.3374705863E-01    3.0951017445E-01    2.8582926843E-01    2.6272294146E-01
    2.4020883382E-01    2.1830357570E-01    1.9702274967E-01    1.7638084632E-01
    1.5639122701E-01    1.3706608801E-01    1.1841642765E-01    1.0045201631E-01
    8.3181369552E-02    6.6611724393E-02    5.0749019000E-02    3.5597875775E-02
    2.1161588063E-02    7.4421105320E-03   -5.5599467046E-03   -1.7845320088E-02
   -2.9416090737E-02   -4.0275678604E-02   -5.0428832680E-02   -5.9881617196E-02
   -6.8641393851E-02   -7.6716800108E-02   -8.4117723562E-02   -9.0855272483E-02
   -9.6941742579E-02   -1.0239058012E-01   -1.0721634145E-01   -1.1143464914E-01
   -1.1506214478E-01   -1.1811643869E-01   -1.2061605656E-01   -1.2258038340E-01
   -1.2402960470E-01   -1.2498464529E-01   -1.2546710575E-01   -1.2549919691E-01
   -1.2510367235E-01   -1.2430375912E-01   -1.2312308702E-01   -1.2158561666E-01
   -1.1971556619E-01   -1.1753733694E-01   -1.1507543858E-01   -1.1235441348E-01
   -1.0939876064E-01   -1.0623285948E-01   -1.0288089342E-01   -9.9366773762E-02
   -9.5714063809E-02   -9.1945903605E-02   -8.8084935456E-02   -8.4153230506E-02
   -8.0172216620E-02   -7.6162607901E-02   -7.2144336130E-02   -6.8136484486E-02
   -6.4157223937E-02   -6.0223752679E-02   -5.6352239103E-02   -5.2557768713E-02
   -4.8854295510E-02   -4.5254598344E-02   -4.1770242793E-02   -3.8411549059E-02
   -3.5187566475E-02   -3.2106055134E-02   -2.9173475150E-02   -2.6394984072E-02
   -2.3774442852E-02   -2.1314430761E-02   -1.9016269576E-02   -1.6880057235E-02
   -1.4904711075E-02   -1.3088020632E-02   -1.1426709889E-02   -9.9165086477E-03
   -8.5522325982E-03   -7.3278714977E-03   -6.2366846764E-03   -5.2713029422E-03
   -4.4238358585E-03   -3.6859831323E-03   -3.0491487800E-03   -2.5045566370E-03
   -2.0433657034E-03   -1.6567837103E-03   -1.3361788723E-03   -1.0731722425E-03
   -8.5977655193E-04   -6.8843261785E-04   -5.5201307732E-04   -4.4309005251E-04
   -3.5522691688E-04   -2.8407737686E-04   -2.2586825398E-04   -1.7748372473E-04
   -1.3653943909E-04   -1.0136212047E-04   -7.0978773042E-05   -4.5103923084E-05
   -2.3871888445E-05   -8.7463643624E-06   -1.0677264854E-06    6.8887864924E-07
   -4.4726242454E-08   -1.2645646046E-07    3.0176621329E-08   -8.3649678413E-11
 0. 0. 0. 0.
 0. 0. 0. 0.
 0. 0. 0. 0.
 0. 0. 0. 0.
 0. 0. 0. 0.
 0. 0. 0. 0.
 0. 0. 0. 0.
 0. 0. 0. 0.
 0. 0. 0. 0.
 0. 0. 0. 0.
 0. 0. 0. 0.
 0. 0. 0. 0.
 0. 0. 0. 0.
 0. 0. 0. 0.
 0. 0. 0. 0.
 0. 0. 0. 0.
 0. 0. 0. 0.
 0. 0. 0. 0.
 0. 0. 0. 0.
 0. 0. 0. 0.
 0. 0. 0. 0.
 0. 0. 0. 0.
 0. 0. 0. 0.
 0. 0. 0. 0.
 0. 0. 0. 0.
 0. 0. 0. 0.
 0. 0. 0. 0.
 0. 0. 0. 0.
 0. 0. 0. 0.
 0. 0. 0. 0.
 0. 0. 0. 0.
 0. 0. 0. 0.
 0. 0. 0. 0.
 0. 0. 0. 0.
 0. 0. 0. 0.
 0. 0. 0. 0.
 0. 0. 0. 0.
 0. 0. 0. 0.
 0. 0. 0. 0.
 0. 0. 0. 0.
 0. 0. 0. 0.
 0. 0. 0. 0.
 0. 0. 0. 0.
 0. 0. 0. 0.
 0. 0. 0. 0.
 0. 0. 0. 0.
 0. 0. 0. 0.
 0. 0. 0. 0.
 0. 0. 0. 0.
 0. 0. 0. 0.
 0. 0. 0. 0.
 0. 0. 0. 0.
 0. 0. 0. 0.
 0. 0. 0. 0.
 0. 0. 0. 0.
 0. 0. 0. 0.
 0. 0. 0. 0.
 0. 0. 0. 0.
 0. 0. 0. 0.
 0. 0. 0. 0.
 0. 0. 0. 0.
 0. 0. 0. 0.
 0. 0. 0. 0.
 0. 0. 0. 0.
 0. 0. 0. 0.
 0. 0. 0. 0.
 0. 0. 0. 0.
 0. 0. 0. 0.
 0. 0. 0. 0.
 0. 0. 0. 0.
 0. 0. 0. 0.
 0. 0. 0. 0.
 0. 0. 0. 0.
 0. 0. 0. 0.
 0. 0. 0. 0.
 0. 0. 0. 0.
 0. 0. 0. 0.
 0. 0. 0. 0.
 0. 0. 0. 0.
 0. 0. 0. 0.
 0. 0. 0. 0.
 0. 0. 0. 0.
 0. 0. 0. 0.
 0. 0. 0. 0.
 0. 0. 0. 0.
 0. 0. 0. 0.
 0. 0. 0. 0.
 0. 0. 0. 0.
 0. 0. 0. 0.
 0. 0. 0. 0.
 0. 0. 0. 0.
 0. 0. 0. 0.
 0. 0. 0. 0.
 0. 0. 0. 0.
 0. 0. 0. 0.
 0. 0. 0. 0.
 0. 0. 0. 0.
 0. 0. 0. 0.
 0. 0. 0. 0.
 0. 0. 0. 0.
 0. 0. 0. 0.
 0. 0. 0. 0.
 0. 0. 0. 0.
 0. 0. 0. 0.
 0. 0. 0. 0.
 0. 0. 0. 0.
 0. 0. 0. 0.
 0. 0. 0. 0.
 0. 0. 0. 0.
 0. 0. 0. 0.
 0. 0. 0. 0.
 0. 0. 0. 0.
 0. 0. 0. 0.
 0. 0. 0. 0.
 0. 0. 0. 0.
 0. 0. 0. 0.
 0. 0. 0. 0.
 0. 0. 0. 0.
 0. 0. 0. 0.
 0. 0. 0. 0.
 0. 0. 0. 0.
 0. 0. 0. 0.
 0. 0. 0. 0.
 0. 0. 0. 0.
 0. 0. 0. 0.
 0. 0. 0. 0.
 0. 0. 0. 0.
 0. 0. 0. 0.
 0. 0. 0. 0.
 0. 0. 0. 0.
 0. 0. 0. 0.
 0. 0. 0. 0.
 0. 0. 0. 0.
 0. 0. 0. 0.
 0. 0. 0. 0.
 0. 0. 0. 0.
 0. 0. 0. 0.
 0. 0. 0. 0.
 0. 0. 0. 0.
 0. 0. 0. 0.
 0. 0. 0. 0.
 0. 0. 0. 0.
 0. 0. 0. 0.
 0. 0. 0. 0.
 0. 0. 0. 0.
 0. 0. 0. 0.
 0. 0. 0. 0.
 0. 0. 0. 0.
 0. 0. 0. 0.
 0. 0. 0. 0.
 0. 0. 0. 0.
 0. 0. 0. 0.
 0. 0. 0. 0.
 0. 0. 0. 0.
 0. 0. 0. 0.
 0. 0. 0. 0.
 0. 0. 0. 0.
 0. 0. 0. 0.
 0. 0. 0. 0.
 0. 0. 0. 0.
 0. 0. 0. 0.
 0. 0. 0. 0.
 0. 0. 0. 0.
 0. 0. 0. 0.
 0. 0. 0. 0.
 0. 0. 0. 0.
 0. 0. 0. 0.
 0. 0. 0. 0.
 0. 0. 0. 0.
 0. 0. 0. 0.
 0. 0. 0. 0.
 0. 0. 0. 0.
 0. 0. 0. 0.
 0. 0. 0. 0.
 0. 0. 0. 0.
 0. 0. 0. 0.
 0. 0. 0. 0.
 0. 0. 0. 0.
 0. 0. 0. 0.
 0. 0. 0. 0.
 0. 0. 0. 0.
 0. 0. 0. 0.
 0. 0. 0. 0.
 0. 0. 0. 0.
 0. 0. 0. 0.
 0. 0. 0. 0.
 0. 0. 0. 0.
 0. 0. 0. 0.
 0. 0. 0. 0.
 0. 0. 0. 0.
 0. 0. 0. 0.
 0. 0. 0. 0.
 0. 0. 0. 0.
 0. 0. 0. 0.
 0. 0. 0. 0.
 0. 0. 0. 0.
 0. 0. 0. 0.
 0. 0. 0. 0.
 0. 0. 0. 0.
 0. 0. 0. 0.
 0. 0. 0. 0.
 0. 0. 0. 0.
 0. 0. 0. 0.
 0. 0. 0. 0.
 0. 0. 0. 0.
 0. 0. 0. 0.
 0. 0. 0. 0.
 0. 0. 0. 0.
 0. 0. 0. 0.
 0. 0. 0. 0.
 0. 0. 0. 0.
 0. 0. 0. 0.
 0. 0. 0. 0.
 0. 0. 0. 0.
 0. 0. 0. 0.
 0. 0. 0. 0.
 0. 0. 0. 0.
 0. 0. 0. 0.
 0. 0. 0. 0.
 0. 0. 0. 0.
 0. 0. 0. 0.
 0. 0. 0. 0.
 0. 0. 0. 0.
 0. 0. 0. 0.
 0. 0. 0. 0.
 0. 0. 0. 0.
 0. 0. 0. 0.
 0. 0. 0. 0.
 0. 0. 0. 0.
 0. 0. 0. 0.
 0. 0. 0. 0.
 0. 0. 0. 0.
 0. 0. 0. 0.
 0. 0. 0. 0.
 0. 0. 0. 0.
 0. 0. 0. 0.
 0. 0. 0. 0.
 0. 0. 0. 0.
 0. 0. 0. 0.
 0. 0. 0. 0.
 0. 0. 0. 0.
 0. 0. 0. 0.
 0. 0. 0. 0.
 0. 0. 0. 0.
 0. 0. 0. 0.
 0. 0. 0. 0.
 0. 0. 0. 0.
 0. 0. 0. 0.
 0. 0. 0. 0.
 0. 0. 0. 0.
 0. 0. 0. 0.
 0. 0. 0. 0.
 0. 0. 0. 0.
 0. 0. 0. 0.
 0. 0. 0. 0.
 0. 0. 0. 0.
 0. 0. 0. 0.
 0. 0. 0. 0.
 0. 0. 0. 0.
 0. 0. 0. 0.
 0. 0. 0. 0.
 0. 0. 0. 0.
 0. 0. 0. 0.
 0. 0. 0. 0.
 0. 0. 0. 0.
 0. 0. 0. 0.
 0. 0. 0. 0.
 0. 0. 0. 0.
 0. 0. 0. 0.
 0. 0. 0. 0.
 0. 0. 0. 0.
 0. 0. 0. 0.
 0. 0. 0. 0.
 0. 0. 0. 0.
 0. 0. 0. 0.
 0. 0. 0. 0.
 0. 0. 0. 0.
 0. 0. 0. 0.
 0. 0. 0. 0.
 0. 0. 0. 0.
 0. 0. 0. 0.
 0. 0. 0. 0.
 0. 0. 0. 0.
 0. 0. 0. 0.
 0. 0. 0. 0.
 0. 0. 0. 0.
 0. 0. 0. 0.
 0. 0. 0. 0.
 0. 0. 0. 0.
 0. 0. 0. 0.
 0. 0. 0. 0.
 0. 0. 0. 0.
 0. 0. 0. 0.
 0. 0. 0. 0.
 0. 0. 0. 0.
 0. 0. 0. 0.
 0. 0. 0. 0.
 0. 0. 0. 0.
 0. 0. 0. 0.
 0. 0. 0. 0.
 0. 0. 0. 0.
 0. 0. 0. 0.
 0. 0. 0. 0.
 0. 0. 0. 0.
 0. 0. 0. 0.
 0. 0. 0. 0.
 0. 0. 0. 0.
 0. 0. 0. 0.
 0. 0. 0. 0.
 0. 0. 0. 0.
 0. 0. 0. 0.
 0. 0. 0. 0.
 0. 0. 0. 0.
 0. 0. 0. 0.
 0. 0. 0. 0.
 0. 0. 0. 0.
 0. 0. 0. 0.
 0. 0. 0. 0.
 0. 0. 0. 0.
 0. 0. 0. 0.
 0. 0. 0. 0.
 0. 0. 0. 0.
 0. 0. 0. 0.
 0. 0. 0. 0.
 0. 0. 0. 0.
 0. 0. 0. 0.
 0. 0. 0. 0.
 0. 0. 0. 0.
 0. 0. 0. 0.
 0. 0. 0. 0.
 0. 0. 0. 0.
 0. 0. 0. 0.
 0. 0. 0. 0.
 0. 0. 0. 0.
 0. 0. 0. 0.
 0. 0. 0. 0.
 0. 0. 0. 0.
 0. 0. 0. 0.
 0. 0. 0. 0.
 0. 0. 0. 0.
 0. 0. 0. 0.
 0. 0. 0. 0.
 0. 0. 0. 0.
 0. 0. 0. 0.
 0. 0. 0. 0.
 0. 0. 0. 0.
 0. 0. 0. 0.
 0. 0. 0. 0.
 0. 0.
   </PP_BETA.2>
   <PP_BETA.3
       type="real"
       size="1650"
       columns="4"
       index="3"
       angular_momentum="1"
       cutoff_radius_index=" 256"
       cutoff_radius="    2.5500000000E+00" >
    1.8194673546E-10    1.4771144771E-03    5.9028224475E-03    1.3260239740E-02
    2.3521300017E-02    3.6646865363E-02    5.2586880453E-02    7.1280569643E-02
    9.2656676148E-02    1.1663374229E-01    1.4312042965E-01    1.7201587770E-01
    2.0321009950E-01    2.3658441271E-01    2.7201190412E-01    3.0935792573E-01
    3.4848062032E-01    3.8923147429E-01    4.3145589540E-01    4.7499381305E-01
    5.1968029858E-01    5.6534620301E-01    6.1181880949E-01    6.5892249784E-01
    7.0647941844E-01    7.5431017256E-01    8.0223449653E-01    8.5007194668E-01
    8.9764258260E-01    9.4476764557E-01    9.9127022970E-01    1.0369759430E+00
    1.0817135554E+00    1.1253156320E+00    1.1676191481E+00    1.2084660838E+00
    1.2477039964E+00    1.2851865681E+00    1.3207741263E+00    1.3543341356E+00
    1.3857416589E+00    1.4148797860E+00    1.4416400285E+00    1.4659226795E+00
    1.4876371364E+00    1.5067021863E+00    1.5230462529E+00    1.5366076043E+00
    1.5473345205E+00    1.5551854213E+00    1.5601289534E+00    1.5621440369E+00
    1.5612198720E+00    1.5573559052E+00    1.5505617559E+00    1.5408571041E+00
    1.5282715404E+00    1.5128443779E+00    1.4946244284E+00    1.4736697436E+00
    1.4500473230E+00    1.4238327891E+00    1.3951100329E+00    1.3639708298E+00
    1.3305144293E+00    1.2948471195E+00    1.2570817684E+00    1.2173373448E+00
    1.1757384199E+00    1.1324146528E+00    1.0875002614E+00    1.0411334820E+00
    9.9345601806E-01    9.4461248283E-01    8.9474983624E-01    8.4401681937E-01
    7.9256338858E-01    7.4054015141E-01    6.8809780684E-01    6.3538659179E-01
    5.8255573621E-01    5.2975292881E-01    4.7712379534E-01    4.2481139158E-01
    3.7295571266E-01    3.2169322061E-01    2.7115639185E-01    2.2147328597E-01
    1.7276713751E-01    1.2515597191E-01    7.8752246913E-02    3.3662520496E-02
   -1.0012853667E-02   -5.2180002366E-02   -9.2751779937E-02   -1.3164798564E-01
   -1.6879555086E-01   -2.0412869586E-01   -2.3758905577E-01   -2.6912577577E-01
   -2.9869557552E-01   -3.2626278303E-01   -3.5179933807E-01   -3.7528476573E-01
   -3.9670612051E-01   -4.1605790148E-01   -4.3334193941E-01   -4.4856725647E-01
   -4.6174989948E-01   -4.7291274767E-01   -4.8208529606E-01   -4.8930341544E-01
   -4.9460909027E-01   -4.9805013569E-01   -4.9967989496E-01   -4.9955691864E-01
   -4.9774462688E-01   -4.9431095636E-01   -4.8932799306E-01   -4.8287159263E-01
   -4.7502098953E-01   -4.6585839662E-01   -4.5546859652E-01   -4.4393852631E-01
   -4.3135685693E-01   -4.1781356875E-01   -4.0339952462E-01   -3.8820604198E-01
   -3.7232446504E-01   -3.5584573876E-01   -3.3885998285E-01   -3.2145607742E-01
   -3.0372081433E-01   -2.8573752479E-01   -2.6758563066E-01   -2.4934061447E-01
   -2.3107399445E-01   -2.1285331410E-01   -1.9474214490E-01   -1.7680009996E-01
   -1.5908285946E-01   -1.4164220649E-01   -1.2452607273E-01   -1.0777859360E-01
   -9.1440172019E-02   -7.5547550232E-02   -6.0133889154E-02   -4.5228854457E-02
   -3.0858708913E-02   -1.7046410751E-02   -3.8117163712E-03    8.8287117440E-03
    2.0861193491E-02    3.2274916087E-02    4.3061816102E-02    5.3216459075E-02
    6.2735917193E-02    7.1619645494E-02    7.9869357034E-02    8.7488897450E-02
    9.4484119316E-02    1.0086275667E-01    1.0663430007E-01    1.1180987260E-01
    1.1640210693E-01    1.2042502409E-01    1.2389391386E-01    1.2682521731E-01
    1.2923641162E-01    1.3114589745E-01    1.3257288902E-01    1.3353730718E-01
    1.3405967549E-01    1.3416101972E-01    1.3386277060E-01    1.3318667022E-01
    1.3215468199E-01    1.3078890443E-01    1.2911148865E-01    1.2714455985E-01
    1.2491014257E-01    1.2243009008E-01    1.1972601761E-01    1.1681923959E-01
    1.1373071092E-01    1.1048097209E-01    1.0709009831E-01    1.0357765246E-01
    9.9962641899E-02    9.6263478920E-02    9.2497945022E-02    8.8683158675E-02
    8.4835546619E-02    8.0970818563E-02    7.7103945175E-02    7.3249139279E-02
    6.9419840129E-02    6.5628700653E-02    6.1887577577E-02    5.8207524288E-02
    5.4598786356E-02    5.1070799598E-02    4.7632190598E-02    4.4290779574E-02
    4.1053585525E-02    3.7926833571E-02    3.4915964419E-02    3.2025645888E-02
    2.9259786446E-02    2.6621550707E-02    2.4113376849E-02    2.1736995920E-02
    1.9493452991E-02    1.7383130145E-02    1.5405771246E-02    1.3560508485E-02
    1.1845890641E-02    1.0259913026E-02    8.8000490503E-03    7.4632833411E-03
    6.2461463269E-03    5.1447501784E-03    4.1548259823E-03    3.2717619943E-03
    2.4906427936E-03    1.8062891446E-03    1.2132983325E-03    7.0608472595E-04
    2.7892029940E-04   -7.4025181061E-05   -3.5864461390E-04   -5.8085497461E-04
   -7.4656000514E-04   -8.6161450723E-04   -9.3178916051E-04   -9.6275049894E-04
   -9.5999616256E-04   -9.2887691982E-04   -8.7464264021E-04   -8.0314878068E-04
   -7.1973454599E-04   -6.2826265444E-04   -5.3249338927E-04   -4.3602323187E-04
   -3.4222470416E-04   -2.5426126050E-04   -1.7509258831E-04   -1.0749703274E-04
   -5.3673622668E-05   -1.6903636769E-05    8.6007833073E-07    3.2713943036E-06
   -1.8083744987E-07   -4.7280704852E-07    1.3223926362E-07   -1.2724536266E-09
 0. 0. 0. 0.
 0. 0. 0. 0.
 0. 0. 0. 0.
 0. 0. 0. 0.
 0. 0. 0. 0.
 0. 0. 0. 0.
 0. 0. 0. 0.
 0. 0. 0. 0.
 0. 0. 0. 0.
 0. 0. 0. 0.
 0. 0. 0. 0.
 0. 0. 0. 0.
 0. 0. 0. 0.
 0. 0. 0. 0.
 0. 0. 0. 0.
 0. 0. 0. 0.
 0. 0. 0. 0.
 0. 0. 0. 0.
 0. 0. 0. 0.
 0. 0. 0. 0.
 0. 0. 0. 0.
 0. 0. 0. 0.
 0. 0. 0. 0.
 0. 0. 0. 0.
 0. 0. 0. 0.
 0. 0. 0. 0.
 0. 0. 0. 0.
 0. 0. 0. 0.
 0. 0. 0. 0.
 0. 0. 0. 0.
 0. 0. 0. 0.
 0. 0. 0. 0.
 0. 0. 0. 0.
 0. 0. 0. 0.
 0. 0. 0. 0.
 0. 0. 0. 0.
 0. 0. 0. 0.
 0. 0. 0. 0.
 0. 0. 0. 0.
 0. 0. 0. 0.
 0. 0. 0. 0.
 0. 0. 0. 0.
 0. 0. 0. 0.
 0. 0. 0. 0.
 0. 0. 0. 0.
 0. 0. 0. 0.
 0. 0. 0. 0.
 0. 0. 0. 0.
 0. 0. 0. 0.
 0. 0. 0. 0.
 0. 0. 0. 0.
 0. 0. 0. 0.
 0. 0. 0. 0.
 0. 0. 0. 0.
 0. 0. 0. 0.
 0. 0. 0. 0.
 0. 0. 0. 0.
 0. 0. 0. 0.
 0. 0. 0. 0.
 0. 0. 0. 0.
 0. 0. 0. 0.
 0. 0. 0. 0.
 0. 0. 0. 0.
 0. 0. 0. 0.
 0. 0. 0. 0.
 0. 0. 0. 0.
 0. 0. 0. 0.
 0. 0. 0. 0.
 0. 0. 0. 0.
 0. 0. 0. 0.
 0. 0. 0. 0.
 0. 0. 0. 0.
 0. 0. 0. 0.
 0. 0. 0. 0.
 0. 0. 0. 0.
 0. 0. 0. 0.
 0. 0. 0. 0.
 0. 0. 0. 0.
 0. 0. 0. 0.
 0. 0. 0. 0.
 0. 0. 0. 0.
 0. 0. 0. 0.
 0. 0. 0. 0.
 0. 0. 0. 0.
 0. 0. 0. 0.
 0. 0. 0. 0.
 0. 0. 0. 0.
 0. 0. 0. 0.
 0. 0. 0. 0.
 0. 0. 0. 0.
 0. 0. 0. 0.
 0. 0. 0. 0.
 0. 0. 0. 0.
 0. 0. 0. 0.
 0. 0. 0. 0.
 0. 0. 0. 0.
 0. 0. 0. 0.
 0. 0. 0. 0.
 0. 0. 0. 0.
 0. 0. 0. 0.
 0. 0. 0. 0.
 0. 0. 0. 0.
 0. 0. 0. 0.
 0. 0. 0. 0.
 0. 0. 0. 0.
 0. 0. 0. 0.
 0. 0. 0. 0.
 0. 0. 0. 0.
 0. 0. 0. 0.
 0. 0. 0. 0.
 0. 0. 0. 0.
 0. 0. 0. 0.
 0. 0. 0. 0.
 0. 0. 0. 0.
 0. 0. 0. 0.
 0. 0. 0. 0.
 0. 0. 0. 0.
 0. 0. 0. 0.
 0. 0. 0. 0.
 0. 0. 0. 0.
 0. 0. 0. 0.
 0. 0. 0. 0.
 0. 0. 0. 0.
 0. 0. 0. 0.
 0. 0. 0. 0.
 0. 0. 0. 0.
 0. 0. 0. 0.
 0. 0. 0. 0.
 0. 0. 0. 0.
 0. 0. 0. 0.
 0. 0. 0. 0.
 0. 0. 0. 0.
 0. 0. 0. 0.
 0. 0. 0. 0.
 0. 0. 0. 0.
 0. 0. 0. 0.
 0. 0. 0. 0.
 0. 0. 0. 0.
 0. 0. 0. 0.
 0. 0. 0. 0.
 0. 0. 0. 0.
 0. 0. 0. 0.
 0. 0. 0. 0.
 0. 0. 0. 0.
 0. 0. 0. 0.
 0. 0. 0. 0.
 0. 0. 0. 0.
 0. 0. 0. 0.
 0. 0. 0. 0.
 0. 0. 0. 0.
 0. 0. 0. 0.
 0. 0. 0. 0.
 0. 0. 0. 0.
 0. 0. 0. 0.
 0. 0. 0. 0.
 0. 0. 0. 0.
 0. 0. 0. 0.
 0. 0. 0. 0.
 0. 0. 0. 0.
 0. 0. 0. 0.
 0. 0. 0. 0.
 0. 0. 0. 0.
 0. 0. 0. 0.
 0. 0. 0. 0.
 0. 0. 0. 0.
 0. 0. 0. 0.
 0. 0. 0. 0.
 0. 0. 0. 0.
 0. 0. 0. 0.
 0. 0. 0. 0.
 0. 0. 0. 0.
 0. 0. 0. 0.
 0. 0. 0. 0.
 0. 0. 0. 0.
 0. 0. 0. 0.
 0. 0. 0. 0.
 0. 0. 0. 0.
 0. 0. 0. 0.
 0. 0. 0. 0.
 0. 0. 0. 0.
 0. 0. 0. 0.
 0. 0. 0. 0.
 0. 0. 0. 0.
 0. 0. 0. 0.
 0. 0. 0. 0.
 0. 0. 0. 0.
 0. 0. 0. 0.
 0. 0. 0. 0.
 0. 0. 0. 0.
 0. 0. 0. 0.
 0. 0. 0. 0.
 0. 0. 0. 0.
 0. 0. 0. 0.
 0. 0. 0. 0.
 0. 0. 0. 0.
 0. 0. 0. 0.
 0. 0. 0. 0.
 0. 0. 0. 0.
 0. 0. 0. 0.
 0. 0. 0. 0.
 0. 0. 0. 0.
 0. 0. 0. 0.
 0. 0. 0. 0.
 0. 0. 0. 0.
 0. 0. 0. 0.
 0. 0. 0. 0.
 0. 0. 0. 0.
 0. 0. 0. 0.
 0. 0. 0. 0.
 0. 0. 0. 0.
 0. 0. 0. 0.
 0. 0. 0. 0.
 0. 0. 0. 0.
 0. 0. 0. 0.
 0. 0. 0. 0.
 0. 0. 0. 0.
 0. 0. 0. 0.
 0. 0. 0. 0.
 0. 0. 0. 0.
 0. 0. 0. 0.
 0. 0. 0. 0.
 0. 0. 0. 0.
 0. 0. 0. 0.
 0. 0. 0. 0.
 0. 0. 0. 0.
 0. 0. 0. 0.
 0. 0. 0. 0.
 0. 0. 0. 0.
 0. 0. 0. 0.
 0. 0. 0. 0.
 0. 0. 0. 0.
 0. 0. 0. 0.
 0. 0. 0. 0.
 0. 0. 0. 0.
 0. 0. 0. 0.
 0. 0. 0. 0.
 0. 0. 0. 0.
 0. 0. 0. 0.
 0. 0. 0. 0.
 0. 0. 0. 0.
 0. 0. 0. 0.
 0. 0. 0. 0.
 0. 0. 0. 0.
 0. 0. 0. 0.
 0. 0. 0. 0.
 0. 0. 0. 0.
 0. 0. 0. 0.
 0. 0. 0. 0.
 0. 0. 0. 0.
 0. 0. 0. 0.
 0. 0. 0. 0.
 0. 0. 0. 0.
 0. 0. 0. 0.
 0. 0. 0. 0.
 0. 0. 0. 0.
 0. 0. 0. 0.
 0. 0. 0. 0.
 0. 0. 0. 0.
 0. 0. 0. 0.
 0. 0. 0. 0.
 0. 0. 0. 0.
 0. 0. 0. 0.
 0. 0. 0. 0.
 0. 0. 0. 0.
 0. 0. 0. 0.
 0. 0. 0. 0.
 0. 0. 0. 0.
 0. 0. 0. 0.
 0. 0. 0. 0.
 0. 0. 0. 0.
 0. 0. 0. 0.
 0. 0. 0. 0.
 0. 0. 0. 0.
 0. 0. 0. 0.
 0. 0. 0. 0.
 0. 0. 0. 0.
 0. 0. 0. 0.
 0. 0. 0. 0.
 0. 0. 0. 0.
 0. 0. 0. 0.
 0. 0. 0. 0.
 0. 0. 0. 0.
 0. 0. 0. 0.
 0. 0. 0. 0.
 0. 0. 0. 0.
 0. 0. 0. 0.
 0. 0. 0. 0.
 0. 0. 0. 0.
 0. 0. 0. 0.
 0. 0. 0. 0.
 0. 0. 0. 0.
 0. 0. 0. 0.
 0. 0. 0. 0.
 0. 0. 0. 0.
 0. 0. 0. 0.
 0. 0. 0. 0.
 0. 0. 0. 0.
 0. 0. 0. 0.
 0. 0. 0. 0.
 0. 0. 0. 0.
 0. 0. 0. 0.
 0. 0. 0. 0.
 0. 0. 0. 0.
 0. 0. 0. 0.
 0. 0. 0. 0.
 0. 0. 0. 0.
 0. 0. 0. 0.
 0. 0. 0. 0.
 0. 0. 0. 0.
 0. 0. 0. 0.
 0. 0. 0. 0.
 0. 0. 0. 0.
 0. 0. 0. 0.
 0. 0. 0. 0.
 0. 0. 0. 0.
 0. 0. 0. 0.
 0. 0. 0. 0.
 0. 0. 0. 0.
 0. 0. 0. 0.
 0. 0. 0. 0.
 0. 0. 0. 0.
 0. 0. 0. 0.
 0. 0. 0. 0.
 0. 0. 0. 0.
 0. 0. 0. 0.
 0. 0. 0. 0.
 0. 0. 0. 0.
 0. 0. 0. 0.
 0. 0. 0. 0.
 0. 0. 0. 0.
 0. 0. 0. 0.
 0. 0. 0. 0.
 0. 0. 0. 0.
 0. 0. 0. 0.
 0. 0. 0. 0.
 0. 0. 0. 0.
 0. 0. 0. 0.
 0. 0. 0. 0.
 0. 0. 0. 0.
 0. 0. 0. 0.
 0. 0. 0. 0.
 0. 0. 0. 0.
 0. 0. 0. 0.
 0. 0. 0. 0.
 0. 0. 0. 0.
 0. 0. 0. 0.
 0. 0. 0. 0.
 0. 0. 0. 0.
 0. 0.
   </PP_BETA.3>
   <PP_BETA.4
       type="real"
       size="1650"
       columns="4"
       index="4"
       angular_momentum="1"
       cutoff_radius_index=" 256"
       cutoff_radius="    2.5500000000E+00" >
    1.7191441326E-10    1.4488853641E-03    5.7901003777E-03    1.3007342995E-02
    2.3073513684E-02    3.5950820932E-02    5.1590928333E-02    6.9935142633E-02
    9.0914641950E-02    1.1445074320E-01    1.4045520764E-01    1.6883058317E-01
    1.9947058203E-01    2.3226049236E-01    2.6707762169E-01    3.0379177075E-01
    3.4226573555E-01    3.8235583548E-01    4.2391246553E-01    4.6678067002E-01
    5.1080073579E-01    5.5580880205E-01    6.0163748469E-01    6.4811651233E-01
    6.9507337145E-01    7.4233395812E-01    7.8972323357E-01    8.3706588095E-01
    8.8418696061E-01    9.3091256140E-01    9.7707044513E-01    1.0224906819E+00
    1.0670062733E+00    1.1104537623E+00    1.1526738248E+00    1.1935118445E+00
    1.2328184644E+00    1.2704501165E+00    1.3062695257E+00    1.3401461870E+00
    1.3719568127E+00    1.4015857505E+00    1.4289253685E+00    1.4538764075E+00
    1.4763482982E+00    1.4962594432E+00    1.5135374622E+00    1.5281194004E+00
    1.5399518986E+00    1.5489913255E+00    1.5552038713E+00    1.5585656028E+00
    1.5590624806E+00    1.5566903371E+00    1.5514548174E+00    1.5433712832E+00
    1.5324646795E+00    1.5187693659E+00    1.5023289133E+00    1.4831958671E+00
    1.4614314779E+00    1.4371054012E+00    1.4102953683E+00    1.3810868284E+00
    1.3495725658E+00    1.3158522914E+00    1.2800322133E+00    1.2422245854E+00
    1.2025472388E+00    1.1611230961E+00    1.1180796719E+00    1.0735485605E+00
    1.0276649144E+00    9.8056691479E-01    9.3239523653E-01    8.8329250962E-01
    8.3340277982E-01    7.8287097014E-01    7.3184234553E-01    6.8046198282E-01
    6.2887424796E-01    5.7722228258E-01    5.2564750177E-01    4.7428910490E-01
    4.2328360137E-01    3.7276435286E-01    3.2286113372E-01    2.7369971113E-01
    2.2540144618E-01    1.7808291740E-01    1.3185556786E-01    8.6825376850E-02
    4.3092557210E-02    7.5127906162E-04   -4.0110579264E-02   -7.9411652534E-02
   -1.1707728166E-01   -1.5303967811E-01   -1.8723805946E-01   -2.1961875594E-01
   -2.5013528797E-01   -2.7874841477E-01   -3.0542615430E-01   -3.3014377483E-01
   -3.5288375854E-01   -3.7363573773E-01   -3.9239640424E-01   -4.0916939274E-01
   -4.2396513887E-01   -4.3680071282E-01   -4.4769962963E-01   -4.5669163701E-01
   -4.6381248185E-01   -4.6910365657E-01   -4.7261212653E-01   -4.7439003966E-01
   -4.7449441971E-01   -4.7298684434E-01   -4.6993310937E-01   -4.6540288074E-01
   -4.5946933520E-01   -4.5220879151E-01   -4.4370033317E-01   -4.3402542429E-01
   -4.2326751988E-01   -4.1151167178E-01   -3.9884413184E-01   -3.8535195332E-01
   -3.7112259198E-01   -3.5624350819E-01   -3.4080176803E-01   -3.2488365616E-01
   -3.0857379887E-01   -2.9195367162E-01   -2.7510110395E-01   -2.5809024468E-01
   -2.4099153036E-01   -2.2387166808E-01   -2.0679363089E-01   -1.8981666356E-01
   -1.7299629990E-01   -1.5638438995E-01   -1.4002913683E-01   -1.2397514263E-01
   -1.0826346278E-01   -9.2931668261E-02   -7.8013915148E-02   -6.3541020793E-02
   -4.9540546160E-02   -3.6036884275E-02   -2.3051352742E-02   -1.0602291744E-02
    1.2948344070E-03    1.2627332083E-02    2.3385170136E-02    3.3560869133E-02
    4.3149388502E-02    5.2148012000E-02    6.0556231960E-02    6.8375632686E-02
    7.5609773408E-02    8.2264071145E-02    8.8345683843E-02    9.3863394093E-02
    9.8827493768E-02    1.0324966985E-01    1.0714289174E-01    1.1052130029E-01
    1.1340009882E-01    1.1579544631E-01    1.1772435304E-01    1.1920457873E-01
    1.2025453359E-01    1.2089318213E-01    1.2113995015E-01    1.2101463487E-01
    1.2053731841E-01    1.1972828459E-01    1.1860793929E-01    1.1719673433E-01
    1.1551509496E-01    1.1358335099E-01    1.1142167158E-01    1.0905000379E-01
    1.0648801471E-01    1.0375503737E-01    1.0087002025E-01    9.7851480448E-02
    9.4717460431E-02    9.1485488277E-02    8.8172541442E-02    8.4795013891E-02
    8.1368686560E-02    7.7908701055E-02    7.4429536494E-02    7.0944989412E-02
    6.7468156609E-02    6.4011420871E-02    6.0586439435E-02    5.7204135120E-02
    5.3874690018E-02    5.0607541641E-02    4.7411381454E-02    4.4294155677E-02
    4.1263068306E-02    3.8324586244E-02    3.5484446502E-02    3.2747665385E-02
    3.0118549619E-02    2.7600709361E-02    2.5197073052E-02    2.2909904071E-02
    2.0740819148E-02    1.8690808518E-02    1.6760257757E-02    1.4948971285E-02
    1.3256197488E-02    1.1680655404E-02    1.0220562935E-02    8.8736664993E-03
    7.6372720583E-03    6.5082774066E-03    5.4832056210E-03    4.5582395278E-03
    3.7292570295E-03    2.9918671193E-03    2.3414463770E-03    1.7731757273E-03
    1.2820772254E-03    8.6305060635E-04    5.1090932995E-04    2.2041584064E-04
   -1.3684241234E-05   -1.9662928842E-04   -3.3360922747E-04   -4.2974661561E-04
   -4.9003752079E-04   -5.1937017835E-04   -5.2256505886E-04   -5.0500675804E-04
   -4.7163676573E-04   -4.2609131991E-04   -3.7193259340E-04   -3.1259219089E-04
   -2.5131569315E-04   -1.9117458985E-04   -1.3506999402E-04   -8.5753046868E-05
   -4.5404745615E-05   -1.7440333964E-05   -3.8773736810E-06    6.8535516985E-09
   -2.4065613701E-08   -9.1883667014E-08    1.1691045964E-08    5.6580612437E-10
 0. 0. 0. 0.
 0. 0. 0. 0.
 0. 0. 0. 0.
 0. 0. 0. 0.
 0. 0. 0. 0.
 0. 0. 0. 0.
 0. 0. 0. 0.
 0. 0. 0. 0.
 0. 0. 0. 0.
 0. 0. 0. 0.
 0. 0. 0. 0.
 0. 0. 0. 0.
 0. 0. 0. 0.
 0. 0. 0. 0.
 0. 0. 0. 0.
 0. 0. 0. 0.
 0. 0. 0. 0.
 0. 0. 0. 0.
 0. 0. 0. 0.
 0. 0. 0. 0.
 0. 0. 0. 0.
 0. 0. 0. 0.
 0. 0. 0. 0.
 0. 0. 0. 0.
 0. 0. 0. 0.
 0. 0. 0. 0.
 0. 0. 0. 0.
 0. 0. 0. 0.
 0. 0. 0. 0.
 0. 0. 0. 0.
 0. 0. 0. 0.
 0. 0. 0. 0.
 0. 0. 0. 0.
 0. 0. 0. 0.
 0. 0. 0. 0.
 0. 0. 0. 0.
 0. 0. 0. 0.
 0. 0. 0. 0.
 0. 0. 0. 0.
 0. 0. 0. 0.
 0. 0. 0. 0.
 0. 0. 0. 0.
 0. 0. 0. 0.
 0. 0. 0. 0.
 0. 0. 0. 0.
 0. 0. 0. 0.
 0. 0. 0. 0.
 0. 0. 0. 0.
 0. 0. 0. 0.
 0. 0. 0. 0.
 0. 0. 0. 0.
 0. 0. 0. 0.
 0. 0. 0. 0.
 0. 0. 0. 0.
 0. 0. 0. 0.
 0. 0. 0. 0.
 0. 0. 0. 0.
 0. 0. 0. 0.
 0. 0. 0. 0.
 0. 0. 0. 0.
 0. 0. 0. 0.
 0. 0. 0. 0.
 0. 0. 0. 0.
 0. 0. 0. 0.
 0. 0. 0. 0.
 0. 0. 0. 0.
 0. 0. 0. 0.
 0. 0. 0. 0.
 0. 0. 0. 0.
 0. 0. 0. 0.
 0. 0. 0. 0.
 0. 0. 0. 0.
 0. 0. 0. 0.
 0. 0. 0. 0.
 0. 0. 0. 0.
 0. 0. 0. 0.
 0. 0. 0. 0.
 0. 0. 0. 0.
 0. 0. 0. 0.
 0. 0. 0. 0.
 0. 0. 0. 0.
 0. 0. 0. 0.
 0. 0. 0. 0.
 0. 0. 0. 0.
 0. 0. 0. 0.
 0. 0. 0. 0.
 0. 0. 0. 0.
 0. 0. 0. 0.
 0. 0. 0. 0.
 0. 0. 0. 0.
 0. 0. 0. 0.
 0. 0. 0. 0.
 0. 0. 0. 0.
 0. 0. 0. 0.
 0. 0. 0. 0.
 0. 0. 0. 0.
 0. 0. 0. 0.
 0. 0. 0. 0.
 0. 0. 0. 0.
 0. 0. 0. 0.
 0. 0. 0. 0.
 0. 0. 0. 0.
 0. 0. 0. 0.
 0. 0. 0. 0.
 0. 0. 0. 0.
 0. 0. 0. 0.
 0. 0. 0. 0.
 0. 0. 0. 0.
 0. 0. 0. 0.
 0. 0. 0. 0.
 0. 0. 0. 0.
 0. 0. 0. 0.
 0. 0. 0. 0.
 0. 0. 0. 0.
 0. 0. 0. 0.
 0. 0. 0. 0.
 0. 0. 0. 0.
 0. 0. 0. 0.
 0. 0. 0. 0.
 0. 0. 0. 0.
 0. 0. 0. 0.
 0. 0. 0. 0.
 0. 0. 0. 0.
 0. 0. 0. 0.
 0. 0. 0. 0.
 0. 0. 0. 0.
 0. 0. 0. 0.
 0. 0. 0. 0.
 0. 0. 0. 0.
 0. 0. 0. 0.
 0. 0. 0. 0.
 0. 0. 0. 0.
 0. 0. 0. 0.
 0. 0. 0. 0.
 0. 0. 0. 0.
 0. 0. 0. 0.
 0. 0. 0. 0.
 0. 0. 0. 0.
 0. 0. 0. 0.
 0. 0. 0. 0.
 0. 0. 0. 0.
 0. 0. 0. 0.
 0. 0. 0. 0.
 0. 0. 0. 0.
 0. 0. 0. 0.
 0. 0. 0. 0.
 0. 0. 0. 0.
 0. 0. 0. 0.
 0. 0. 0. 0.
 0. 0. 0. 0.
 0. 0. 0. 0.
 0. 0. 0. 0.
 0. 0. 0. 0.
 0. 0. 0. 0.
 0. 0. 0. 0.
 0. 0. 0. 0.
 0. 0. 0. 0.
 0. 0. 0. 0.
 0. 0. 0. 0.
 0. 0. 0. 0.
 0. 0. 0. 0.
 0. 0. 0. 0.
 0. 0. 0. 0.
 0. 0. 0. 0.
 0. 0. 0. 0.
 0. 0. 0. 0.
 0. 0. 0. 0.
 0. 0. 0. 0.
 0. 0. 0. 0.
 0. 0. 0. 0.
 0. 0. 0. 0.
 0. 0. 0. 0.
 0. 0. 0. 0.
 0. 0. 0. 0.
 0. 0. 0. 0.
 0. 0. 0. 0.
 0. 0. 0. 0.
 0. 0. 0. 0.
 0. 0. 0. 0.
 0. 0. 0. 0.
 0. 0. 0. 0.
 0. 0. 0. 0.
 0. 0. 0. 0.
 0. 0. 0. 0.
 0. 0. 0. 0.
 0. 0. 0. 0.
 0. 0. 0. 0.
 0. 0. 0. 0.
 0. 0. 0. 0.
 0. 0. 0. 0.
 0. 0. 0. 0.
 0. 0. 0. 0.
 0. 0. 0. 0.
 0. 0. 0. 0.
 0. 0. 0. 0.
 0. 0. 0. 0.
 0. 0. 0. 0.
 0. 0. 0. 0.
 0. 0. 0. 0.
 0. 0. 0. 0.
 0. 0. 0. 0.
 0. 0. 0. 0.
 0. 0. 0. 0.
 0. 0. 0. 0.
 0. 0. 0. 0.
 0. 0. 0. 0.
 0. 0. 0. 0.
 0. 0. 0. 0.
 0. 0. 0. 0.
 0. 0. 0. 0.
 0. 0. 0. 0.
 0. 0. 0. 0.
 0. 0. 0. 0.
 0. 0. 0. 0.
 0. 0. 0. 0.
 0. 0. 0. 0.
 0. 0. 0. 0.
 0. 0. 0. 0.
 0. 0. 0. 0.
 0. 0. 0. 0.
 0. 0. 0. 0.
 0. 0. 0. 0.
 0. 0. 0. 0.
 0. 0. 0. 0.
 0. 0. 0. 0.
 0. 0. 0. 0.
 0. 0. 0. 0.
 0. 0. 0. 0.
 0. 0. 0. 0.
 0. 0. 0. 0.
 0. 0. 0. 0.
 0. 0. 0. 0.
 0. 0. 0. 0.
 0. 0. 0. 0.
 0. 0. 0. 0.
 0. 0. 0. 0.
 0. 0. 0. 0.
 0. 0. 0. 0.
 0. 0. 0. 0.
 0. 0. 0. 0.
 0. 0. 0. 0.
 0. 0. 0. 0.
 0. 0. 0. 0.
 0. 0. 0. 0.
 0. 0. 0. 0.
 0. 0. 0. 0.
 0. 0. 0. 0.
 0. 0. 0. 0.
 0. 0. 0. 0.
 0. 0. 0. 0.
 0. 0. 0. 0.
 0. 0. 0. 0.
 0. 0. 0. 0.
 0. 0. 0. 0.
 0. 0. 0. 0.
 0. 0. 0. 0.
 0. 0. 0. 0.
 0. 0. 0. 0.
 0. 0. 0. 0.
 0. 0. 0. 0.
 0. 0. 0. 0.
 0. 0. 0. 0.
 0. 0. 0. 0.
 0. 0. 0. 0.
 0. 0. 0. 0.
 0. 0. 0. 0.
 0. 0. 0. 0.
 0. 0. 0. 0.
 0. 0. 0. 0.
 0. 0. 0. 0.
 0. 0. 0. 0.
 0. 0. 0. 0.
 0. 0. 0. 0.
 0. 0. 0. 0.
 0. 0. 0. 0.
 0. 0. 0. 0.
 0. 0. 0. 0.
 0. 0. 0. 0.
 0. 0. 0. 0.
 0. 0. 0. 0.
 0. 0. 0. 0.
 0. 0. 0. 0.
 0. 0. 0. 0.
 0. 0. 0. 0.
 0. 0. 0. 0.
 0. 0. 0. 0.
 0. 0. 0. 0.
 0. 0. 0. 0.
 0. 0. 0. 0.
 0. 0. 0. 0.
 0. 0. 0. 0.
 0. 0. 0. 0.
 0. 0. 0. 0.
 0. 0. 0. 0.
 0. 0. 0. 0.
 0. 0. 0. 0.
 0. 0. 0. 0.
 0. 0. 0. 0.
 0. 0. 0. 0.
 0. 0. 0. 0.
 0. 0. 0. 0.
 0. 0. 0. 0.
 0. 0. 0. 0.
 0. 0. 0. 0.
 0. 0. 0. 0.
 0. 0. 0. 0.
 0. 0. 0. 0.
 0. 0. 0. 0.
 0. 0. 0. 0.
 0. 0. 0. 0.
 0. 0. 0. 0.
 0. 0. 0. 0.
 0. 0. 0. 0.
 0. 0. 0. 0.
 0. 0. 0. 0.
 0. 0. 0. 0.
 0. 0. 0. 0.
 0. 0. 0. 0.
 0. 0. 0. 0.
 0. 0. 0. 0.
 0. 0. 0. 0.
 0. 0. 0. 0.
 0. 0. 0. 0.
 0. 0. 0. 0.
 0. 0. 0. 0.
 0. 0. 0. 0.
 0. 0. 0. 0.
 0. 0. 0. 0.
 0. 0. 0. 0.
 0. 0. 0. 0.
 0. 0. 0. 0.
 0. 0. 0. 0.
 0. 0. 0. 0.
 0. 0. 0. 0.
 0. 0. 0. 0.
 0. 0. 0. 0.
 0. 0. 0. 0.
 0. 0. 0. 0.
 0. 0. 0. 0.
 0. 0. 0. 0.
 0. 0. 0. 0.
 0. 0. 0. 0.
 0. 0. 0. 0.
 0. 0. 0. 0.
 0. 0. 0. 0.
 0. 0. 0. 0.
 0. 0. 0. 0.
 0. 0. 0. 0.
 0. 0.
   </PP_BETA.4>
   <PP_BETA.5
       type="real"
       size="1650"
       columns="4"
       index="5"
       angular_momentum="1"
       cutoff_radius_index=" 256"
       cutoff_radius="    2.5500000000E+00" >
    3.7836549172E-10    1.0692312467E-03    4.2699884182E-03    9.5814996411E-03
    1.6969271037E-02    2.6385274897E-02    3.7768211746E-02    5.1043844934E-02
    6.6125405996E-02    8.2914068665E-02    1.0129948907E-01    1.2116040929E-01
    1.4236532110E-01    1.6477318647E-01    1.8823421100E-01    2.1259066639E-01
    2.3767775738E-01    2.6332452897E-01    2.8935480893E-01    3.1558818081E-01
    3.4184098227E-01    3.6792732367E-01    3.9366012146E-01    4.1885214108E-01
    4.4331704383E-01    4.6687043238E-01    4.8933088938E-01    5.1052100372E-01
    5.3026837918E-01    5.4840662020E-01    5.6477628948E-01    5.7922583264E-01
    5.9161246493E-01    6.0180301538E-01    6.0967472406E-01    6.1511598821E-01
    6.1802705328E-01    6.1832064535E-01    6.1592254149E-01    6.1077207509E-01
    6.0282257343E-01    5.9204172523E-01    5.7841187603E-01    5.6193024987E-01
    5.4260909603E-01    5.2047575984E-01    4.9557267711E-01    4.6795729209E-01
    4.3770189910E-01    4.0489340859E-01    3.6963303854E-01    3.3203593264E-01
    2.9223070693E-01    2.5035892698E-01    2.0657451816E-01    1.6104311154E-01
    1.1394132867E-01    6.5456008512E-02    1.5783380152E-02   -3.4871814739E-02
   -8.6297245643E-02   -1.3827395871E-01   -1.9057737954E-01   -2.4297834843E-01
   -2.9524418331E-01   -3.4713976524E-01   -3.9842864147E-01   -4.4887414071E-01
   -4.9824049554E-01   -5.4629396652E-01   -5.9280396286E-01   -6.3754415416E-01
   -6.8029356830E-01   -7.2083766996E-01   -7.5896941501E-01   -7.9449027562E-01
   -8.2721123125E-01   -8.5695372096E-01   -8.8355055244E-01   -9.0684676336E-01
   -9.2670043115E-01   -9.4298342702E-01   -9.5558211085E-01   -9.6439796327E-01
   -9.6934815203E-01   -9.7036602956E-01   -9.6740155927E-01   -9.6042166828E-01
   -9.4941052439E-01   -9.3436973581E-01   -9.1531847208E-01   -8.9229350507E-01
   -8.6534916928E-01   -8.3455724094E-01   -8.0000673559E-01   -7.6180362433E-01
   -7.2007046902E-01   -6.7494597704E-01   -6.2658447660E-01   -5.7515531368E-01
   -5.2084217203E-01   -4.6384231796E-01   -4.0436577164E-01   -3.4263440715E-01
   -2.7888098351E-01   -2.1334810916E-01   -1.4628714254E-01   -7.7957031612E-02
   -8.6230951805E-03    6.1444250803E-02    1.3197081888E-01    2.0268002437E-01
    2.7329430488E-01    3.4353658179E-01    4.1313176007E-01    4.8180826312E-01
    5.4929959899E-01    6.1534595453E-01    6.7969581403E-01    7.4210759875E-01
    8.0235132395E-01    8.6021027014E-01    9.1548266496E-01    9.6798337265E-01
    1.0175455878E+00    1.0640225301E+00    1.1072891376E+00    1.1472437546E+00
    1.1838098123E+00    1.2169375010E+00    1.2466053937E+00    1.2728221530E+00
    1.2956223874E+00    1.3150531697E+00    1.3311690940E+00    1.3440319428E+00
    1.3537102405E+00    1.3602788195E+00    1.3638183907E+00    1.3644150986E+00
    1.3621600845E+00    1.3571490463E+00    1.3494818016E+00    1.3392618534E+00
    1.3265959618E+00    1.3115937215E+00    1.2943671485E+00    1.2750302723E+00
    1.2536987379E+00    1.2304894332E+00    1.2055201000E+00    1.1789089841E+00
    1.1507744854E+00    1.1212348257E+00    1.0904077300E+00    1.0584101236E+00
    1.0253578441E+00    9.9136536835E-01    9.5654555613E-01    9.2100940892E-01
    8.8486584473E-01    8.4822148868E-01    8.1118047927E-01    7.7384429023E-01
    7.3631156762E-01    6.9867798210E-01    6.6103609598E-01    6.2347524471E-01
    5.8608143247E-01    5.4893724156E-01    5.1212175501E-01    4.7571049210E-01
    4.3977535625E-01    4.0438459486E-01    3.6960277054E-01    3.3549074319E-01
    3.0210566251E-01    2.6950097025E-01    2.3772641164E-01    2.0682805556E-01
    1.7684832263E-01    1.4782602073E-01    1.1979638736E-01    9.2791138026E-02
    6.6838520339E-02    4.1963372578E-02    1.8187186551E-02   -4.4718255097E-03
   -2.5998661639E-02   -4.6381459171E-02   -6.5611420902E-02   -8.3682741100E-02
   -1.0059253074E-01   -1.1634074287E-01   -1.3093009840E-01   -1.4436601287E-01
   -1.5665652442E-01   -1.6781222327E-01   -1.7784618283E-01   -1.8677389257E-01
   -1.9461319260E-01   -2.0138420971E-01   -2.0710929476E-01   -2.1181296100E-01
   -2.1552182271E-01   -2.1826453369E-01   -2.2007172480E-01   -2.2097593965E-01
   -2.2101156775E-01   -2.2021477381E-01   -2.1862342234E-01   -2.1627699642E-01
   -2.1321650953E-01   -2.0948440928E-01   -2.0512447223E-01   -2.0018168856E-01
   -1.9470213614E-01   -1.8873284303E-01   -1.8232163824E-01   -1.7551699030E-01
   -1.6836783394E-01   -1.6092338508E-01   -1.5323294488E-01   -1.4534569385E-01
   -1.3731047737E-01   -1.2917558439E-01   -1.2098852120E-01   -1.1279578284E-01
   -1.0464262448E-01   -9.6572835845E-02   -8.8628521592E-02   -8.0849890848E-02
   -7.3275058930E-02   -6.5939864544E-02   -5.8877691486E-02   -5.2119440470E-02
   -4.5693056260E-02   -3.9623910991E-02   -3.3935424341E-02   -2.8656367448E-02
   -2.3809811790E-02   -1.9403641968E-02   -1.5444340768E-02   -1.1936539617E-02
   -8.8825813061E-03   -6.2828076011E-03   -4.1357890292E-03   -2.4388571929E-03
   -1.1801787061E-03   -3.7268619687E-04   -4.6622815949E-06    5.2045383294E-05
   -3.0272283235E-06   -8.0293106019E-06    2.2307399159E-06   -1.7673011074E-08
 0. 0. 0. 0.
 0. 0. 0. 0.
 0. 0. 0. 0.
 0. 0. 0. 0.
 0. 0. 0. 0.
 0. 0. 0. 0.
 0. 0. 0. 0.
 0. 0. 0. 0.
 0. 0. 0. 0.
 0. 0. 0. 0.
 0. 0. 0. 0.
 0. 0. 0. 0.
 0. 0. 0. 0.
 0. 0. 0. 0.
 0. 0. 0. 0.
 0. 0. 0. 0.
 0. 0. 0. 0.
 0. 0. 0. 0.
 0. 0. 0. 0.
 0. 0. 0. 0.
 0. 0. 0. 0.
 0. 0. 0. 0.
 0. 0. 0. 0.
 0. 0. 0. 0.
 0. 0. 0. 0.
 0. 0. 0. 0.
 0. 0. 0. 0.
 0. 0. 0. 0.
 0. 0. 0. 0.
 0. 0. 0. 0.
 0. 0. 0. 0.
 0. 0. 0. 0.
 0. 0. 0. 0.
 0. 0. 0. 0.
 0. 0. 0. 0.
 0. 0. 0. 0.
 0. 0. 0. 0.
 0. 0. 0. 0.
 0. 0. 0. 0.
 0. 0. 0. 0.
 0. 0. 0. 0.
 0. 0. 0. 0.
 0. 0. 0. 0.
 0. 0. 0. 0.
 0. 0. 0. 0.
 0. 0. 0. 0.
 0. 0. 0. 0.
 0. 0. 0. 0.
 0. 0. 0. 0.
 0. 0. 0. 0.
 0. 0. 0. 0.
 0. 0. 0. 0.
 0. 0. 0. 0.
 0. 0. 0. 0.
 0. 0. 0. 0.
 0. 0. 0. 0.
 0. 0. 0. 0.
 0. 0. 0. 0.
 0. 0. 0. 0.
 0. 0. 0. 0.
 0. 0. 0. 0.
 0. 0. 0. 0.
 0. 0. 0. 0.
 0. 0. 0. 0.
 0. 0. 0. 0.
 0. 0. 0. 0.
 0. 0. 0. 0.
 0. 0. 0. 0.
 0. 0. 0. 0.
 0. 0. 0. 0.
 0. 0. 0. 0.
 0. 0. 0. 0.
 0. 0. 0. 0.
 0. 0. 0. 0.
 0. 0. 0. 0.
 0. 0. 0. 0.
 0. 0. 0. 0.
 0. 0. 0. 0.
 0. 0. 0. 0.
 0. 0. 0. 0.
 0. 0. 0. 0.
 0. 0. 0. 0.
 0. 0. 0. 0.
 0. 0. 0. 0.
 0. 0. 0. 0.
 0. 0. 0. 0.
 0. 0. 0. 0.
 0. 0. 0. 0.
 0. 0. 0. 0.
 0. 0. 0. 0.
 0. 0. 0. 0.
 0. 0. 0. 0.
 0. 0. 0. 0.
 0. 0. 0. 0.
 0. 0. 0. 0.
 0. 0. 0. 0.
 0. 0. 0. 0.
 0. 0. 0. 0.
 0. 0. 0. 0.
 0. 0. 0. 0.
 0. 0. 0. 0.
 0. 0. 0. 0.
 0. 0. 0. 0.
 0. 0. 0. 0.
 0. 0. 0. 0.
 0. 0. 0. 0.
 0. 0. 0. 0.
 0. 0. 0. 0.
 0. 0. 0. 0.
 0. 0. 0. 0.
 0. 0. 0. 0.
 0. 0. 0. 0.
 0. 0. 0. 0.
 0. 0. 0. 0.
 0. 0. 0. 0.
 0. 0. 0. 0.
 0. 0. 0. 0.
 0. 0. 0. 0.
 0. 0. 0. 0.
 0. 0. 0. 0.
 0. 0. 0. 0.
 0. 0. 0. 0.
 0. 0. 0. 0.
 0. 0. 0. 0.
 0. 0. 0. 0.
 0. 0. 0. 0.
 0. 0. 0. 0.
 0. 0. 0. 0.
 0. 0. 0. 0.
 0. 0. 0. 0.
 0. 0. 0. 0.
 0. 0. 0. 0.
 0. 0. 0. 0.
 0. 0. 0. 0.
 0. 0. 0. 0.
 0. 0. 0. 0.
 0. 0. 0. 0.
 0. 0. 0. 0.
 0. 0. 0. 0.
 0. 0. 0. 0.
 0. 0. 0. 0.
 0. 0. 0. 0.
 0. 0. 0. 0.
 0. 0. 0. 0.
 0. 0. 0. 0.
 0. 0. 0. 0.
 0. 0. 0. 0.
 0. 0. 0. 0.
 0. 0. 0. 0.
 0. 0. 0. 0.
 0. 0. 0. 0.
 0. 0. 0. 0.
 0. 0. 0. 0.
 0. 0. 0. 0.
 0. 0. 0. 0.
 0. 0. 0. 0.
 0. 0. 0. 0.
 0. 0. 0. 0.
 0. 0. 0. 0.
 0. 0. 0. 0.
 0. 0. 0. 0.
 0. 0. 0. 0.
 0. 0. 0. 0.
 0. 0. 0. 0.
 0. 0. 0. 0.
 0. 0. 0. 0.
 0. 0. 0. 0.
 0. 0. 0. 0.
 0. 0. 0. 0.
 0. 0. 0. 0.
 0. 0. 0. 0.
 0. 0. 0. 0.
 0. 0. 0. 0.
 0. 0. 0. 0.
 0. 0. 0. 0.
 0. 0. 0. 0.
 0. 0. 0. 0.
 0. 0. 0. 0.
 0. 0. 0. 0.
 0. 0. 0. 0.
 0. 0. 0. 0.
 0. 0. 0. 0.
 0. 0. 0. 0.
 0. 0. 0. 0.
 0. 0. 0. 0.
 0. 0. 0. 0.
 0. 0. 0. 0.
 0. 0. 0. 0.
 0. 0. 0. 0.
 0. 0. 0. 0.
 0. 0. 0. 0.
 0. 0. 0. 0.
 0. 0. 0. 0.
 0. 0. 0. 0.
 0. 0. 0. 0.
 0. 0. 0. 0.
 0. 0. 0. 0.
 0. 0. 0. 0.
 0. 0. 0. 0.
 0. 0. 0. 0.
 0. 0. 0. 0.
 0. 0. 0. 0.
 0. 0. 0. 0.
 0. 0. 0. 0.
 0. 0. 0. 0.
 0. 0. 0. 0.
 0. 0. 0. 0.
 0. 0. 0. 0.
 0. 0. 0. 0.
 0. 0. 0. 0.
 0. 0. 0. 0.
 0. 0. 0. 0.
 0. 0. 0. 0.
 0. 0. 0. 0.
 0. 0. 0. 0.
 0. 0. 0. 0.
 0. 0. 0. 0.
 0. 0. 0. 0.
 0. 0. 0. 0.
 0. 0. 0. 0.
 0. 0. 0. 0.
 0. 0. 0. 0.
 0. 0. 0. 0.
 0. 0. 0. 0.
 0. 0. 0. 0.
 0. 0. 0. 0.
 0. 0. 0. 0.
 0. 0. 0. 0.
 0. 0. 0. 0.
 0. 0. 0. 0.
 0. 0. 0. 0.
 0. 0. 0. 0.
 0. 0. 0. 0.
 0. 0. 0. 0.
 0. 0. 0. 0.
 0. 0. 0. 0.
 0. 0. 0. 0.
 0. 0. 0. 0.
 0. 0. 0. 0.
 0. 0. 0. 0.
 0. 0. 0. 0.
 0. 0. 0. 0.
 0. 0. 0. 0.
 0. 0. 0. 0.
 0. 0. 0. 0.
 0. 0. 0. 0.
 0. 0. 0. 0.
 0. 0. 0. 0.
 0. 0. 0. 0.
 0. 0. 0. 0.
 0. 0. 0. 0.
 0. 0. 0. 0.
 0. 0. 0. 0.
 0. 0. 0. 0.
 0. 0. 0. 0.
 0. 0. 0. 0.
 0. 0. 0. 0.
 0. 0. 0. 0.
 0. 0. 0. 0.
 0. 0. 0. 0.
 0. 0. 0. 0.
 0. 0. 0. 0.
 0. 0. 0. 0.
 0. 0. 0. 0.
 0. 0. 0. 0.
 0. 0. 0. 0.
 0. 0. 0. 0.
 0. 0. 0. 0.
 0. 0. 0. 0.
 0. 0. 0. 0.
 0. 0. 0. 0.
 0. 0. 0. 0.
 0. 0. 0. 0.
 0. 0. 0. 0.
 0. 0. 0. 0.
 0. 0. 0. 0.
 0. 0. 0. 0.
 0. 0. 0. 0.
 0. 0. 0. 0.
 0. 0. 0. 0.
 0. 0. 0. 0.
 0. 0. 0. 0.
 0. 0. 0. 0.
 0. 0. 0. 0.
 0. 0. 0. 0.
 0. 0. 0. 0.
 0. 0. 0. 0.
 0. 0. 0. 0.
 0. 0. 0. 0.
 0. 0. 0. 0.
 0. 0. 0. 0.
 0. 0. 0. 0.
 0. 0. 0. 0.
 0. 0. 0. 0.
 0. 0. 0. 0.
 0. 0. 0. 0.
 0. 0. 0. 0.
 0. 0. 0. 0.
 0. 0. 0. 0.
 0. 0. 0. 0.
 0. 0. 0. 0.
 0. 0. 0. 0.
 0. 0. 0. 0.
 0. 0. 0. 0.
 0. 0. 0. 0.
 0. 0. 0. 0.
 0. 0. 0. 0.
 0. 0. 0. 0.
 0. 0. 0. 0.
 0. 0. 0. 0.
 0. 0. 0. 0.
 0. 0. 0. 0.
 0. 0. 0. 0.
 0. 0. 0. 0.
 0. 0. 0. 0.
 0. 0. 0. 0.
 0. 0. 0. 0.
 0. 0. 0. 0.
 0. 0. 0. 0.
 0. 0. 0. 0.
 0. 0. 0. 0.
 0. 0. 0. 0.
 0. 0. 0. 0.
 0. 0. 0. 0.
 0. 0. 0. 0.
 0. 0. 0. 0.
 0. 0. 0. 0.
 0. 0. 0. 0.
 0. 0. 0. 0.
 0. 0. 0. 0.
 0. 0. 0. 0.
 0. 0. 0. 0.
 0. 0. 0. 0.
 0. 0. 0. 0.
 0. 0. 0. 0.
 0. 0. 0. 0.
 0. 0. 0. 0.
 0. 0. 0. 0.
 0. 0. 0. 0.
 0. 0. 0. 0.
 0. 0. 0. 0.
 0. 0. 0. 0.
 0. 0. 0. 0.
 0. 0. 0. 0.
 0. 0. 0. 0.
 0. 0. 0. 0.
 0. 0. 0. 0.
 0. 0. 0. 0.
 0. 0.
   </PP_BETA.5>
   <PP_BETA.6
       type="real"
       size="1650"
       columns="4"
       index="6"
       angular_momentum="1"
       cutoff_radius_index=" 256"
       cutoff_radius="    2.5500000000E+00" >
    3.8425888860E-10    1.1111049307E-03    4.4372841191E-03    9.9571693035E-03
    1.7635275011E-02    2.7422190305E-02    3.9254845834E-02    5.3056854809E-02
    6.8738926117E-02    8.6199347463E-02    1.0532453600E-01    1.2598965362E-01
    1.4805928369E-01    1.7138816577E-01    1.9582198444E-01    2.2119820821E-01
    2.4734697412E-01    2.7409201352E-01    3.0125161408E-01    3.2863961333E-01
    3.5606641818E-01    3.8334004561E-01    4.1026717874E-01    4.3665423304E-01
    4.6230842714E-01    4.8703885263E-01    5.1065753737E-01    5.3298049677E-01
    5.5382876768E-01    5.7302941943E-01    5.9041653692E-01    6.0583217049E-01
    6.1912724789E-01    6.3016244339E-01    6.3880899969E-01    6.4494949827E-01
    6.4847857422E-01    6.4930357179E-01    6.4734513728E-01    6.4253774614E-01
    6.3483016144E-01    6.2418582140E-01    6.1058315381E-01    5.9401581565E-01
    5.7449285656E-01    5.5203880525E-01    5.2669367824E-01    4.9851291066E-01
    4.6756720948E-01    4.3394232959E-01    3.9773877372E-01    3.5907141760E-01
    3.1806906193E-01    2.7487391334E-01    2.2964099661E-01    1.8253750098E-01
    1.3374206351E-01    8.3443992915E-02    3.1842437413E-02   -2.0854499435E-02
   -7.4430690790E-02   -1.2866296213E-01   -1.8332210580E-01   -2.3817392974E-01
   -2.9298033554E-01   -3.4750042068E-01   -4.0149159986E-01   -4.5471074017E-01
   -5.0691530473E-01   -5.5786449953E-01   -6.0732041809E-01   -6.5504917851E-01
   -7.0082204773E-01   -7.4441654762E-01   -7.8561753787E-01   -8.2421827043E-01
   -8.6002141072E-01   -8.9284002071E-01   -9.2249849935E-01   -9.4883347575E-01
   -9.7169465100E-01   -9.9094558458E-01   -1.0064644215E+00   -1.0181445567E+00
   -1.0258952334E+00   -1.0296420724E+00   -1.0293275295E+00   -1.0249112788E+00
   -1.0163705193E+00   -1.0037002039E+00   -9.8691318722E-01   -9.6604029410E-01
   -9.4113030445E-01   -9.1224985634E-01   -8.7948326560E-01   -8.4293226241E-01
   -8.0271564492E-01   -7.5896885049E-01   -7.1184344526E-01   -6.6150653309E-01
   -6.0814008533E-01   -5.5194019266E-01   -4.9311624111E-01   -4.3189001401E-01
   -3.6849472217E-01   -3.0317396471E-01   -2.3618062303E-01   -1.6777569073E-01
   -9.8227042353E-02   -2.7808143879E-02    4.3203291748E-02    1.1452670095E-01
    1.8588011434E-01    2.5698164660E-01    3.2755102809E-01    3.9731117453E-01
    4.6598979142E-01    5.3332100954E-01    5.9904704803E-01    6.6291990158E-01
    7.2470304822E-01    7.8417317419E-01    8.4112191263E-01    8.9535759255E-01
    9.4670699496E-01    9.9501711282E-01    1.0401569118E+00    1.0820190885E+00
    1.1205218238E+00    1.1556105297E+00    1.1872595491E+00    1.2154739439E+00
    1.2402852483E+00    1.2617375841E+00    1.2798825813E+00    1.2947790527E+00
    1.3064925542E+00    1.3150949560E+00    1.3206640201E+00    1.3232829611E+00
    1.3230400164E+00    1.3200280120E+00    1.3143439318E+00    1.3060884903E+00
    1.2953657100E+00    1.2822825055E+00    1.2669482767E+00    1.2494745064E+00
    1.2299743691E+00    1.2085623643E+00    1.1853539329E+00    1.1604651131E+00
    1.1340121960E+00    1.1061113986E+00    1.0768785504E+00    1.0464287948E+00
    1.0148763058E+00    9.8233401935E-01    9.4891338056E-01    9.1472410627E-01
    8.7987396293E-01    8.4446856004E-01    8.0861115884E-01    7.7240249610E-01
    7.3594062291E-01    6.9932075796E-01    6.6263515537E-01    6.2597298636E-01
    5.8942023468E-01    5.5305960521E-01    5.1697044550E-01    4.8122867957E-01
    4.4590675375E-01    4.1107359392E-01    3.7679457376E-01    3.4313149329E-01
    3.1014256756E-01    2.7788242449E-01    2.4640211160E-01    2.1574911102E-01
    1.8596736205E-01    1.5709729089E-01    1.2917584664E-01    1.0223654324E-01
    7.6309506708E-02    5.1421526548E-02    2.7596111246E-02    4.8535475454E-03
   -1.6789038084E-02   -3.7317616533E-02   -5.6721190389E-02   -7.4991728305E-02
   -9.2124098704E-02   -1.0811600370E-01   -1.2296791353E-01   -1.3668300200E-01
   -1.4926708314E-01   -1.6072854934E-01   -1.7107831114E-01   -1.8032973858E-01
   -1.8849860420E-01   -1.9560302740E-01   -2.0166341984E-01   -2.0670243157E-01
   -2.1074489716E-01   -2.1381778142E-01   -2.1595012360E-01   -2.1717297947E-01
   -2.1751936015E-01   -2.1702416670E-01   -2.1572411922E-01   -2.1365767949E-01
   -2.1086496588E-01   -2.0738765937E-01   -2.0326889972E-01   -1.9855317073E-01
   -1.9328617365E-01   -1.8751468834E-01   -1.8128642144E-01   -1.7464984140E-01
   -1.6765400059E-01   -1.6034834473E-01   -1.5278251025E-01   -1.4500611097E-01
   -1.3706851517E-01   -1.2901861507E-01   -1.2090459076E-01   -1.1277367109E-01
   -1.0467189413E-01   -9.6643870369E-02   -8.8732551709E-02   -8.0979009619E-02
   -7.3422225663E-02   -6.6098897857E-02   -5.9043251402E-02   -5.2287006151E-02
   -4.5858878798E-02   -3.9784980002E-02   -3.4089459109E-02   -2.8802145600E-02
   -2.3946984308E-02   -1.9532103978E-02   -1.5564228707E-02   -1.2048204580E-02
   -8.9865396308E-03   -6.3797013516E-03   -4.2263645525E-03   -2.5240111136E-03
   -1.2592002174E-03   -4.5004566169E-04   -8.4153638576E-05    7.4560021319E-06
   -9.8275865758E-07   -3.1859985231E-06    6.4031896282E-07    9.5808483064E-09
 0. 0. 0. 0.
 0. 0. 0. 0.
 0. 0. 0. 0.
 0. 0. 0. 0.
 0. 0. 0. 0.
 0. 0. 0. 0.
 0. 0. 0. 0.
 0. 0. 0. 0.
 0. 0. 0. 0.
 0. 0. 0. 0.
 0. 0. 0. 0.
 0. 0. 0. 0.
 0. 0. 0. 0.
 0. 0. 0. 0.
 0. 0. 0. 0.
 0. 0. 0. 0.
 0. 0. 0. 0.
 0. 0. 0. 0.
 0. 0. 0. 0.
 0. 0. 0. 0.
 0. 0. 0. 0.
 0. 0. 0. 0.
 0. 0. 0. 0.
 0. 0. 0. 0.
 0. 0. 0. 0.
 0. 0. 0. 0.
 0. 0. 0. 0.
 0. 0. 0. 0.
 0. 0. 0. 0.
 0. 0. 0. 0.
 0. 0. 0. 0.
 0. 0. 0. 0.
 0. 0. 0. 0.
 0. 0. 0. 0.
 0. 0. 0. 0.
 0. 0. 0. 0.
 0. 0. 0. 0.
 0. 0. 0. 0.
 0. 0. 0. 0.
 0. 0. 0. 0.
 0. 0. 0. 0.
 0. 0. 0. 0.
 0. 0. 0. 0.
 0. 0. 0. 0.
 0. 0. 0. 0.
 0. 0. 0. 0.
 0. 0. 0. 0.
 0. 0. 0. 0.
 0. 0. 0. 0.
 0. 0. 0. 0.
 0. 0. 0. 0.
 0. 0. 0. 0.
 0. 0. 0. 0.
 0. 0. 0. 0.
 0. 0. 0. 0.
 0. 0. 0. 0.
 0. 0. 0. 0.
 0. 0. 0. 0.
 0. 0. 0. 0.
 0. 0. 0. 0.
 0. 0. 0. 0.
 0. 0. 0. 0.
 0. 0. 0. 0.
 0. 0. 0. 0.
 0. 0. 0. 0.
 0. 0. 0. 0.
 0. 0. 0. 0.
 0. 0. 0. 0.
 0. 0. 0. 0.
 0. 0. 0. 0.
 0. 0. 0. 0.
 0. 0. 0. 0.
 0. 0. 0. 0.
 0. 0. 0. 0.
 0. 0. 0. 0.
 0. 0. 0. 0.
 0. 0. 0. 0.
 0. 0. 0. 0.
 0. 0. 0. 0.
 0. 0. 0. 0.
 0. 0. 0. 0.
 0. 0. 0. 0.
 0. 0. 0. 0.
 0. 0. 0. 0.
 0. 0. 0. 0.
 0. 0. 0. 0.
 0. 0. 0. 0.
 0. 0. 0. 0.
 0. 0. 0. 0.
 0. 0. 0. 0.
 0. 0. 0. 0.
 0. 0. 0. 0.
 0. 0. 0. 0.
 0. 0. 0. 0.
 0. 0. 0. 0.
 0. 0. 0. 0.
 0. 0. 0. 0.
 0. 0. 0. 0.
 0. 0. 0. 0.
 0. 0. 0. 0.
 0. 0. 0. 0.
 0. 0. 0. 0.
 0. 0. 0. 0.
 0. 0. 0. 0.
 0. 0. 0. 0.
 0. 0. 0. 0.
 0. 0. 0. 0.
 0. 0. 0. 0.
 0. 0. 0. 0.
 0. 0. 0. 0.
 0. 0. 0. 0.
 0. 0. 0. 0.
 0. 0. 0. 0.
 0. 0. 0. 0.
 0. 0. 0. 0.
 0. 0. 0. 0.
 0. 0. 0. 0.
 0. 0. 0. 0.
 0. 0. 0. 0.
 0. 0. 0. 0.
 0. 0. 0. 0.
 0. 0. 0. 0.
 0. 0. 0. 0.
 0. 0. 0. 0.
 0. 0. 0. 0.
 0. 0. 0. 0.
 0. 0. 0. 0.
 0. 0. 0. 0.
 0. 0. 0. 0.
 0. 0. 0. 0.
 0. 0. 0. 0.
 0. 0. 0. 0.
 0. 0. 0. 0.
 0. 0. 0. 0.
 0. 0. 0. 0.
 0. 0. 0. 0.
 0. 0. 0. 0.
 0. 0. 0. 0.
 0. 0. 0. 0.
 0. 0. 0. 0.
 0. 0. 0. 0.
 0. 0. 0. 0.
 0. 0. 0. 0.
 0. 0. 0. 0.
 0. 0. 0. 0.
 0. 0. 0. 0.
 0. 0. 0. 0.
 0. 0. 0. 0.
 0. 0. 0. 0.
 0. 0. 0. 0.
 0. 0. 0. 0.
 0. 0. 0. 0.
 0. 0. 0. 0.
 0. 0. 0. 0.
 0. 0. 0. 0.
 0. 0. 0. 0.
 0. 0. 0. 0.
 0. 0. 0. 0.
 0. 0. 0. 0.
 0. 0. 0. 0.
 0. 0. 0. 0.
 0. 0. 0. 0.
 0. 0. 0. 0.
 0. 0. 0. 0.
 0. 0. 0. 0.
 0. 0. 0. 0.
 0. 0. 0. 0.
 0. 0. 0. 0.
 0. 0. 0. 0.
 0. 0. 0. 0.
 0. 0. 0. 0.
 0. 0. 0. 0.
 0. 0. 0. 0.
 0. 0. 0. 0.
 0. 0. 0. 0.
 0. 0. 0. 0.
 0. 0. 0. 0.
 0. 0. 0. 0.
 0. 0. 0. 0.
 0. 0. 0. 0.
 0. 0. 0. 0.
 0. 0. 0. 0.
 0. 0. 0. 0.
 0. 0. 0. 0.
 0. 0. 0. 0.
 0. 0. 0. 0.
 0. 0. 0. 0.
 0. 0. 0. 0.
 0. 0. 0. 0.
 0. 0. 0. 0.
 0. 0. 0. 0.
 0. 0. 0. 0.
 0. 0. 0. 0.
 0. 0. 0. 0.
 0. 0. 0. 0.
 0. 0. 0. 0.
 0. 0. 0. 0.
 0. 0. 0. 0.
 0. 0. 0. 0.
 0. 0. 0. 0.
 0. 0. 0. 0.
 0. 0. 0. 0.
 0. 0. 0. 0.
 0. 0. 0. 0.
 0. 0. 0. 0.
 0. 0. 0. 0.
 0. 0. 0. 0.
 0. 0. 0. 0.
 0. 0. 0. 0.
 0. 0. 0. 0.
 0. 0. 0. 0.
 0. 0. 0. 0.
 0. 0. 0. 0.
 0. 0. 0. 0.
 0. 0. 0. 0.
 0. 0. 0. 0.
 0. 0. 0. 0.
 0. 0. 0. 0.
 0. 0. 0. 0.
 0. 0. 0. 0.
 0. 0. 0. 0.
 0. 0. 0. 0.
 0. 0. 0. 0.
 0. 0. 0. 0.
 0. 0. 0. 0.
 0. 0. 0. 0.
 0. 0. 0. 0.
 0. 0. 0. 0.
 0. 0. 0. 0.
 0. 0. 0. 0.
 0. 0. 0. 0.
 0. 0. 0. 0.
 0. 0. 0. 0.
 0. 0. 0. 0.
 0. 0. 0. 0.
 0. 0. 0. 0.
 0. 0. 0. 0.
 0. 0. 0. 0.
 0. 0. 0. 0.
 0. 0. 0. 0.
 0. 0. 0. 0.
 0. 0. 0. 0.
 0. 0. 0. 0.
 0. 0. 0. 0.
 0. 0. 0. 0.
 0. 0. 0. 0.
 0. 0. 0. 0.
 0. 0. 0. 0.
 0. 0. 0. 0.
 0. 0. 0. 0.
 0. 0. 0. 0.
 0. 0. 0. 0.
 0. 0. 0. 0.
 0. 0. 0. 0.
 0. 0. 0. 0.
 0. 0. 0. 0.
 0. 0. 0. 0.
 0. 0. 0. 0.
 0. 0. 0. 0.
 0. 0. 0. 0.
 0. 0. 0. 0.
 0. 0. 0. 0.
 0. 0. 0. 0.
 0. 0. 0. 0.
 0. 0. 0. 0.
 0. 0. 0. 0.
 0. 0. 0. 0.
 0. 0. 0. 0.
 0. 0. 0. 0.
 0. 0. 0. 0.
 0. 0. 0. 0.
 0. 0. 0. 0.
 0. 0. 0. 0.
 0. 0. 0. 0.
 0. 0. 0. 0.
 0. 0. 0. 0.
 0. 0. 0. 0.
 0. 0. 0. 0.
 0. 0. 0. 0.
 0. 0. 0. 0.
 0. 0. 0. 0.
 0. 0. 0. 0.
 0. 0. 0. 0.
 0. 0. 0. 0.
 0. 0. 0. 0.
 0. 0. 0. 0.
 0. 0. 0. 0.
 0. 0. 0. 0.
 0. 0. 0. 0.
 0. 0. 0. 0.
 0. 0. 0. 0.
 0. 0. 0. 0.
 0. 0. 0. 0.
 0. 0. 0. 0.
 0. 0. 0. 0.
 0. 0. 0. 0.
 0. 0. 0. 0.
 0. 0. 0. 0.
 0. 0. 0. 0.
 0. 0. 0. 0.
 0. 0. 0. 0.
 0. 0. 0. 0.
 0. 0. 0. 0.
 0. 0. 0. 0.
 0. 0. 0. 0.
 0. 0. 0. 0.
 0. 0. 0. 0.
 0. 0. 0. 0.
 0. 0. 0. 0.
 0. 0. 0. 0.
 0. 0. 0. 0.
 0. 0. 0. 0.
 0. 0. 0. 0.
 0. 0. 0. 0.
 0. 0. 0. 0.
 0. 0. 0. 0.
 0. 0. 0. 0.
 0. 0. 0. 0.
 0. 0. 0. 0.
 0. 0. 0. 0.
 0. 0. 0. 0.
 0. 0. 0. 0.
 0. 0. 0. 0.
 0. 0. 0. 0.
 0. 0. 0. 0.
 0. 0. 0. 0.
 0. 0. 0. 0.
 0. 0. 0. 0.
 0. 0. 0. 0.
 0. 0. 0. 0.
 0. 0. 0. 0.
 0. 0. 0. 0.
 0. 0. 0. 0.
 0. 0. 0. 0.
 0. 0. 0. 0.
 0. 0. 0. 0.
 0. 0. 0. 0.
 0. 0. 0. 0.
 0. 0. 0. 0.
 0. 0. 0. 0.
 0. 0. 0. 0.
 0. 0. 0. 0.
 0. 0. 0. 0.
 0. 0. 0. 0.
 0. 0. 0. 0.
 0. 0. 0. 0.
 0. 0. 0. 0.
 0. 0. 0. 0.
 0. 0.
   </PP_BETA.6>
   <PP_BETA.7
       type="real"
       size="1650"
       columns="4"
       index="7"
       angular_momentum="2"
       cutoff_radius_index=" 256"
       cutoff_radius="    2.5500000000E+00" >
   -1.2428207855E-10   -3.3324935019E-06   -2.6577149936E-05   -8.9232972064E-05
   -2.0997650965E-04   -4.0626026960E-04   -6.9392260165E-04   -1.0868127379E-03
   -1.5964345406E-03   -2.2316123584E-03   -2.9981822106E-03   -3.8987113102E-03
   -4.9322487032E-03   -6.0941095469E-03   -7.3756952702E-03   -8.7643515652E-03
   -1.0243265845E-02   -1.1791405479E-02   -1.3383497767E-02   -1.4990052294E-02
   -1.6577425916E-02   -1.8107930306E-02   -1.9539981611E-02   -2.0828291432E-02
   -2.1924097976E-02   -2.2775435904E-02   -2.3327443066E-02   -2.3522701980E-02
   -2.3301613660E-02   -2.2602801062E-02   -2.1363539205E-02   -1.9520208757E-02
   -1.7008769699E-02   -1.3765251457E-02   -9.7262557806E-03   -4.8294684952E-03
    9.8582383007E-04    7.7782163093E-03    1.5603671309E-02    2.4515011201E-02
    3.4561422292E-02    4.5787973873E-02    5.8235156204E-02    7.1938441141E-02
    8.6927868924E-02    1.0322766448E-01    1.2085588634E-01    1.3982411106E-01
    1.6013715578E-01    1.8179284114E-01    2.0478179672E-01    2.2908731051E-01
    2.5468522395E-01    2.8154387340E-01    3.0962407873E-01    3.3887917940E-01
    3.6925511787E-01    4.0069056995E-01    4.3311712135E-01    4.6645948930E-01
    5.0063578777E-01    5.3555783459E-01    5.7113149832E-01    6.0725708261E-01
    6.4382974541E-01    6.8073995013E-01    7.1787394588E-01    7.5511427330E-01
    7.9234029282E-01    8.2942873170E-01    8.6625424633E-01    9.0268999599E-01
    9.3860822456E-01    9.7388084632E-01    1.0083800322E+00    1.0419787930E+00
    1.0745515557E+00    1.1059747302E+00    1.1361272621E+00    1.1648911695E+00
    1.1921520606E+00    1.2177996288E+00    1.2417281239E+00    1.2638367960E+00
    1.2840303115E+00    1.3022191382E+00    1.3183198987E+00    1.3322556911E+00
    1.3439563760E+00    1.3533588283E+00    1.3604071554E+00    1.3650528794E+00
    1.3672550860E+00    1.3669805378E+00    1.3642037544E+00    1.3589070605E+00
    1.3510806009E+00    1.3407223260E+00    1.3278379469E+00    1.3124408637E+00
    1.2945520669E+00    1.2742000136E+00    1.2514204815E+00    1.2262564008E+00
    1.1987576663E+00    1.1689809313E+00    1.1369893855E+00    1.1028525167E+00
    1.0666458598E+00    1.0284507329E+00    9.8835396268E-01    9.4644759960E-01
    9.0282862385E-01    8.5759864336E-01    8.1086358407E-01    7.6273337321E-01
    7.1332161583E-01    6.6274526493E-01    6.1112428518E-01    5.5858131029E-01
    5.0524129383E-01    4.5123115317E-01    3.9667940644E-01    3.4171580179E-01
    2.8647093881E-01    2.3107588132E-01    1.7566176136E-01    1.2035937358E-01
    6.5298759894E-02    1.0608783729E-02   -4.3583305442E-02   -9.7152320462E-02
   -1.4997546288E-01   -2.0193234719E-01   -2.5290507169E-01   -3.0277836979E-01
   -3.5143976905E-01   -3.9877976148E-01   -4.4469198595E-01   -4.8907342267E-01
   -5.3182460070E-01   -5.7284981832E-01   -6.1205737582E-01   -6.4935982042E-01
   -6.8467420217E-01   -7.1792233974E-01   -7.4903109469E-01   -7.7793265206E-01
   -8.0456480550E-01   -8.2887124537E-01   -8.5080184493E-01   -8.7031294487E-01
   -8.8736763101E-01   -9.0193600315E-01   -9.1399543152E-01   -9.2353079766E-01
   -9.3053471635E-01   -9.3500773541E-01   -9.3695850988E-01   -9.3640394749E-01
   -9.3336932236E-01   -9.2788835378E-01   -9.2000324752E-01   -9.0976469690E-01
   -8.9723184156E-01   -8.8247218169E-01   -8.6556144619E-01   -8.4658341333E-01
   -8.2562968307E-01   -8.0279940022E-01   -7.7819892855E-01   -7.5194147597E-01
   -7.2414667138E-01   -6.9494009456E-01   -6.6445276049E-01   -6.3282056011E-01
   -6.0018366010E-01   -5.6668586443E-01   -5.3247394099E-01   -4.9769691696E-01
   -4.6250534694E-01   -4.2705055815E-01   -3.9148387746E-01   -3.5595584503E-01
   -3.2061541994E-01   -2.8560918282E-01   -2.5108054138E-01   -2.1716894414E-01
   -1.8400910820E-01   -1.5173026658E-01   -1.2045544094E-01   -9.0300745150E-02
   -6.1374725081E-02   -3.3777739997E-02   -7.6013904605E-03    1.7072002445E-02
    4.0169862162E-02    6.1629761886E-02    8.1399766295E-02    9.9438706518E-02
    1.1571638557E-01    1.3021371191E-01    1.4292275943E-01    1.5384675248E-01
    1.6299997542E-01    1.7040760643E-01    1.7610547608E-01    1.8013975171E-01
    1.8256654920E-01    1.8345147432E-01    1.8286909640E-01    1.8090235757E-01
    1.7764192141E-01    1.7318546538E-01    1.6763692166E-01    1.6110567180E-01
    1.5370570072E-01    1.4555471604E-01    1.3677323919E-01    1.2748367479E-01
    1.1780936509E-01    1.0787363530E-01    9.7798844791E-02    8.7705450471E-02
    7.7710993682E-02    6.7929321418E-02    5.8470895677E-02    4.9442991652E-02
    4.0942514650E-02    3.3057749079E-02    2.5869995322E-02    1.9452205547E-02
    1.3868546709E-02    9.1738566406E-03    5.4153010491E-03    2.6093276728E-03
    8.3278931349E-04    7.1318921494E-05   -5.0825215097E-05    1.1252102948E-05
    4.1081314283E-06   -2.6345440522E-06    1.7330019111E-08    1.1914715576E-09
    0.0000000000E+00    0.0000000000E+00    0.0000000000E+00    0.0000000000E+00
    0.0000000000E+00    0.0000000000E+00    0.0000000000E+00    0.0000000000E+00
    0.0000000000E+00    0.0000000000E+00    0.0000000000E+00    0.0000000000E+00
 0. 0. 0. 0.
 0. 0. 0. 0.
 0. 0. 0. 0.
 0. 0. 0. 0.
 0. 0. 0. 0.
 0. 0. 0. 0.
 0. 0. 0. 0.
 0. 0. 0. 0.
 0. 0. 0. 0.
 0. 0. 0. 0.
 0. 0. 0. 0.
 0. 0. 0. 0.
 0. 0. 0. 0.
 0. 0. 0. 0.
 0. 0. 0. 0.
 0. 0. 0. 0.
 0. 0. 0. 0.
 0. 0. 0. 0.
 0. 0. 0. 0.
 0. 0. 0. 0.
 0. 0. 0. 0.
 0. 0. 0. 0.
 0. 0. 0. 0.
 0. 0. 0. 0.
 0. 0. 0. 0.
 0. 0. 0. 0.
 0. 0. 0. 0.
 0. 0. 0. 0.
 0. 0. 0. 0.
 0. 0. 0. 0.
 0. 0. 0. 0.
 0. 0. 0. 0.
 0. 0. 0. 0.
 0. 0. 0. 0.
 0. 0. 0. 0.
 0. 0. 0. 0.
 0. 0. 0. 0.
 0. 0. 0. 0.
 0. 0. 0. 0.
 0. 0. 0. 0.
 0. 0. 0. 0.
 0. 0. 0. 0.
 0. 0. 0. 0.
 0. 0. 0. 0.
 0. 0. 0. 0.
 0. 0. 0. 0.
 0. 0. 0. 0.
 0. 0. 0. 0.
 0. 0. 0. 0.
 0. 0. 0. 0.
 0. 0. 0. 0.
 0. 0. 0. 0.
 0. 0. 0. 0.
 0. 0. 0. 0.
 0. 0. 0. 0.
 0. 0. 0. 0.
 0. 0. 0. 0.
 0. 0. 0. 0.
 0. 0. 0. 0.
 0. 0. 0. 0.
 0. 0. 0. 0.
 0. 0. 0. 0.
 0. 0. 0. 0.
 0. 0. 0. 0.
 0. 0. 0. 0.
 0. 0. 0. 0.
 0. 0. 0. 0.
 0. 0. 0. 0.
 0. 0. 0. 0.
 0. 0. 0. 0.
 0. 0. 0. 0.
 0. 0. 0. 0.
 0. 0. 0. 0.
 0. 0. 0. 0.
 0. 0. 0. 0.
 0. 0. 0. 0.
 0. 0. 0. 0.
 0. 0. 0. 0.
 0. 0. 0. 0.
 0. 0. 0. 0.
 0. 0. 0. 0.
 0. 0. 0. 0.
 0. 0. 0. 0.
 0. 0. 0. 0.
 0. 0. 0. 0.
 0. 0. 0. 0.
 0. 0. 0. 0.
 0. 0. 0. 0.
 0. 0. 0. 0.
 0. 0. 0. 0.
 0. 0. 0. 0.
 0. 0. 0. 0.
 0. 0. 0. 0.
 0. 0. 0. 0.
 0. 0. 0. 0.
 0. 0. 0. 0.
 0. 0. 0. 0.
 0. 0. 0. 0.
 0. 0. 0. 0.
 0. 0. 0. 0.
 0. 0. 0. 0.
 0. 0. 0. 0.
 0. 0. 0. 0.
 0. 0. 0. 0.
 0. 0. 0. 0.
 0. 0. 0. 0.
 0. 0. 0. 0.
 0. 0. 0. 0.
 0. 0. 0. 0.
 0. 0. 0. 0.
 0. 0. 0. 0.
 0. 0. 0. 0.
 0. 0. 0. 0.
 0. 0. 0. 0.
 0. 0. 0. 0.
 0. 0. 0. 0.
 0. 0. 0. 0.
 0. 0. 0. 0.
 0. 0. 0. 0.
 0. 0. 0. 0.
 0. 0. 0. 0.
 0. 0. 0. 0.
 0. 0. 0. 0.
 0. 0. 0. 0.
 0. 0. 0. 0.
 0. 0. 0. 0.
 0. 0. 0. 0.
 0. 0. 0. 0.
 0. 0. 0. 0.
 0. 0. 0. 0.
 0. 0. 0. 0.
 0. 0. 0. 0.
 0. 0. 0. 0.
 0. 0. 0. 0.
 0. 0. 0. 0.
 0. 0. 0. 0.
 0. 0. 0. 0.
 0. 0. 0. 0.
 0. 0. 0. 0.
 0. 0. 0. 0.
 0. 0. 0. 0.
 0. 0. 0. 0.
 0. 0. 0. 0.
 0. 0. 0. 0.
 0. 0. 0. 0.
 0. 0. 0. 0.
 0. 0. 0. 0.
 0. 0. 0. 0.
 0. 0. 0. 0.
 0. 0. 0. 0.
 0. 0. 0. 0.
 0. 0. 0. 0.
 0. 0. 0. 0.
 0. 0. 0. 0.
 0. 0. 0. 0.
 0. 0. 0. 0.
 0. 0. 0. 0.
 0. 0. 0. 0.
 0. 0. 0. 0.
 0. 0. 0. 0.
 0. 0. 0. 0.
 0. 0. 0. 0.
 0. 0. 0. 0.
 0. 0. 0. 0.
 0. 0. 0. 0.
 0. 0. 0. 0.
 0. 0. 0. 0.
 0. 0. 0. 0.
 0. 0. 0. 0.
 0. 0. 0. 0.
 0. 0. 0. 0.
 0. 0. 0. 0.
 0. 0. 0. 0.
 0. 0. 0. 0.
 0. 0. 0. 0.
 0. 0. 0. 0.
 0. 0. 0. 0.
 0. 0. 0. 0.
 0. 0. 0. 0.
 0. 0. 0. 0.
 0. 0. 0. 0.
 0. 0. 0. 0.
 0. 0. 0. 0.
 0. 0. 0. 0.
 0. 0. 0. 0.
 0. 0. 0. 0.
 0. 0. 0. 0.
 0. 0. 0. 0.
 0. 0. 0. 0.
 0. 0. 0. 0.
 0. 0. 0. 0.
 0. 0. 0. 0.
 0. 0. 0. 0.
 0. 0. 0. 0.
 0. 0. 0. 0.
 0. 0. 0. 0.
 0. 0. 0. 0.
 0. 0. 0. 0.
 0. 0. 0. 0.
 0. 0. 0. 0.
 0. 0. 0. 0.
 0. 0. 0. 0.
 0. 0. 0. 0.
 0. 0. 0. 0.
 0. 0. 0. 0.
 0. 0. 0. 0.
 0. 0. 0. 0.
 0. 0. 0. 0.
 0. 0. 0. 0.
 0. 0. 0. 0.
 0. 0. 0. 0.
 0. 0. 0. 0.
 0. 0. 0. 0.
 0. 0. 0. 0.
 0. 0. 0. 0.
 0. 0. 0. 0.
 0. 0. 0. 0.
 0. 0. 0. 0.
 0. 0. 0. 0.
 0. 0. 0. 0.
 0. 0. 0. 0.
 0. 0. 0. 0.
 0. 0. 0. 0.
 0. 0. 0. 0.
 0. 0. 0. 0.
 0. 0. 0. 0.
 0. 0. 0. 0.
 0. 0. 0. 0.
 0. 0. 0. 0.
 0. 0. 0. 0.
 0. 0. 0. 0.
 0. 0. 0. 0.
 0. 0. 0. 0.
 0. 0. 0. 0.
 0. 0. 0. 0.
 0. 0. 0. 0.
 0. 0. 0. 0.
 0. 0. 0. 0.
 0. 0. 0. 0.
 0. 0. 0. 0.
 0. 0. 0. 0.
 0. 0. 0. 0.
 0. 0. 0. 0.
 0. 0. 0. 0.
 0. 0. 0. 0.
 0. 0. 0. 0.
 0. 0. 0. 0.
 0. 0. 0. 0.
 0. 0. 0. 0.
 0. 0. 0. 0.
 0. 0. 0. 0.
 0. 0. 0. 0.
 0. 0. 0. 0.
 0. 0. 0. 0.
 0. 0. 0. 0.
 0. 0. 0. 0.
 0. 0. 0. 0.
 0. 0. 0. 0.
 0. 0. 0. 0.
 0. 0. 0. 0.
 0. 0. 0. 0.
 0. 0. 0. 0.
 0. 0. 0. 0.
 0. 0. 0. 0.
 0. 0. 0. 0.
 0. 0. 0. 0.
 0. 0. 0. 0.
 0. 0. 0. 0.
 0. 0. 0. 0.
 0. 0. 0. 0.
 0. 0. 0. 0.
 0. 0. 0. 0.
 0. 0. 0. 0.
 0. 0. 0. 0.
 0. 0. 0. 0.
 0. 0. 0. 0.
 0. 0. 0. 0.
 0. 0. 0. 0.
 0. 0. 0. 0.
 0. 0. 0. 0.
 0. 0. 0. 0.
 0. 0. 0. 0.
 0. 0. 0. 0.
 0. 0. 0. 0.
 0. 0. 0. 0.
 0. 0. 0. 0.
 0. 0. 0. 0.
 0. 0. 0. 0.
 0. 0. 0. 0.
 0. 0. 0. 0.
 0. 0. 0. 0.
 0. 0. 0. 0.
 0. 0. 0. 0.
 0. 0. 0. 0.
 0. 0. 0. 0.
 0. 0. 0. 0.
 0. 0. 0. 0.
 0. 0. 0. 0.
 0. 0. 0. 0.
 0. 0. 0. 0.
 0. 0. 0. 0.
 0. 0. 0. 0.
 0. 0. 0. 0.
 0. 0. 0. 0.
 0. 0. 0. 0.
 0. 0. 0. 0.
 0. 0. 0. 0.
 0. 0. 0. 0.
 0. 0. 0. 0.
 0. 0. 0. 0.
 0. 0. 0. 0.
 0. 0. 0. 0.
 0. 0. 0. 0.
 0. 0. 0. 0.
 0. 0. 0. 0.
 0. 0. 0. 0.
 0. 0. 0. 0.
 0. 0. 0. 0.
 0. 0. 0. 0.
 0. 0. 0. 0.
 0. 0. 0. 0.
 0. 0. 0. 0.
 0. 0. 0. 0.
 0. 0. 0. 0.
 0. 0. 0. 0.
 0. 0. 0. 0.
 0. 0. 0. 0.
 0. 0. 0. 0.
 0. 0. 0. 0.
 0. 0. 0. 0.
 0. 0. 0. 0.
 0. 0. 0. 0.
 0. 0. 0. 0.
 0. 0. 0. 0.
 0. 0. 0. 0.
 0. 0. 0. 0.
 0. 0. 0. 0.
 0. 0. 0. 0.
 0. 0. 0. 0.
 0. 0. 0. 0.
 0. 0. 0. 0.
 0. 0. 0. 0.
 0. 0. 0. 0.
 0. 0. 0. 0.
 0. 0. 0. 0.
 0. 0. 0. 0.
 0. 0. 0. 0.
 0. 0. 0. 0.
 0. 0.
   </PP_BETA.7>
   <PP_BETA.8
       type="real"
       size="1650"
       columns="4"
       index="8"
       angular_momentum="2"
       cutoff_radius_index=" 256"
       cutoff_radius="    2.5500000000E+00" >
   -1.2436409823E-10   -3.3535932119E-06   -2.6745788787E-05   -8.9801235675E-05
   -2.1132054755E-04   -4.0887793231E-04   -6.9843030966E-04   -1.0939415992E-03
   -1.6070257373E-03   -2.2466118271E-03   -3.0186346446E-03   -3.9257535156E-03
   -4.9671023442E-03   -6.1380733191E-03   -7.4301365431E-03   -8.8306975395E-03
   -1.0322994271E-02   -1.1886034985E-02   -1.3494577856E-02   -1.5119153047E-02
   -1.6726127479E-02   -1.8277812195E-02   -1.9732611913E-02   -2.1045215942E-02
   -2.2166829346E-02   -2.3045442850E-02   -2.3626139693E-02   -2.3851437299E-02
   -2.3661661329E-02   -2.2995349433E-02   -2.1789681710E-02   -1.9980934708E-02
   -1.7504955534E-02   -1.4297652496E-02   -1.0295498532E-02   -5.4360435535E-03
    3.4156824249E-04    7.0960801293E-03    1.4883607709E-02    2.3757130920E-02
    3.3765997203E-02    4.4955439755E-02    5.7366114698E-02    7.1033660880E-02
    8.5988285825E-02    1.0225438118E-01    1.1985017080E-01    1.3878739431E-01
    1.5907102879E-01    1.8069905093E-01    2.0366224157E-01    2.2794403445E-01
    2.5352041039E-01    2.8035983809E-01    3.0842326194E-01    3.3766413745E-01
    3.6802851399E-01    3.9945516456E-01    4.3187576174E-01    4.6521509885E-01
    4.9939135468E-01    5.3431640017E-01    5.6989614498E-01    6.0603092152E-01
    6.4261590391E-01    6.7954155903E-01    7.1669412653E-01    7.5395612470E-01
    7.9120687871E-01    8.2832306772E-01    8.6517928726E-01    9.0164862329E-01
    9.3760323406E-01    9.7291493631E-01    1.0074557918E+00    1.0410986911E+00
    1.0737179303E+00    1.1051897780E+00    1.1353930295E+00    1.1642095434E+00
    1.1915247600E+00    1.2172281977E+00    1.2412139243E+00    1.2633810021E+00
    1.2836339045E+00    1.3018829021E+00    1.3180444168E+00    1.3320413436E+00
    1.3438033382E+00    1.3532670701E+00    1.3603764414E+00    1.3650827704E+00
    1.3673449403E+00    1.3671295147E+00    1.3644108179E+00    1.3591709841E+00
    1.3513999728E+00    1.3410955557E+00    1.3282632725E+00    1.3129163594E+00
    1.2950756519E+00    1.2747694613E+00    1.2520334295E+00    1.2269103612E+00
    1.1994500367E+00    1.1697090067E+00    1.1377503695E+00    1.1036435343E+00
    1.0674639696E+00    1.0292929400E+00    9.8921723151E-01    9.4732886676E-01
    9.0372481126E-01    8.5850667110E-01    8.1178038320E-01    7.6365589837E-01
    7.1424685754E-01    6.6367026157E-01    6.1204613458E-01    5.5949718079E-01
    5.0614843478E-01    4.5212690488E-01    3.9756120934E-01    3.4258120489E-01
    2.8731760731E-01    2.3190160340E-01    1.7646445389E-01    1.2113708700E-01
    6.6049681882E-02    1.1331241860E-02   -4.2890842242E-02   -9.6491241656E-02
   -1.4934701696E-01   -2.0133764238E-01   -2.5234507687E-01   -3.0225391568E-01
   -3.5095154983E-01   -3.9832833668E-01   -4.4427778266E-01   -4.8869673801E-01
   -5.3148560468E-01   -5.7254855681E-01   -6.1179377393E-01   -6.4913368602E-01
   -6.8448522968E-01   -7.1777011414E-01   -7.4891509566E-01   -7.7785225843E-01
   -8.0451929978E-01   -8.2885981846E-01   -8.5082360100E-01   -8.7036690636E-01
   -8.8745274375E-01   -9.0205114160E-01   -9.1413940410E-01   -9.2370235212E-01
   -9.3073254532E-01   -9.3523048188E-01   -9.3720477278E-01   -9.3667228735E-01
   -9.3365826687E-01   -9.2819640345E-01   -9.2032888128E-01   -9.1010637772E-01
   -8.9758802195E-01   -8.8284130923E-01   -8.6594196895E-01   -8.4697378522E-01
   -8.2602836907E-01   -8.0320488152E-01   -7.7860970761E-01   -7.5235608131E-01
   -7.2456366236E-01   -6.9535806592E-01   -6.6487034667E-01   -6.3323643947E-01
   -6.0059655885E-01   -5.6709456039E-01   -5.3287726705E-01   -4.9809376436E-01
   -4.6289466823E-01   -4.2743136993E-01   -3.9185526280E-01   -3.5631695564E-01
   -3.2096547797E-01   -2.8594748243E-01   -2.5140644993E-01   -2.1748190312E-01
   -1.8430863377E-01   -1.5201594984E-01   -1.2072694783E-01   -9.0557816016E-02
   -6.1617173954E-02   -3.4005453492E-02   -7.8143263722E-03    1.6873816870E-02
    3.9986332272E-02    6.1460727975E-02    8.1245006251E-02    9.9297938766E-02
    1.1558927227E-01    1.3009986246E-01    1.4282173412E-01    1.5375806650E-01
    1.6292310295E-01    1.7034198502E-01    1.7605051110E-01    1.8009482103E-01
    1.8253100791E-01    1.8342465958E-01    1.8285033233E-01    1.8089096019E-01
    1.7763720357E-01    1.7318674165E-01    1.6764351318E-01    1.6111691103E-01
    1.5372093606E-01    1.4557331631E-01    1.3679459788E-01    1.2750721411E-01
    1.1783453985E-01    1.0789993635E-01    9.7825802287E-02    8.7732636854E-02
    7.7738025871E-02    6.7955863267E-02    5.8496666288E-02    4.9467778883E-02
    4.0966155403E-02    3.3080121669E-02    2.5891023236E-02    1.9471857225E-02
    1.3886835636E-02    9.1908408868E-03    5.4311087314E-03    2.6238191607E-03
    8.4691950480E-04    8.5447652180E-05   -4.4381879562E-05    1.0242610168E-05
    3.7939189850E-06   -2.3656361615E-06   -1.1753009048E-08   -8.0804157841E-10
    0.0000000000E+00    0.0000000000E+00    0.0000000000E+00    0.0000000000E+00
    0.0000000000E+00    0.0000000000E+00    0.0000000000E+00    0.0000000000E+00
    0.0000000000E+00    0.0000000000E+00    0.0000000000E+00    0.0000000000E+00
 0. 0. 0. 0.
 0. 0. 0. 0.
 0. 0. 0. 0.
 0. 0. 0. 0.
 0. 0. 0. 0.
 0. 0. 0. 0.
 0. 0. 0. 0.
 0. 0. 0. 0.
 0. 0. 0. 0.
 0. 0. 0. 0.
 0. 0. 0. 0.
 0. 0. 0. 0.
 0. 0. 0. 0.
 0. 0. 0. 0.
 0. 0. 0. 0.
 0. 0. 0. 0.
 0. 0. 0. 0.
 0. 0. 0. 0.
 0. 0. 0. 0.
 0. 0. 0. 0.
 0. 0. 0. 0.
 0. 0. 0. 0.
 0. 0. 0. 0.
 0. 0. 0. 0.
 0. 0. 0. 0.
 0. 0. 0. 0.
 0. 0. 0. 0.
 0. 0. 0. 0.
 0. 0. 0. 0.
 0. 0. 0. 0.
 0. 0. 0. 0.
 0. 0. 0. 0.
 0. 0. 0. 0.
 0. 0. 0. 0.
 0. 0. 0. 0.
 0. 0. 0. 0.
 0. 0. 0. 0.
 0. 0. 0. 0.
 0. 0. 0. 0.
 0. 0. 0. 0.
 0. 0. 0. 0.
 0. 0. 0. 0.
 0. 0. 0. 0.
 0. 0. 0. 0.
 0. 0. 0. 0.
 0. 0. 0. 0.
 0. 0. 0. 0.
 0. 0. 0. 0.
 0. 0. 0. 0.
 0. 0. 0. 0.
 0. 0. 0. 0.
 0. 0. 0. 0.
 0. 0. 0. 0.
 0. 0. 0. 0.
 0. 0. 0. 0.
 0. 0. 0. 0.
 0. 0. 0. 0.
 0. 0. 0. 0.
 0. 0. 0. 0.
 0. 0. 0. 0.
 0. 0. 0. 0.
 0. 0. 0. 0.
 0. 0. 0. 0.
 0. 0. 0. 0.
 0. 0. 0. 0.
 0. 0. 0. 0.
 0. 0. 0. 0.
 0. 0. 0. 0.
 0. 0. 0. 0.
 0. 0. 0. 0.
 0. 0. 0. 0.
 0. 0. 0. 0.
 0. 0. 0. 0.
 0. 0. 0. 0.
 0. 0. 0. 0.
 0. 0. 0. 0.
 0. 0. 0. 0.
 0. 0. 0. 0.
 0. 0. 0. 0.
 0. 0. 0. 0.
 0. 0. 0. 0.
 0. 0. 0. 0.
 0. 0. 0. 0.
 0. 0. 0. 0.
 0. 0. 0. 0.
 0. 0. 0. 0.
 0. 0. 0. 0.
 0. 0. 0. 0.
 0. 0. 0. 0.
 0. 0. 0. 0.
 0. 0. 0. 0.
 0. 0. 0. 0.
 0. 0. 0. 0.
 0. 0. 0. 0.
 0. 0. 0. 0.
 0. 0. 0. 0.
 0. 0. 0. 0.
 0. 0. 0. 0.
 0. 0. 0. 0.
 0. 0. 0. 0.
 0. 0. 0. 0.
 0. 0. 0. 0.
 0. 0. 0. 0.
 0. 0. 0. 0.
 0. 0. 0. 0.
 0. 0. 0. 0.
 0. 0. 0. 0.
 0. 0. 0. 0.
 0. 0. 0. 0.
 0. 0. 0. 0.
 0. 0. 0. 0.
 0. 0. 0. 0.
 0. 0. 0. 0.
 0. 0. 0. 0.
 0. 0. 0. 0.
 0. 0. 0. 0.
 0. 0. 0. 0.
 0. 0. 0. 0.
 0. 0. 0. 0.
 0. 0. 0. 0.
 0. 0. 0. 0.
 0. 0. 0. 0.
 0. 0. 0. 0.
 0. 0. 0. 0.
 0. 0. 0. 0.
 0. 0. 0. 0.
 0. 0. 0. 0.
 0. 0. 0. 0.
 0. 0. 0. 0.
 0. 0. 0. 0.
 0. 0. 0. 0.
 0. 0. 0. 0.
 0. 0. 0. 0.
 0. 0. 0. 0.
 0. 0. 0. 0.
 0. 0. 0. 0.
 0. 0. 0. 0.
 0. 0. 0. 0.
 0. 0. 0. 0.
 0. 0. 0. 0.
 0. 0. 0. 0.
 0. 0. 0. 0.
 0. 0. 0. 0.
 0. 0. 0. 0.
 0. 0. 0. 0.
 0. 0. 0. 0.
 0. 0. 0. 0.
 0. 0. 0. 0.
 0. 0. 0. 0.
 0. 0. 0. 0.
 0. 0. 0. 0.
 0. 0. 0. 0.
 0. 0. 0. 0.
 0. 0. 0. 0.
 0. 0. 0. 0.
 0. 0. 0. 0.
 0. 0. 0. 0.
 0. 0. 0. 0.
 0. 0. 0. 0.
 0. 0. 0. 0.
 0. 0. 0. 0.
 0. 0. 0. 0.
 0. 0. 0. 0.
 0. 0. 0. 0.
 0. 0. 0. 0.
 0. 0. 0. 0.
 0. 0. 0. 0.
 0. 0. 0. 0.
 0. 0. 0. 0.
 0. 0. 0. 0.
 0. 0. 0. 0.
 0. 0. 0. 0.
 0. 0. 0. 0.
 0. 0. 0. 0.
 0. 0. 0. 0.
 0. 0. 0. 0.
 0. 0. 0. 0.
 0. 0. 0. 0.
 0. 0. 0. 0.
 0. 0. 0. 0.
 0. 0. 0. 0.
 0. 0. 0. 0.
 0. 0. 0. 0.
 0. 0. 0. 0.
 0. 0. 0. 0.
 0. 0. 0. 0.
 0. 0. 0. 0.
 0. 0. 0. 0.
 0. 0. 0. 0.
 0. 0. 0. 0.
 0. 0. 0. 0.
 0. 0. 0. 0.
 0. 0. 0. 0.
 0. 0. 0. 0.
 0. 0. 0. 0.
 0. 0. 0. 0.
 0. 0. 0. 0.
 0. 0. 0. 0.
 0. 0. 0. 0.
 0. 0. 0. 0.
 0. 0. 0. 0.
 0. 0. 0. 0.
 0. 0. 0. 0.
 0. 0. 0. 0.
 0. 0. 0. 0.
 0. 0. 0. 0.
 0. 0. 0. 0.
 0. 0. 0. 0.
 0. 0. 0. 0.
 0. 0. 0. 0.
 0. 0. 0. 0.
 0. 0. 0. 0.
 0. 0. 0. 0.
 0. 0. 0. 0.
 0. 0. 0. 0.
 0. 0. 0. 0.
 0. 0. 0. 0.
 0. 0. 0. 0.
 0. 0. 0. 0.
 0. 0. 0. 0.
 0. 0. 0. 0.
 0. 0. 0. 0.
 0. 0. 0. 0.
 0. 0. 0. 0.
 0. 0. 0. 0.
 0. 0. 0. 0.
 0. 0. 0. 0.
 0. 0. 0. 0.
 0. 0. 0. 0.
 0. 0. 0. 0.
 0. 0. 0. 0.
 0. 0. 0. 0.
 0. 0. 0. 0.
 0. 0. 0. 0.
 0. 0. 0. 0.
 0. 0. 0. 0.
 0. 0. 0. 0.
 0. 0. 0. 0.
 0. 0. 0. 0.
 0. 0. 0. 0.
 0. 0. 0. 0.
 0. 0. 0. 0.
 0. 0. 0. 0.
 0. 0. 0. 0.
 0. 0. 0. 0.
 0. 0. 0. 0.
 0. 0. 0. 0.
 0. 0. 0. 0.
 0. 0. 0. 0.
 0. 0. 0. 0.
 0. 0. 0. 0.
 0. 0. 0. 0.
 0. 0. 0. 0.
 0. 0. 0. 0.
 0. 0. 0. 0.
 0. 0. 0. 0.
 0. 0. 0. 0.
 0. 0. 0. 0.
 0. 0. 0. 0.
 0. 0. 0. 0.
 0. 0. 0. 0.
 0. 0. 0. 0.
 0. 0. 0. 0.
 0. 0. 0. 0.
 0. 0. 0. 0.
 0. 0. 0. 0.
 0. 0. 0. 0.
 0. 0. 0. 0.
 0. 0. 0. 0.
 0. 0. 0. 0.
 0. 0. 0. 0.
 0. 0. 0. 0.
 0. 0. 0. 0.
 0. 0. 0. 0.
 0. 0. 0. 0.
 0. 0. 0. 0.
 0. 0. 0. 0.
 0. 0. 0. 0.
 0. 0. 0. 0.
 0. 0. 0. 0.
 0. 0. 0. 0.
 0. 0. 0. 0.
 0. 0. 0. 0.
 0. 0. 0. 0.
 0. 0. 0. 0.
 0. 0. 0. 0.
 0. 0. 0. 0.
 0. 0. 0. 0.
 0. 0. 0. 0.
 0. 0. 0. 0.
 0. 0. 0. 0.
 0. 0. 0. 0.
 0. 0. 0. 0.
 0. 0. 0. 0.
 0. 0. 0. 0.
 0. 0. 0. 0.
 0. 0. 0. 0.
 0. 0. 0. 0.
 0. 0. 0. 0.
 0. 0. 0. 0.
 0. 0. 0. 0.
 0. 0. 0. 0.
 0. 0. 0. 0.
 0. 0. 0. 0.
 0. 0. 0. 0.
 0. 0. 0. 0.
 0. 0. 0. 0.
 0. 0. 0. 0.
 0. 0. 0. 0.
 0. 0. 0. 0.
 0. 0. 0. 0.
 0. 0. 0. 0.
 0. 0. 0. 0.
 0. 0. 0. 0.
 0. 0. 0. 0.
 0. 0. 0. 0.
 0. 0. 0. 0.
 0. 0. 0. 0.
 0. 0. 0. 0.
 0. 0. 0. 0.
 0. 0. 0. 0.
 0. 0. 0. 0.
 0. 0. 0. 0.
 0. 0. 0. 0.
 0. 0. 0. 0.
 0. 0. 0. 0.
 0. 0. 0. 0.
 0. 0. 0. 0.
 0. 0. 0. 0.
 0. 0. 0. 0.
 0. 0. 0. 0.
 0. 0. 0. 0.
 0. 0. 0. 0.
 0. 0. 0. 0.
 0. 0. 0. 0.
 0. 0. 0. 0.
 0. 0. 0. 0.
 0. 0. 0. 0.
 0. 0. 0. 0.
 0. 0. 0. 0.
 0. 0. 0. 0.
 0. 0. 0. 0.
 0. 0. 0. 0.
 0. 0. 0. 0.
 0. 0. 0. 0.
 0. 0. 0. 0.
 0. 0. 0. 0.
 0. 0. 0. 0.
 0. 0.
   </PP_BETA.8>
   <PP_BETA.9
       type="real"
       size="1650"
       columns="4"
       index="9"
       angular_momentum="2"
       cutoff_radius_index=" 256"
       cutoff_radius="    2.5500000000E+00" >
    4.2694566632E-11   -4.9877860284E-06   -3.9884324861E-05   -1.3450843776E-04
   -3.1849855006E-04   -6.2122117198E-04   -1.0716778247E-03   -1.6984099441E-03
   -2.5294013366E-03   -3.5919778165E-03   -4.9127037117E-03   -6.5172749991E-03
   -8.4304089077E-03   -1.0675729910E-02   -1.3275652118E-02   -1.6251258189E-02
   -1.9622174959E-02   -2.3406446100E-02   -2.7620402232E-02   -3.2278529002E-02
   -3.7393333747E-02   -4.2975211473E-02   -4.9032310969E-02   -5.5570401953E-02
   -6.2592744278E-02   -7.0099960243E-02   -7.8089911178E-02   -8.6557579508E-02
   -9.5494957545E-02   -1.0489094433E-01   -1.1473125180E-01   -1.2499832171E-01
   -1.3567125454E-01   -1.4672575177E-01   -1.5813407283E-01   -1.6986500795E-01
   -1.8188386813E-01   -1.9415249327E-01   -2.0662927962E-01   -2.1926922741E-01
   -2.3202400940E-01   -2.4484206126E-01   -2.5766869404E-01   -2.7044622933E-01
   -2.8311415729E-01   -2.9560931758E-01   -3.0786610305E-01   -3.1981668602E-01
   -3.3139126644E-01   -3.4251834148E-01   -3.5312499548E-01   -3.6313720932E-01
   -3.7248018789E-01   -3.8107870420E-01   -3.8885745854E-01   -3.9574145091E-01
   -4.0165636469E-01   -4.0652895953E-01   -4.1028747111E-01   -4.1286201551E-01
   -4.1418499566E-01   -4.1419150733E-01   -4.1281974194E-01   -4.1001138373E-01
   -4.0571199831E-01   -3.9987141012E-01   -3.9244406592E-01   -3.8338938180E-01
   -3.7267207102E-01   -3.6026245018E-01   -3.4613672138E-01   -3.3027722806E-01
   -3.1267268231E-01   -2.9331836188E-01   -2.7221627493E-01   -2.4937529106E-01
   -2.2481123731E-01   -1.9854695788E-01   -1.7061233687E-01   -1.4104428335E-01
   -1.0988667845E-01   -7.7190284359E-02   -4.3012615508E-02   -7.4177723792E-03
    2.9523761319E-02    6.7735357071E-02    1.0713451429E-01    1.4763316587E-01
    1.8913801471E-01    2.3155089935E-01    2.7476918635E-01    3.1868618721E-01
    3.6319159706E-01    4.0817195265E-01    4.5351110657E-01    4.9909071498E-01
    5.4479073576E-01    5.9048993394E-01    6.3606639156E-01    6.8139801875E-01
    7.2636306299E-01    7.7084061375E-01    8.1471109949E-01    8.5785677431E-01
    9.0016219173E-01    9.4151466300E-01    9.8180469778E-01    1.0209264252E+00
    1.0587779930E+00    1.0952619442E+00    1.1302855685E+00    1.1637612283E+00
    1.1956066587E+00    1.2257452397E+00    1.2541062418E+00    1.2806250437E+00
    1.3052433231E+00    1.3279092211E+00    1.3485774802E+00    1.3672095580E+00
    1.3837737166E+00    1.3982450903E+00    1.4106057320E+00    1.4208446410E+00
    1.4289577735E+00    1.4349480386E+00    1.4388252803E+00    1.4406062492E+00
    1.4403145662E+00    1.4379806787E+00    1.4336418067E+00    1.4273419060E+00
    1.4191304269E+00    1.4090592107E+00    1.3971812660E+00    1.3835505374E+00
    1.3682216737E+00    1.3512498216E+00    1.3326904443E+00    1.3125991620E+00
    1.2910316186E+00    1.2680433738E+00    1.2436898194E+00    1.2180261224E+00
    1.1911071918E+00    1.1629876696E+00    1.1337219455E+00    1.1033641921E+00
    1.0719684212E+00    1.0395885600E+00    1.0062785397E+00    9.7209240206E-01
    9.3708441624E-01    9.0130920501E-01    8.6482187769E-01    8.2767816690E-01
    7.8993456626E-01    7.5164846629E-01    7.1287828541E-01    6.7368359342E-01
    6.3412522442E-01    5.9426537664E-01    5.5416769636E-01    5.1389734369E-01
    4.7352103765E-01    4.3310707872E-01    3.9272534677E-01    3.5244727288E-01
    3.1234578365E-01    2.7249521697E-01    2.3297120836E-01    1.9385054767E-01
    1.5521100574E-01    1.1713113140E-01    7.9690019378E-02    4.2967049793E-02
    7.0416006633E-03   -2.8007265183E-02   -6.2101136903E-02   -9.5162613985E-02
   -1.2711568374E-01   -1.5788611523E-01   -1.8740186668E-01   -2.1559350318E-01
   -2.4239462145E-01   -2.6774227793E-01   -2.9157741674E-01   -3.1384529359E-01
   -3.3449589184E-01   -3.5348432702E-01   -3.7077123560E-01   -3.8632314444E-01
   -4.0011281704E-01   -4.1211957296E-01   -4.2232957684E-01   -4.3073609372E-01
   -4.3733970746E-01   -4.4214849933E-01   -4.4517818423E-01   -4.4645220201E-01
   -4.4600176196E-01   -4.4386583876E-01   -4.4009111843E-01   -4.3473189343E-01
   -4.2784990627E-01   -4.1951414137E-01   -4.0980056547E-01   -3.9879181719E-01
   -3.8657684676E-01   -3.7325050728E-01   -3.5891309959E-01   -3.4366987266E-01
   -3.2763048240E-01   -3.1090841180E-01   -2.9362035557E-01   -2.7588557335E-01
   -2.5782521496E-01   -2.3956162247E-01   -2.2121761318E-01   -2.0291574860E-01
   -1.8477759406E-01   -1.6692297317E-01   -1.4946922847E-01   -1.3253049246E-01
   -1.1621690273E-01   -1.0063399444E-01   -8.5882909436E-02   -7.2060522414E-02
   -5.9254033782E-02   -4.7542265110E-02   -3.6996870576E-02   -2.7681296565E-02
   -1.9650439246E-02   -1.2950223469E-02   -7.6201884697E-03   -3.6615631759E-03
   -1.1645264516E-03   -9.6936943771E-05    7.2383795042E-05   -1.5951952036E-05
   -5.8115346305E-06    3.7480731692E-06   -3.0160296174E-08   -2.0735773475E-09
    0.0000000000E+00    0.0000000000E+00    0.0000000000E+00    0.0000000000E+00
    0.0000000000E+00    0.0000000000E+00    0.0000000000E+00    0.0000000000E+00
    0.0000000000E+00    0.0000000000E+00    0.0000000000E+00    0.0000000000E+00
 0. 0. 0. 0.
 0. 0. 0. 0.
 0. 0. 0. 0.
 0. 0. 0. 0.
 0. 0. 0. 0.
 0. 0. 0. 0.
 0. 0. 0. 0.
 0. 0. 0. 0.
 0. 0. 0. 0.
 0. 0. 0. 0.
 0. 0. 0. 0.
 0. 0. 0. 0.
 0. 0. 0. 0.
 0. 0. 0. 0.
 0. 0. 0. 0.
 0. 0. 0. 0.
 0. 0. 0. 0.
 0. 0. 0. 0.
 0. 0. 0. 0.
 0. 0. 0. 0.
 0. 0. 0. 0.
 0. 0. 0. 0.
 0. 0. 0. 0.
 0. 0. 0. 0.
 0. 0. 0. 0.
 0. 0. 0. 0.
 0. 0. 0. 0.
 0. 0. 0. 0.
 0. 0. 0. 0.
 0. 0. 0. 0.
 0. 0. 0. 0.
 0. 0. 0. 0.
 0. 0. 0. 0.
 0. 0. 0. 0.
 0. 0. 0. 0.
 0. 0. 0. 0.
 0. 0. 0. 0.
 0. 0. 0. 0.
 0. 0. 0. 0.
 0. 0. 0. 0.
 0. 0. 0. 0.
 0. 0. 0. 0.
 0. 0. 0. 0.
 0. 0. 0. 0.
 0. 0. 0. 0.
 0. 0. 0. 0.
 0. 0. 0. 0.
 0. 0. 0. 0.
 0. 0. 0. 0.
 0. 0. 0. 0.
 0. 0. 0. 0.
 0. 0. 0. 0.
 0. 0. 0. 0.
 0. 0. 0. 0.
 0. 0. 0. 0.
 0. 0. 0. 0.
 0. 0. 0. 0.
 0. 0. 0. 0.
 0. 0. 0. 0.
 0. 0. 0. 0.
 0. 0. 0. 0.
 0. 0. 0. 0.
 0. 0. 0. 0.
 0. 0. 0. 0.
 0. 0. 0. 0.
 0. 0. 0. 0.
 0. 0. 0. 0.
 0. 0. 0. 0.
 0. 0. 0. 0.
 0. 0. 0. 0.
 0. 0. 0. 0.
 0. 0. 0. 0.
 0. 0. 0. 0.
 0. 0. 0. 0.
 0. 0. 0. 0.
 0. 0. 0. 0.
 0. 0. 0. 0.
 0. 0. 0. 0.
 0. 0. 0. 0.
 0. 0. 0. 0.
 0. 0. 0. 0.
 0. 0. 0. 0.
 0. 0. 0. 0.
 0. 0. 0. 0.
 0. 0. 0. 0.
 0. 0. 0. 0.
 0. 0. 0. 0.
 0. 0. 0. 0.
 0. 0. 0. 0.
 0. 0. 0. 0.
 0. 0. 0. 0.
 0. 0. 0. 0.
 0. 0. 0. 0.
 0. 0. 0. 0.
 0. 0. 0. 0.
 0. 0. 0. 0.
 0. 0. 0. 0.
 0. 0. 0. 0.
 0. 0. 0. 0.
 0. 0. 0. 0.
 0. 0. 0. 0.
 0. 0. 0. 0.
 0. 0. 0. 0.
 0. 0. 0. 0.
 0. 0. 0. 0.
 0. 0. 0. 0.
 0. 0. 0. 0.
 0. 0. 0. 0.
 0. 0. 0. 0.
 0. 0. 0. 0.
 0. 0. 0. 0.
 0. 0. 0. 0.
 0. 0. 0. 0.
 0. 0. 0. 0.
 0. 0. 0. 0.
 0. 0. 0. 0.
 0. 0. 0. 0.
 0. 0. 0. 0.
 0. 0. 0. 0.
 0. 0. 0. 0.
 0. 0. 0. 0.
 0. 0. 0. 0.
 0. 0. 0. 0.
 0. 0. 0. 0.
 0. 0. 0. 0.
 0. 0. 0. 0.
 0. 0. 0. 0.
 0. 0. 0. 0.
 0. 0. 0. 0.
 0. 0. 0. 0.
 0. 0. 0. 0.
 0. 0. 0. 0.
 0. 0. 0. 0.
 0. 0. 0. 0.
 0. 0. 0. 0.
 0. 0. 0. 0.
 0. 0. 0. 0.
 0. 0. 0. 0.
 0. 0. 0. 0.
 0. 0. 0. 0.
 0. 0. 0. 0.
 0. 0. 0. 0.
 0. 0. 0. 0.
 0. 0. 0. 0.
 0. 0. 0. 0.
 0. 0. 0. 0.
 0. 0. 0. 0.
 0. 0. 0. 0.
 0. 0. 0. 0.
 0. 0. 0. 0.
 0. 0. 0. 0.
 0. 0. 0. 0.
 0. 0. 0. 0.
 0. 0. 0. 0.
 0. 0. 0. 0.
 0. 0. 0. 0.
 0. 0. 0. 0.
 0. 0. 0. 0.
 0. 0. 0. 0.
 0. 0. 0. 0.
 0. 0. 0. 0.
 0. 0. 0. 0.
 0. 0. 0. 0.
 0. 0. 0. 0.
 0. 0. 0. 0.
 0. 0. 0. 0.
 0. 0. 0. 0.
 0. 0. 0. 0.
 0. 0. 0. 0.
 0. 0. 0. 0.
 0. 0. 0. 0.
 0. 0. 0. 0.
 0. 0. 0. 0.
 0. 0. 0. 0.
 0. 0. 0. 0.
 0. 0. 0. 0.
 0. 0. 0. 0.
 0. 0. 0. 0.
 0. 0. 0. 0.
 0. 0. 0. 0.
 0. 0. 0. 0.
 0. 0. 0. 0.
 0. 0. 0. 0.
 0. 0. 0. 0.
 0. 0. 0. 0.
 0. 0. 0. 0.
 0. 0. 0. 0.
 0. 0. 0. 0.
 0. 0. 0. 0.
 0. 0. 0. 0.
 0. 0. 0. 0.
 0. 0. 0. 0.
 0. 0. 0. 0.
 0. 0. 0. 0.
 0. 0. 0. 0.
 0. 0. 0. 0.
 0. 0. 0. 0.
 0. 0. 0. 0.
 0. 0. 0. 0.
 0. 0. 0. 0.
 0. 0. 0. 0.
 0. 0. 0. 0.
 0. 0. 0. 0.
 0. 0. 0. 0.
 0. 0. 0. 0.
 0. 0. 0. 0.
 0. 0. 0. 0.
 0. 0. 0. 0.
 0. 0. 0. 0.
 0. 0. 0. 0.
 0. 0. 0. 0.
 0. 0. 0. 0.
 0. 0. 0. 0.
 0. 0. 0. 0.
 0. 0. 0. 0.
 0. 0. 0. 0.
 0. 0. 0. 0.
 0. 0. 0. 0.
 0. 0. 0. 0.
 0. 0. 0. 0.
 0. 0. 0. 0.
 0. 0. 0. 0.
 0. 0. 0. 0.
 0. 0. 0. 0.
 0. 0. 0. 0.
 0. 0. 0. 0.
 0. 0. 0. 0.
 0. 0. 0. 0.
 0. 0. 0. 0.
 0. 0. 0. 0.
 0. 0. 0. 0.
 0. 0. 0. 0.
 0. 0. 0. 0.
 0. 0. 0. 0.
 0. 0. 0. 0.
 0. 0. 0. 0.
 0. 0. 0. 0.
 0. 0. 0. 0.
 0. 0. 0. 0.
 0. 0. 0. 0.
 0. 0. 0. 0.
 0. 0. 0. 0.
 0. 0. 0. 0.
 0. 0. 0. 0.
 0. 0. 0. 0.
 0. 0. 0. 0.
 0. 0. 0. 0.
 0. 0. 0. 0.
 0. 0. 0. 0.
 0. 0. 0. 0.
 0. 0. 0. 0.
 0. 0. 0. 0.
 0. 0. 0. 0.
 0. 0. 0. 0.
 0. 0. 0. 0.
 0. 0. 0. 0.
 0. 0. 0. 0.
 0. 0. 0. 0.
 0. 0. 0. 0.
 0. 0. 0. 0.
 0. 0. 0. 0.
 0. 0. 0. 0.
 0. 0. 0. 0.
 0. 0. 0. 0.
 0. 0. 0. 0.
 0. 0. 0. 0.
 0. 0. 0. 0.
 0. 0. 0. 0.
 0. 0. 0. 0.
 0. 0. 0. 0.
 0. 0. 0. 0.
 0. 0. 0. 0.
 0. 0. 0. 0.
 0. 0. 0. 0.
 0. 0. 0. 0.
 0. 0. 0. 0.
 0. 0. 0. 0.
 0. 0. 0. 0.
 0. 0. 0. 0.
 0. 0. 0. 0.
 0. 0. 0. 0.
 0. 0. 0. 0.
 0. 0. 0. 0.
 0. 0. 0. 0.
 0. 0. 0. 0.
 0. 0. 0. 0.
 0. 0. 0. 0.
 0. 0. 0. 0.
 0. 0. 0. 0.
 0. 0. 0. 0.
 0. 0. 0. 0.
 0. 0. 0. 0.
 0. 0. 0. 0.
 0. 0. 0. 0.
 0. 0. 0. 0.
 0. 0. 0. 0.
 0. 0. 0. 0.
 0. 0. 0. 0.
 0. 0. 0. 0.
 0. 0. 0. 0.
 0. 0. 0. 0.
 0. 0. 0. 0.
 0. 0. 0. 0.
 0. 0. 0. 0.
 0. 0. 0. 0.
 0. 0. 0. 0.
 0. 0. 0. 0.
 0. 0. 0. 0.
 0. 0. 0. 0.
 0. 0. 0. 0.
 0. 0. 0. 0.
 0. 0. 0. 0.
 0. 0. 0. 0.
 0. 0. 0. 0.
 0. 0. 0. 0.
 0. 0. 0. 0.
 0. 0. 0. 0.
 0. 0. 0. 0.
 0. 0. 0. 0.
 0. 0. 0. 0.
 0. 0. 0. 0.
 0. 0. 0. 0.
 0. 0. 0. 0.
 0. 0. 0. 0.
 0. 0. 0. 0.
 0. 0. 0. 0.
 0. 0. 0. 0.
 0. 0. 0. 0.
 0. 0. 0. 0.
 0. 0. 0. 0.
 0. 0. 0. 0.
 0. 0. 0. 0.
 0. 0. 0. 0.
 0. 0. 0. 0.
 0. 0. 0. 0.
 0. 0. 0. 0.
 0. 0. 0. 0.
 0. 0. 0. 0.
 0. 0. 0. 0.
 0. 0. 0. 0.
 0. 0. 0. 0.
 0. 0. 0. 0.
 0. 0. 0. 0.
 0. 0. 0. 0.
 0. 0. 0. 0.
 0. 0. 0. 0.
 0. 0. 0. 0.
 0. 0. 0. 0.
 0. 0.
   </PP_BETA.9>
   <PP_BETA.10
       type="real"
       size="1650"
       columns="4"
       index="10"
       angular_momentum="2"
       cutoff_radius_index=" 256"
       cutoff_radius="    2.5500000000E+00" >
    4.2489674973E-11   -5.0137631926E-06   -4.0091934217E-05   -1.3520795110E-04
   -3.2015278657E-04   -6.2444241196E-04   -1.0772237276E-03   -1.7071784988E-03
   -2.5424248790E-03   -3.6104161544E-03   -4.9378364051E-03   -6.5504928481E-03
   -8.4732047057E-03   -1.0729688526E-02   -1.3342439972E-02   -1.6332612201E-02
   -1.9719891027E-02   -2.3522367209E-02   -2.7756406254E-02   -3.2436516273E-02
   -3.7575214511E-02   -4.3182893265E-02   -4.9267686020E-02   -5.5835334712E-02
   -6.2889059110E-02   -7.0429429398E-02   -7.8454243098E-02   -8.6958407549E-02
   -9.5933829178E-02   -1.0536931089E-01   -1.1525045884E-01   -1.2555960002E-01
   -1.3627571187E-01   -1.4737436533E-01   -1.5882768255E-01   -1.7060431062E-01
   -1.8266941232E-01   -1.9498467520E-01   -2.0750833987E-01   -2.2019524852E-01
   -2.3299691443E-01   -2.4586161313E-01   -2.5873449584E-01   -2.7155772546E-01
   -2.8427063543E-01   -2.9680991145E-01   -3.0910979599E-01   -3.2110231525E-01
   -3.3271752805E-01   -3.4388379606E-01   -3.5452807432E-01   -3.6457622120E-01
   -3.7395332627E-01   -3.8258405494E-01   -3.9039300794E-01   -3.9730509405E-01
   -4.0324591405E-01   -4.0814215380E-01   -4.1192198410E-01   -4.1451546521E-01
   -4.1585495326E-01   -4.1587550621E-01   -4.1451528665E-01   -4.1171595875E-01
   -4.0742307674E-01   -4.0158646205E-01   -3.9416056667E-01   -3.8510481979E-01
   -3.7438395537E-01   -3.6196831799E-01   -3.4783414468E-01   -3.3196382032E-01
   -3.1434610470E-01   -2.9497632902E-01   -2.7385656038E-01   -2.5099573235E-01
   -2.2640974064E-01   -2.0012150246E-01   -1.7216097889E-01   -1.4256515964E-01
   -1.1137800979E-01   -7.8650378541E-02   -4.4439870095E-02   -8.8106772033E-03
    2.8166621875E-02    6.6415302004E-02    1.0585276410E-01    1.4639084082E-01
    1.8793613329E-01    2.3039037679E-01    2.7365083331E-01    3.1761070851E-01
    3.6215959054E-01    4.0718390805E-01    4.5256740455E-01    4.9819162615E-01
    5.4393641977E-01    5.8968043870E-01    6.3530165250E-01    6.8067785816E-01
    7.2568718955E-01    7.7020862208E-01    8.1412246993E-01    8.5731087288E-01
    8.9965827026E-01    9.4105185953E-01    9.8138203726E-01    1.0205428204E+00
    1.0584322460E+00    1.0949527479E+00    1.1300115090E+00    1.1635207874E+00
    1.1953982172E+00    1.2255670809E+00    1.2539565558E+00    1.2805019326E+00
    1.3051448063E+00    1.3278332416E+00    1.3485219118E+00    1.3671722127E+00
    1.3837523536E+00    1.3982374248E+00    1.4106094456E+00    1.4208573925E+00
    1.4289772109E+00    1.4349718112E+00    1.4388510523E+00    1.4406317142E+00
    1.4403374615E+00    1.4379988016E+00    1.4336530306E+00    1.4273441980E+00
    1.4191218621E+00    1.4090379800E+00    1.3971456805E+00    1.3834990331E+00
    1.3681528161E+00    1.3511623096E+00    1.3325831147E+00    1.3124709925E+00
    1.2908817317E+00    1.2678710393E+00    1.2434944571E+00    1.2178073039E+00
    1.1908646417E+00    1.1627212665E+00    1.1334317219E+00    1.1030503342E+00
    1.0716312672E+00    1.0392285984E+00    1.0058964063E+00    9.7168887668E-01
    9.3666041810E-01    9.0086578781E-01    8.6436022367E-01    8.2719958013E-01
    7.8944046523E-01    7.5114037571E-01    7.1235782740E-01    6.7315247791E-01
    6.3358523908E-01    5.9371837609E-01    5.5361559104E-01    5.1334208815E-01
    4.7296461855E-01    4.3255150251E-01    3.9217262717E-01    3.5189941823E-01
    3.1180478421E-01    2.7196303223E-01    2.3244975456E-01    1.9334168549E-01
    1.5471652833E-01    1.1665275284E-01    7.9229363585E-02    4.2525640058E-02
    6.6208498469E-03   -2.8406063709E-02   -6.2476817489E-02   -9.5514146046E-02
   -1.2744217814E-01   -1.5818682967E-01   -1.8767620998E-01   -2.1584103855E-01
   -2.4261506852E-01   -2.6793551372E-01   -2.9174347545E-01   -3.1398436514E-01
   -3.3460831935E-01   -3.5357060310E-01   -3.7083199749E-01   -3.8635916812E-01
   -4.0012501028E-01   -4.1210896734E-01   -4.2229731893E-01   -4.3068343532E-01
   -4.3726799512E-01   -4.4205916319E-01   -4.4507272621E-01   -4.4633218357E-01
   -4.4586879143E-01   -4.4372155839E-01   -4.3993719125E-01   -4.3456999010E-01
   -4.2768169191E-01   -4.1934126259E-01   -4.0962463768E-01   -3.9861441230E-01
   -3.8639948130E-01   -3.7307463122E-01   -3.5874008578E-01   -3.4350100707E-01
   -3.2746695523E-01   -3.1075130951E-01   -2.9347065397E-01   -2.7574413169E-01
   -2.5769277119E-01   -2.3943878963E-01   -2.2110487699E-01   -2.0281346620E-01
   -1.8468599403E-01   -1.6684215669E-01   -1.4939917168E-01   -1.3247105004E-01
   -1.1616781232E-01   -1.0059488257E-01   -8.5853301032E-02   -7.2039853925E-02
   -5.9241652689E-02   -4.7537435650E-02   -3.6998785313E-02   -2.7689087027E-02
   -1.9663187409E-02   -1.2966973578E-02   -7.6400021462E-03   -3.6829734318E-03
   -1.1878306022E-03   -1.2137753441E-04    6.1105162459E-05   -1.4180206654E-05
   -5.2591062990E-06    3.2767880753E-06    2.0410024419E-08    1.4032277419E-09
    0.0000000000E+00    0.0000000000E+00    0.0000000000E+00    0.0000000000E+00
    0.0000000000E+00    0.0000000000E+00    0.0000000000E+00    0.0000000000E+00
    0.0000000000E+00    0.0000000000E+00    0.0000000000E+00    0.0000000000E+00
 0. 0. 0. 0.
 0. 0. 0. 0.
 0. 0. 0. 0.
 0. 0. 0. 0.
 0. 0. 0. 0.
 0. 0. 0. 0.
 0. 0. 0. 0.
 0. 0. 0. 0.
 0. 0. 0. 0.
 0. 0. 0. 0.
 0. 0. 0. 0.
 0. 0. 0. 0.
 0. 0. 0. 0.
 0. 0. 0. 0.
 0. 0. 0. 0.
 0. 0. 0. 0.
 0. 0. 0. 0.
 0. 0. 0. 0.
 0. 0. 0. 0.
 0. 0. 0. 0.
 0. 0. 0. 0.
 0. 0. 0. 0.
 0. 0. 0. 0.
 0. 0. 0. 0.
 0. 0. 0. 0.
 0. 0. 0. 0.
 0. 0. 0. 0.
 0. 0. 0. 0.
 0. 0. 0. 0.
 0. 0. 0. 0.
 0. 0. 0. 0.
 0. 0. 0. 0.
 0. 0. 0. 0.
 0. 0. 0. 0.
 0. 0. 0. 0.
 0. 0. 0. 0.
 0. 0. 0. 0.
 0. 0. 0. 0.
 0. 0. 0. 0.
 0. 0. 0. 0.
 0. 0. 0. 0.
 0. 0. 0. 0.
 0. 0. 0. 0.
 0. 0. 0. 0.
 0. 0. 0. 0.
 0. 0. 0. 0.
 0. 0. 0. 0.
 0. 0. 0. 0.
 0. 0. 0. 0.
 0. 0. 0. 0.
 0. 0. 0. 0.
 0. 0. 0. 0.
 0. 0. 0. 0.
 0. 0. 0. 0.
 0. 0. 0. 0.
 0. 0. 0. 0.
 0. 0. 0. 0.
 0. 0. 0. 0.
 0. 0. 0. 0.
 0. 0. 0. 0.
 0. 0. 0. 0.
 0. 0. 0. 0.
 0. 0. 0. 0.
 0. 0. 0. 0.
 0. 0. 0. 0.
 0. 0. 0. 0.
 0. 0. 0. 0.
 0. 0. 0. 0.
 0. 0. 0. 0.
 0. 0. 0. 0.
 0. 0. 0. 0.
 0. 0. 0. 0.
 0. 0. 0. 0.
 0. 0. 0. 0.
 0. 0. 0. 0.
 0. 0. 0. 0.
 0. 0. 0. 0.
 0. 0. 0. 0.
 0. 0. 0. 0.
 0. 0. 0. 0.
 0. 0. 0. 0.
 0. 0. 0. 0.
 0. 0. 0. 0.
 0. 0. 0. 0.
 0. 0. 0. 0.
 0. 0. 0. 0.
 0. 0. 0. 0.
 0. 0. 0. 0.
 0. 0. 0. 0.
 0. 0. 0. 0.
 0. 0. 0. 0.
 0. 0. 0. 0.
 0. 0. 0. 0.
 0. 0. 0. 0.
 0. 0. 0. 0.
 0. 0. 0. 0.
 0. 0. 0. 0.
 0. 0. 0. 0.
 0. 0. 0. 0.
 0. 0. 0. 0.
 0. 0. 0. 0.
 0. 0. 0. 0.
 0. 0. 0. 0.
 0. 0. 0. 0.
 0. 0. 0. 0.
 0. 0. 0. 0.
 0. 0. 0. 0.
 0. 0. 0. 0.
 0. 0. 0. 0.
 0. 0. 0. 0.
 0. 0. 0. 0.
 0. 0. 0. 0.
 0. 0. 0. 0.
 0. 0. 0. 0.
 0. 0. 0. 0.
 0. 0. 0. 0.
 0. 0. 0. 0.
 0. 0. 0. 0.
 0. 0. 0. 0.
 0. 0. 0. 0.
 0. 0. 0. 0.
 0. 0. 0. 0.
 0. 0. 0. 0.
 0. 0. 0. 0.
 0. 0. 0. 0.
 0. 0. 0. 0.
 0. 0. 0. 0.
 0. 0. 0. 0.
 0. 0. 0. 0.
 0. 0. 0. 0.
 0. 0. 0. 0.
 0. 0. 0. 0.
 0. 0. 0. 0.
 0. 0. 0. 0.
 0. 0. 0. 0.
 0. 0. 0. 0.
 0. 0. 0. 0.
 0. 0. 0. 0.
 0. 0. 0. 0.
 0. 0. 0. 0.
 0. 0. 0. 0.
 0. 0. 0. 0.
 0. 0. 0. 0.
 0. 0. 0. 0.
 0. 0. 0. 0.
 0. 0. 0. 0.
 0. 0. 0. 0.
 0. 0. 0. 0.
 0. 0. 0. 0.
 0. 0. 0. 0.
 0. 0. 0. 0.
 0. 0. 0. 0.
 0. 0. 0. 0.
 0. 0. 0. 0.
 0. 0. 0. 0.
 0. 0. 0. 0.
 0. 0. 0. 0.
 0. 0. 0. 0.
 0. 0. 0. 0.
 0. 0. 0. 0.
 0. 0. 0. 0.
 0. 0. 0. 0.
 0. 0. 0. 0.
 0. 0. 0. 0.
 0. 0. 0. 0.
 0. 0. 0. 0.
 0. 0. 0. 0.
 0. 0. 0. 0.
 0. 0. 0. 0.
 0. 0. 0. 0.
 0. 0. 0. 0.
 0. 0. 0. 0.
 0. 0. 0. 0.
 0. 0. 0. 0.
 0. 0. 0. 0.
 0. 0. 0. 0.
 0. 0. 0. 0.
 0. 0. 0. 0.
 0. 0. 0. 0.
 0. 0. 0. 0.
 0. 0. 0. 0.
 0. 0. 0. 0.
 0. 0. 0. 0.
 0. 0. 0. 0.
 0. 0. 0. 0.
 0. 0. 0. 0.
 0. 0. 0. 0.
 0. 0. 0. 0.
 0. 0. 0. 0.
 0. 0. 0. 0.
 0. 0. 0. 0.
 0. 0. 0. 0.
 0. 0. 0. 0.
 0. 0. 0. 0.
 0. 0. 0. 0.
 0. 0. 0. 0.
 0. 0. 0. 0.
 0. 0. 0. 0.
 0. 0. 0. 0.
 0. 0. 0. 0.
 0. 0. 0. 0.
 0. 0. 0. 0.
 0. 0. 0. 0.
 0. 0. 0. 0.
 0. 0. 0. 0.
 0. 0. 0. 0.
 0. 0. 0. 0.
 0. 0. 0. 0.
 0. 0. 0. 0.
 0. 0. 0. 0.
 0. 0. 0. 0.
 0. 0. 0. 0.
 0. 0. 0. 0.
 0. 0. 0. 0.
 0. 0. 0. 0.
 0. 0. 0. 0.
 0. 0. 0. 0.
 0. 0. 0. 0.
 0. 0. 0. 0.
 0. 0. 0. 0.
 0. 0. 0. 0.
 0. 0. 0. 0.
 0. 0. 0. 0.
 0. 0. 0. 0.
 0. 0. 0. 0.
 0. 0. 0. 0.
 0. 0. 0. 0.
 0. 0. 0. 0.
 0. 0. 0. 0.
 0. 0. 0. 0.
 0. 0. 0. 0.
 0. 0. 0. 0.
 0. 0. 0. 0.
 0. 0. 0. 0.
 0. 0. 0. 0.
 0. 0. 0. 0.
 0. 0. 0. 0.
 0. 0. 0. 0.
 0. 0. 0. 0.
 0. 0. 0. 0.
 0. 0. 0. 0.
 0. 0. 0. 0.
 0. 0. 0. 0.
 0. 0. 0. 0.
 0. 0. 0. 0.
 0. 0. 0. 0.
 0. 0. 0. 0.
 0. 0. 0. 0.
 0. 0. 0. 0.
 0. 0. 0. 0.
 0. 0. 0. 0.
 0. 0. 0. 0.
 0. 0. 0. 0.
 0. 0. 0. 0.
 0. 0. 0. 0.
 0. 0. 0. 0.
 0. 0. 0. 0.
 0. 0. 0. 0.
 0. 0. 0. 0.
 0. 0. 0. 0.
 0. 0. 0. 0.
 0. 0. 0. 0.
 0. 0. 0. 0.
 0. 0. 0. 0.
 0. 0. 0. 0.
 0. 0. 0. 0.
 0. 0. 0. 0.
 0. 0. 0. 0.
 0. 0. 0. 0.
 0. 0. 0. 0.
 0. 0. 0. 0.
 0. 0. 0. 0.
 0. 0. 0. 0.
 0. 0. 0. 0.
 0. 0. 0. 0.
 0. 0. 0. 0.
 0. 0. 0. 0.
 0. 0. 0. 0.
 0. 0. 0. 0.
 0. 0. 0. 0.
 0. 0. 0. 0.
 0. 0. 0. 0.
 0. 0. 0. 0.
 0. 0. 0. 0.
 0. 0. 0. 0.
 0. 0. 0. 0.
 0. 0. 0. 0.
 0. 0. 0. 0.
 0. 0. 0. 0.
 0. 0. 0. 0.
 0. 0. 0. 0.
 0. 0. 0. 0.
 0. 0. 0. 0.
 0. 0. 0. 0.
 0. 0. 0. 0.
 0. 0. 0. 0.
 0. 0. 0. 0.
 0. 0. 0. 0.
 0. 0. 0. 0.
 0. 0. 0. 0.
 0. 0. 0. 0.
 0. 0. 0. 0.
 0. 0. 0. 0.
 0. 0. 0. 0.
 0. 0. 0. 0.
 0. 0. 0. 0.
 0. 0. 0. 0.
 0. 0. 0. 0.
 0. 0. 0. 0.
 0. 0. 0. 0.
 0. 0. 0. 0.
 0. 0. 0. 0.
 0. 0. 0. 0.
 0. 0. 0. 0.
 0. 0. 0. 0.
 0. 0. 0. 0.
 0. 0. 0. 0.
 0. 0. 0. 0.
 0. 0. 0. 0.
 0. 0. 0. 0.
 0. 0. 0. 0.
 0. 0. 0. 0.
 0. 0. 0. 0.
 0. 0. 0. 0.
 0. 0. 0. 0.
 0. 0. 0. 0.
 0. 0. 0. 0.
 0. 0. 0. 0.
 0. 0. 0. 0.
 0. 0. 0. 0.
 0. 0. 0. 0.
 0. 0. 0. 0.
 0. 0. 0. 0.
 0. 0. 0. 0.
 0. 0. 0. 0.
 0. 0. 0. 0.
 0. 0. 0. 0.
 0. 0. 0. 0.
 0. 0. 0. 0.
 0. 0. 0. 0.
 0. 0. 0. 0.
 0. 0. 0. 0.
 0. 0. 0. 0.
 0. 0. 0. 0.
 0. 0. 0. 0.
 0. 0. 0. 0.
 0. 0. 0. 0.
 0. 0. 0. 0.
 0. 0.
   </PP_BETA.10>
   <PP_DIJ type="real"  size=" 100" columns="4">
    9.8296674550E+00    0.0000000000E+00    0.0000000000E+00    0.0000000000E+00
    0.0000000000E+00    0.0000000000E+00    0.0000000000E+00    0.0000000000E+00
    0.0000000000E+00    0.0000000000E+00    0.0000000000E+00    1.5501685953E+00
    0.0000000000E+00    0.0000000000E+00    0.0000000000E+00    0.0000000000E+00
    0.0000000000E+00    0.0000000000E+00    0.0000000000E+00    0.0000000000E+00
    0.0000000000E+00    0.0000000000E+00    4.5693904958E+00    0.0000000000E+00
    0.0000000000E+00    0.0000000000E+00    0.0000000000E+00    0.0000000000E+00
    0.0000000000E+00    0.0000000000E+00    0.0000000000E+00    0.0000000000E+00
    0.0000000000E+00    4.4413854082E+00    0.0000000000E+00    0.0000000000E+00
    0.0000000000E+00    0.0000000000E+00    0.0000000000E+00    0.0000000000E+00
    0.0000000000E+00    0.0000000000E+00    0.0000000000E+00    0.0000000000E+00
   -4.9491300403E-01    0.0000000000E+00    0.0000000000E+00    0.0000000000E+00
    0.0000000000E+00    0.0000000000E+00    0.0000000000E+00    0.0000000000E+00
    0.0000000000E+00    0.0000000000E+00    0.0000000000E+00   -5.0818963356E-01
    0.0000000000E+00    0.0000000000E+00    0.0000000000E+00    0.0000000000E+00
    0.0000000000E+00    0.0000000000E+00    0.0000000000E+00    0.0000000000E+00
    0.0000000000E+00    0.0000000000E+00   -4.2739964007E+00    0.0000000000E+00
    0.0000000000E+00    0.0000000000E+00    0.0000000000E+00    0.0000000000E+00
    0.0000000000E+00    0.0000000000E+00    0.0000000000E+00    0.0000000000E+00
    0.0000000000E+00   -4.2633347319E+00    0.0000000000E+00    0.0000000000E+00
    0.0000000000E+00    0.0000000000E+00    0.0000000000E+00    0.0000000000E+00
    0.0000000000E+00    0.0000000000E+00    0.0000000000E+00    0.0000000000E+00
   -2.1393174752E+00    0.0000000000E+00    0.0000000000E+00    0.0000000000E+00
    0.0000000000E+00    0.0000000000E+00    0.0000000000E+00    0.0000000000E+00
    0.0000000000E+00    0.0000000000E+00    0.0000000000E+00   -2.1360837739E+00
   </PP_DIJ>
 </PP_NONLOCAL>
 <PP_PSWFC>
   <PP_CHI.1
       type="real"
       size="1650"
       columns="4"
       index="1"
       occupation=" 2.000"
       pseudo_energy="   -0.4044709360E+01"
       label="3S"
       l="0" >
   -2.9778957078E-13    1.7217529831E-02    3.4429618387E-02    5.1630825306E-02
    6.8815712063E-02    8.5978842902E-02    1.0311478578E-01    1.2021811335E-01
    1.3728340392E-01    1.5430524256E-01    1.7127822207E-01    1.8819694418E-01
    2.0505602063E-01    2.2185007445E-01    2.3857374116E-01    2.5522167014E-01
    2.7178852599E-01    2.8826899000E-01    3.0465776166E-01    3.2094956028E-01
    3.3713912663E-01    3.5322122475E-01    3.6919064372E-01    3.8504219960E-01
    4.0077073745E-01    4.1637113338E-01    4.3183829672E-01    4.4716717230E-01
    4.6235274274E-01    4.7739003091E-01    4.9227410239E-01    5.0700006809E-01
    5.2156308688E-01    5.3595836834E-01    5.5018117559E-01    5.6422682811E-01
    5.7809070477E-01    5.9176824679E-01    6.0525496081E-01    6.1854642206E-01
    6.3163827750E-01    6.4452624904E-01    6.5720613686E-01    6.6967382262E-01
    6.8192527287E-01    6.9395654233E-01    7.0576377729E-01    7.1734321897E-01
    7.2869120689E-01    7.3980418225E-01    7.5067869124E-01    7.6131138844E-01
    7.7169904006E-01    7.8183852725E-01    7.9172684930E-01    8.0136112682E-01
    8.1073860489E-01    8.1985665604E-01    8.2871278328E-01    8.3730462297E-01
    8.4562994761E-01    8.5368666859E-01    8.6147283871E-01    8.6898665473E-01
    8.7622645972E-01    8.8319074530E-01    8.8987815372E-01    8.9628747986E-01
    9.0241767306E-01    9.0826783873E-01    9.1383723992E-01    9.1912529866E-01
    9.2413159710E-01    9.2885587855E-01    9.3329804831E-01    9.3745817430E-01
    9.4133648754E-01    9.4493338240E-01    9.4824941671E-01    9.5128531165E-01
    9.5404195140E-01    9.5652038271E-01    9.5872181412E-01    9.6064761512E-01
    9.6229931504E-01    9.6367860173E-01    9.6478732006E-01    9.6562747028E-01
    9.6620120606E-01    9.6651083246E-01    9.6655880365E-01    9.6634772042E-01
    9.6588032756E-01    9.6515951102E-01    9.6418829493E-01    9.6296983838E-01
    9.6150743211E-01    9.5980449499E-01    9.5786457035E-01    9.5569132218E-01
    9.5328853116E-01    9.5066009057E-01    9.4781000204E-01    9.4474237122E-01
    9.4146140331E-01    9.3797139846E-01    9.3427674713E-01    9.3038192526E-01
    9.2629148948E-01    9.2201007210E-01    9.1754237620E-01    9.1289317048E-01
    9.0806728420E-01    9.0306960204E-01    8.9790505885E-01    8.9257863450E-01
    8.8709534865E-01    8.8146025549E-01    8.7567843851E-01    8.6975500533E-01
    8.6369508244E-01    8.5750381007E-01    8.5118633706E-01    8.4474781574E-01
    8.3819339692E-01    8.3152822491E-01    8.2475743261E-01    8.1788613668E-01
    8.1091943281E-01    8.0386239104E-01    7.9672005122E-01    7.8949741854E-01
    7.8219945920E-01    7.7483109617E-01    7.6739720508E-01    7.5990261025E-01
    7.5235208084E-01    7.4475032710E-01    7.3710199689E-01    7.2941167214E-01
    7.2168386567E-01    7.1392301800E-01    7.0613349441E-01    6.9831958213E-01
    6.9048548765E-01    6.8263533428E-01    6.7477315976E-01    6.6690291414E-01
    6.5902845775E-01    6.5115355937E-01    6.4328189454E-01    6.3541704409E-01
    6.2756249272E-01    6.1972162788E-01    6.1189773872E-01    6.0409401523E-01
    5.9631354749E-01    5.8855932519E-01    5.8083423718E-01    5.7314107121E-01
    5.6548251385E-01    5.5786115053E-01    5.5027946568E-01    5.4273984311E-01
    5.3524456637E-01    5.2779581940E-01    5.2039568717E-01    5.1304615655E-01
    5.0574911717E-01    4.9850636253E-01    4.9131959110E-01    4.8419040758E-01
    4.7712032423E-01    4.7011076232E-01    4.6316305361E-01    4.5627844198E-01
    4.4945808505E-01    4.4270305595E-01    4.3601434512E-01    4.2939286215E-01
    4.2283943767E-01    4.1635482536E-01    4.0993970390E-01    4.0359467904E-01
    3.9732028563E-01    3.9111698975E-01    3.8498519085E-01    3.7892522380E-01
    3.7293736114E-01    3.6702181517E-01    3.6117874015E-01    3.5540823446E-01
    3.4971034272E-01    3.4408505800E-01    3.3853232393E-01    3.3305203680E-01
    3.2764404774E-01    3.2230816472E-01    3.1704415465E-01    3.1185174542E-01
    3.0673062788E-01    3.0168045782E-01    2.9670085787E-01    2.9179141946E-01
    2.8695170459E-01    2.8218124770E-01    2.7747955741E-01    2.7284611826E-01
    2.6828039237E-01    2.6378182107E-01    2.5934982648E-01    2.5498381305E-01
    2.5068316902E-01    2.4644726787E-01    2.4227546968E-01    2.3816712245E-01
    2.3412156340E-01    2.3013812017E-01    2.2621611199E-01    2.2235485081E-01
    2.1855364235E-01    2.1481178716E-01    2.1112858151E-01    2.0750331840E-01
    2.0393528834E-01    2.0042378023E-01    1.9696808212E-01    1.9356748192E-01
    1.9022126808E-01    1.8692873025E-01    1.8368915987E-01    1.8050185068E-01
    1.7736609929E-01    1.7428120559E-01    1.7124647322E-01    1.6826120995E-01
    1.6532472802E-01    1.6243634447E-01    1.5959538142E-01    1.5680116634E-01
    1.5405303226E-01    1.5135031798E-01    1.4869236823E-01    1.4607853380E-01
    1.4350817153E-01    1.4098064448E-01    1.3849532187E-01    1.3605157914E-01
    1.3364879788E-01    1.3128636584E-01    1.2896367683E-01    1.2668013063E-01
    1.2443513305E-01    1.2222809595E-01    1.2005843751E-01    1.1792558227E-01
    1.1582896118E-01    1.1376801167E-01    1.1174217768E-01    1.0975090970E-01
    1.0779366483E-01    1.0586990679E-01    1.0397910595E-01    1.0212073932E-01
    1.0029429060E-01    9.8499250151E-02    9.6735115007E-02    9.5001388858E-02
    9.3297582040E-02    9.1623211516E-02    8.9977800850E-02    8.8360880178E-02
    8.6771986180E-02    8.5210662036E-02    8.3676457390E-02    8.2168928309E-02
    8.0687637228E-02    7.9232152907E-02    7.7802050379E-02    7.6396910890E-02
    7.5016321849E-02    7.3659876766E-02    7.2327175191E-02    7.1017822657E-02
    6.9731430614E-02    6.8467616364E-02    6.7226003001E-02    6.6006219343E-02
    6.4807899866E-02    6.3630684637E-02    6.2474219251E-02    6.1338154758E-02
    6.0222147600E-02    5.9125859546E-02    5.8048957618E-02    5.6991114028E-02
    5.5952006113E-02    5.4931316264E-02    5.3928731863E-02    5.2943945213E-02
    5.1976653477E-02    5.1026558608E-02    5.0093367289E-02    4.9176790862E-02
    4.8276545271E-02    4.7392350992E-02    4.6523932976E-02    4.5671020582E-02
    4.4833347515E-02    4.4010651770E-02    4.3202675565E-02    4.2409165285E-02
    4.1629871418E-02    4.0864548502E-02    4.0112955062E-02    3.9374853555E-02
    3.8650010309E-02    3.7938195472E-02    3.7239182952E-02    3.6552750364E-02
    3.5878678971E-02    3.5216753639E-02    3.4566762773E-02    3.3928498272E-02
    3.3301755473E-02    3.2686333101E-02    3.2082033217E-02    3.1488661171E-02
    3.0906025546E-02    3.0333938115E-02    2.9772213790E-02    2.9220670573E-02
    2.8679129512E-02    2.8147414651E-02    2.7625352986E-02    2.7112774419E-02
    2.6609511713E-02    2.6115400447E-02    2.5630278973E-02    2.5153988373E-02
    2.4686372418E-02    2.4227277520E-02    2.3776552700E-02    2.3334049536E-02
    2.2899622133E-02    2.2473127076E-02    2.2054423395E-02    2.1643372523E-02
    2.1239838259E-02    2.0843686733E-02    2.0454786364E-02    2.0073007826E-02
    1.9698224014E-02    1.9330310004E-02    1.8969143019E-02    1.8614602398E-02
    1.8266569557E-02    1.7924927957E-02    1.7589563074E-02    1.7260362361E-02
    1.6937215218E-02    1.6620012964E-02    1.6308648799E-02    1.6003017777E-02
    1.5703016776E-02    1.5408544467E-02    1.5119501284E-02    1.4835789396E-02
    1.4557312677E-02    1.4283976680E-02    1.4015688607E-02    1.3752357283E-02
    1.3493893129E-02    1.3240208134E-02    1.2991215831E-02    1.2746831269E-02
    1.2506970990E-02    1.2271553002E-02    1.2040496755E-02    1.1813723118E-02
    1.1591154353E-02    1.1372714095E-02    1.1158327323E-02    1.0947920344E-02
    1.0741420766E-02    1.0538757478E-02    1.0339860627E-02    1.0144661598E-02
    9.9530929930E-03    9.7650886082E-03    9.5805834159E-03    9.3995135436E-03
    9.2218162542E-03    9.0474299269E-03    8.8762940378E-03    8.7083491412E-03
    8.5435368513E-03    8.3817998238E-03    8.2230817378E-03    8.0673272789E-03
    7.9144821209E-03    7.7644929097E-03    7.6173072457E-03    7.4728736678E-03
    7.3311416372E-03    7.1920615212E-03    7.0555845774E-03    6.9216629387E-03
    6.7902495976E-03    6.6612983916E-03    6.5347639885E-03    6.4106018715E-03
    6.2887683256E-03    6.1692204233E-03    6.0519160108E-03    5.9368136945E-03
    5.8238728280E-03    5.7130534985E-03    5.6043165144E-03    5.4976233925E-03
    5.3929363453E-03    5.2902182695E-03    5.1894327330E-03    5.0905439640E-03
    4.9935168387E-03    4.8983168703E-03    4.8049101975E-03    4.7132635739E-03
    4.6233443564E-03    4.5351204953E-03    4.4485605234E-03    4.3636335457E-03
    4.2803092294E-03    4.1985577939E-03    4.1183500010E-03    4.0396571451E-03
    3.9624510442E-03    3.8867040301E-03    3.8123889395E-03    3.7394791049E-03
    3.6679483462E-03    3.5977709613E-03    3.5289217183E-03    3.4613758463E-03
    3.3951090283E-03    3.3300973918E-03    3.2663175021E-03    3.2037463533E-03
    3.1423613617E-03    3.0821403575E-03    3.0230615777E-03    2.9651036588E-03
    2.9082456294E-03    2.8524669036E-03    2.7977472738E-03    2.7440669038E-03
    2.6914063223E-03    2.6397464165E-03    2.5890684253E-03    2.5393539331E-03
    2.4905848638E-03    2.4427434743E-03    2.3958123489E-03    2.3497743930E-03
    2.3046128277E-03    2.2603111836E-03    2.2168532959E-03    2.1742232982E-03
    2.1324056176E-03    2.0913849691E-03    2.0511463505E-03    2.0116750373E-03
    1.9729565777E-03    1.9349767876E-03    1.8977217455E-03    1.8611777885E-03
    1.8253315065E-03    1.7901697387E-03    1.7556795682E-03    1.7218483182E-03
    1.6886635473E-03    1.6561130451E-03    1.6241848286E-03    1.5928671372E-03
    1.5621484294E-03    1.5320173784E-03    1.5024628682E-03    1.4734739901E-03
    1.4450400383E-03    1.4171505069E-03    1.3897950856E-03    1.3629636567E-03
    1.3366462912E-03    1.3108332453E-03    1.2855149573E-03    1.2606820442E-03
    1.2363252983E-03    1.2124356839E-03    1.1890043346E-03    1.1660225495E-03
    1.1434817908E-03    1.1213736805E-03    1.0996899975E-03    1.0784226748E-03
    1.0575637965E-03    1.0371055952E-03    1.0170404491E-03    9.9736087953E-04
    9.7805954806E-04    9.5912925414E-04    9.4056293246E-04    9.2235365043E-04
    9.0449460578E-04    8.8697912415E-04    8.6980065671E-04    8.5295277784E-04
    8.3642918287E-04    8.2022368583E-04    8.0433021726E-04    7.8874282205E-04
    7.7345565735E-04    7.5846299043E-04    7.4375919670E-04    7.2933875768E-04
    7.1519625902E-04    7.0132638859E-04    6.8772393459E-04    6.7438378365E-04
    6.6130091903E-04    6.4847041882E-04    6.3588745417E-04    6.2354728757E-04
    6.1144527113E-04    5.9957684495E-04    5.8793753542E-04    5.7652295369E-04
    5.6532879401E-04    5.5435083226E-04    5.4358492435E-04    5.3302700479E-04
    5.2267308518E-04    5.1251925279E-04    5.0256166915E-04    4.9279656865E-04
    4.8322025718E-04    4.7382911080E-04    4.6461957441E-04    4.5558816050E-04
    4.4673144783E-04    4.3804608021E-04    4.2952876533E-04    4.2117627347E-04
    4.1298543640E-04    4.0495314620E-04    3.9707635413E-04    3.8935206950E-04
    3.8177735862E-04    3.7434934370E-04    3.6706520180E-04    3.5992216380E-04
    3.5291751340E-04    3.4604858612E-04    3.3931276832E-04    3.3270749623E-04
    3.2623025504E-04    3.1987857797E-04    3.1365004533E-04    3.0754228368E-04
    3.0155296493E-04    2.9567980549E-04    2.8992056543E-04    2.8427304765E-04
    2.7873509709E-04    2.7330459990E-04    2.6797948272E-04    2.6275771183E-04
    2.5763729248E-04    2.5261626811E-04    2.4769271964E-04    2.4286476475E-04
    2.3813055720E-04    2.3348828613E-04    2.2893617540E-04    2.2447248292E-04
    2.2009550003E-04    2.1580355084E-04    2.1159499161E-04    2.0746821016E-04
    2.0342162523E-04    1.9945368596E-04    1.9556287123E-04    1.9174768917E-04
    1.8800667655E-04    1.8433839827E-04    1.8074144680E-04    1.7721444167E-04
    1.7375602896E-04    1.7036488076E-04    1.6703969474E-04    1.6377919358E-04
    1.6058212457E-04    1.5744725910E-04    1.5437339219E-04    1.5135934208E-04
    1.4840394975E-04    1.4550607851E-04    1.4266461356E-04    1.3987846157E-04
    1.3714655030E-04    1.3446782814E-04    1.3184126377E-04    1.2926584576E-04
    1.2674058216E-04    1.2426450016E-04    1.2183664572E-04    1.1945608319E-04
    1.1712189498E-04    1.1483318120E-04    1.1258905935E-04    1.1038866394E-04
    1.0823114619E-04    1.0611567373E-04    1.0404143025E-04    1.0200761519E-04
    1.0001344350E-04    9.8058145251E-05    9.6140965419E-05    9.4261163562E-05
    9.2418013551E-05    9.0610803297E-05    8.8838834475E-05    8.7101422266E-05
    8.5397895094E-05    8.3727594373E-05    8.2089874258E-05    8.0484101398E-05
    7.8909654700E-05    7.7365925087E-05    7.5852315275E-05    7.4368239539E-05
    7.2913123494E-05    7.1486403877E-05    7.0087528334E-05    6.8715955207E-05
    6.7371153330E-05    6.6052601826E-05    6.4759789912E-05    6.3492216700E-05
    6.2249391011E-05    6.1030831182E-05    5.9836064891E-05    5.8664628970E-05
    5.7516069229E-05    5.6389940289E-05    5.5285805404E-05    5.4203236301E-05
    5.3141813013E-05    5.2101123721E-05    5.1080764593E-05    5.0080339635E-05
    4.9099460536E-05    4.8137746521E-05    4.7194824207E-05    4.6270327456E-05
    4.5363897240E-05    4.4475181501E-05    4.3603835015E-05    4.2749519264E-05
    4.1911902304E-05    4.1090658637E-05    4.0285469088E-05    3.9496020684E-05
    3.8722006529E-05    3.7963125693E-05    3.7219083092E-05    3.6489589378E-05
    3.5774360824E-05    3.5073119220E-05    3.4385591763E-05    3.3711510953E-05
    3.3050614493E-05    3.2402645183E-05    3.1767350825E-05    3.1144484128E-05
    3.0533802608E-05    2.9935068498E-05    2.9348048656E-05    2.8772514475E-05
    2.8208241798E-05    2.7655010825E-05    2.7112606036E-05    2.6580816106E-05
    2.6059433819E-05    2.5548255995E-05    2.5047083407E-05    2.4555720707E-05
    2.4073976351E-05    2.3601662521E-05    2.3138595060E-05    2.2684593392E-05
    2.2239480462E-05    2.1803082659E-05    2.1375229758E-05    2.0955754844E-05
    2.0544494258E-05    2.0141287526E-05    1.9745977302E-05    1.9358409305E-05
    1.8978432260E-05    1.8605897840E-05    1.8240660607E-05    1.7882577959E-05
    1.7531510073E-05    1.7187319851E-05    1.6849872867E-05    1.6519037315E-05
    1.6194683960E-05    1.5876686085E-05    1.5564919445E-05    1.5259262216E-05
    1.4959594952E-05    1.4665800533E-05    1.4377764126E-05    1.4095373135E-05
    1.3818517163E-05    1.3547087964E-05    1.3280979405E-05    1.3020087422E-05
    1.2764309983E-05    1.2513547045E-05    1.2267700518E-05    1.2026674226E-05
    1.1790373869E-05    1.1558706988E-05    1.1331582928E-05    1.1108912804E-05
    1.0890609465E-05    1.0676587462E-05    1.0466763012E-05    1.0261053971E-05
    1.0059379796E-05    9.8616615174E-06    9.6678217073E-06    9.4777844498E-06
    9.2914753113E-06    9.1088213118E-06    8.9297508966E-06    8.7541939084E-06
    8.5820815602E-06    8.4133464085E-06    8.2479223271E-06    8.0857444820E-06
    7.9267493052E-06    7.7708744709E-06    7.6180588710E-06    7.4682425912E-06
    7.3213668880E-06    7.1773741657E-06    7.0362079543E-06    6.8978128872E-06
    6.7621346799E-06    6.6291201088E-06    6.4987169907E-06    6.3708741623E-06
    6.2455414605E-06    6.1226697028E-06    6.0022106681E-06    5.8841170781E-06
    5.7683425788E-06    5.6548417228E-06    5.5435699510E-06    5.4344835757E-06
    5.3275397637E-06    5.2226965192E-06    5.1199126680E-06    5.0191478410E-06
    4.9203624587E-06    4.8235177157E-06    4.7285755659E-06    4.6354987073E-06
    4.5442505677E-06    4.4547952902E-06    4.3670977196E-06    4.2811233885E-06
    4.1968385040E-06    4.1142099343E-06    4.0332051959E-06    3.9537924411E-06
    3.8759404454E-06    3.7996185955E-06    3.7247968771E-06    3.6514458635E-06
    3.5795367039E-06    3.5090411124E-06    3.4399313566E-06    3.3721802471E-06
    3.3057611269E-06    3.2406478607E-06    3.1768148252E-06    3.1142368984E-06
    3.0528894506E-06    2.9927483342E-06    2.9337898745E-06    2.8759908605E-06
    2.8193285357E-06    2.7637805893E-06    2.7093251476E-06    2.6559407652E-06
    2.6036064170E-06    2.5523014894E-06    2.5020057729E-06    2.4526994538E-06
    2.4043631067E-06    2.3569776868E-06    2.3105245222E-06    2.2649853071E-06
    2.2203420944E-06    2.1765772885E-06    2.1336736389E-06    2.0916142330E-06
    2.0503824896E-06    2.0099621526E-06    1.9703372846E-06    1.9314922604E-06
    1.8934117612E-06    1.8560807685E-06    1.8194845582E-06    1.7836086948E-06
    1.7484390259E-06    1.7139616765E-06    1.6801630438E-06    1.6470297916E-06
    1.6145488452E-06    1.5827073864E-06    1.5514928482E-06    1.5208929103E-06
    1.4908954938E-06    1.4614887568E-06    1.4326610897E-06    1.4044011106E-06
    1.3766976609E-06    1.3495398008E-06    1.3229168051E-06    1.2968181592E-06
    1.2712335546E-06    1.2461528851E-06    1.2215662429E-06    1.1974639145E-06
    1.1738363769E-06    1.1506742943E-06    1.1279685137E-06    1.1057100621E-06
    1.0838901424E-06    1.0625001301E-06    1.0415315702E-06    1.0209761735E-06
    1.0008258136E-06    9.8107252343E-07    9.6170849260E-07    9.4272606387E-07
    9.2411773036E-07    9.0587613263E-07    8.8799405568E-07    8.7046442621E-07
    8.5328030980E-07    8.3643490818E-07    8.1992155663E-07    8.0373372129E-07
    7.8786499661E-07    7.7230910286E-07    7.5705988363E-07    7.4211130346E-07
    7.2745744543E-07    7.1309250886E-07    6.9901080700E-07    6.8520676481E-07
    6.7167491680E-07    6.5840990487E-07    6.4540647616E-07    6.3265948104E-07
    6.2016387105E-07    6.0791469695E-07    5.9590710675E-07    5.8413634381E-07
    5.7259774497E-07    5.6128673871E-07    5.5019884335E-07    5.3932966533E-07
    5.2867489743E-07    5.1823031708E-07    5.0799178473E-07    4.9795524220E-07
    4.8811671110E-07    4.7847229124E-07    4.6901815913E-07    4.5975056642E-07
    4.5066583848E-07    4.4176037295E-07    4.3303063828E-07    4.2447317238E-07
    4.1608458124E-07    4.0786153759E-07    3.9980077960E-07    3.9189910960E-07
    3.8415339281E-07    3.7656055611E-07    3.6911758682E-07    3.6182153153E-07
    3.5466949492E-07    3.4765863863E-07    3.4078618016E-07    3.3404939172E-07
    3.2744559921E-07    3.2097218114E-07    3.1462656759E-07    3.0840623922E-07
    3.0230872627E-07    2.9633160758E-07    2.9047250961E-07    2.8472910556E-07
    2.7909911443E-07    2.7358030009E-07    2.6817047044E-07    2.6286747650E-07
    2.5766921163E-07    2.5257361064E-07    2.4757864898E-07    2.4268234198E-07
    2.3788274404E-07    2.3317794783E-07    2.2856608362E-07    2.2404531847E-07
    2.1961385554E-07    2.1526993335E-07    2.1101182512E-07    2.0683783809E-07
    2.0274631280E-07    1.9873562252E-07    1.9480417251E-07    1.9095039946E-07
    1.8717277086E-07    1.8346978436E-07    1.7983996722E-07    1.7628187573E-07
    1.7279409457E-07    1.6937523635E-07    1.6602394097E-07    1.6273887516E-07
    1.5951873191E-07    1.5636222994E-07    1.5326811326E-07    1.5023515057E-07
    1.4726213487E-07    1.4434788295E-07    1.4149123490E-07    1.3869105366E-07
    1.3594622461E-07    1.3325565506E-07    1.3061827389E-07    1.2803303107E-07
    1.2549889727E-07    1.2301486346E-07    1.2057994049E-07    1.1819315870E-07
    1.1585356757E-07    1.1356023530E-07    1.1131224847E-07    1.0910871167E-07
    1.0694874712E-07    1.0483149437E-07    1.0275610993E-07    1.0072176696E-07
    9.8727654897E-08    9.6772979171E-08    9.4856960885E-08    9.2978836498E-08
    9.1137857534E-08    8.9333290275E-08    8.7564415474E-08    8.5830528070E-08
    8.4130936908E-08    8.2464964467E-08    8.0831946594E-08    7.9231232234E-08
    7.7662183176E-08    7.6124173800E-08    7.4616590825E-08    7.3138833075E-08
    7.1690311233E-08    7.0270447611E-08    6.8878675916E-08    6.7514441031E-08
    6.6177198791E-08    6.4866415771E-08    6.3581569074E-08    6.2322146121E-08
    6.1087644446E-08    5.9877571504E-08    5.8691444465E-08    5.7528790033E-08
    5.6389144256E-08    5.5272052335E-08    5.4177068451E-08    5.3103755584E-08
    5.2051685338E-08    5.1020437780E-08    5.0009601264E-08    4.9018772271E-08
    4.8047555250E-08    4.7095562456E-08    4.6162413800E-08    4.5247736702E-08
    4.4351165935E-08    4.3472343487E-08    4.2610918412E-08    4.1766546696E-08
    4.0938891116E-08    4.0127621111E-08    3.9332412650E-08    3.8552948099E-08
    3.7788916096E-08    3.7040011433E-08    3.6305934924E-08    3.5586393298E-08
    3.4881099075E-08    3.4189770455E-08    3.3512131201E-08    3.2847910538E-08
    3.2196843033E-08    3.1558668504E-08    3.0933131906E-08    3.0319983233E-08
    2.9718977420E-08    2.9129874241E-08    2.8552438218E-08    2.7986438525E-08
    2.7431648900E-08    2.6887847550E-08    2.6354817064E-08    2.5832344329E-08
    2.5320220442E-08    2.4818240628E-08    2.4326204162E-08    2.3843914283E-08
    2.3371178121E-08    2.2907806618E-08    2.2453614450E-08    2.2008419957E-08
    2.1572045073E-08    2.1144315249E-08    2.0725059387E-08    2.0314109771E-08
    1.9911302002E-08    1.9516474928E-08    1.9129470586E-08    1.8750134134E-08
    1.8378313793E-08    1.8013860785E-08    1.7656629271E-08    1.7306476298E-08
    1.6963261738E-08    1.6626848236E-08    1.6297101151E-08    1.5973888506E-08
    1.5657080933E-08    1.5346551623E-08    1.5042176272E-08    1.4743833039E-08
    1.4451402490E-08    1.4164767553E-08    1.3883813473E-08    1.3608427762E-08
    1.3338500160E-08    1.3073922585E-08    1.2814589095E-08    1.2560395845E-08
    1.2311241040E-08    1.2067024903E-08    1.1827649627E-08    1.1593019342E-08
    1.1363040074E-08    1.1137619710E-08    1.0916667957E-08    1.0700096311E-08
    1.0487818015E-08    1.0279748032E-08    1.0075803006E-08    9.8759012316E-09
    9.6799626199E-09    9.4879086662E-09    9.2996624193E-09    9.1151484509E-09
    8.9342928246E-09    8.7570230689E-09    8.5832681456E-09    8.4129584225E-09
    8.2460256453E-09    8.0824029107E-09    7.9220246390E-09    7.7648265493E-09
    7.6107456330E-09    7.4597201285E-09    7.3116894967E-09    7.1665943968E-09
    7.0243766623E-09    6.8849792781E-09    6.7483463586E-09    6.6144231242E-09
    6.4831558795E-09    6.3544919924E-09    6.2283798725E-09    6.1047689505E-09
    5.9836096588E-09    5.8648534115E-09    5.7484525841E-09    5.6343604955E-09
    5.5225313885E-09    5.4129204120E-09    5.3054836028E-09    5.2001778686E-09
    5.0969609707E-09    4.9957915064E-09    4.8966288931E-09    4.7994333516E-09
    4.7041658906E-09    4.6107882905E-09    4.5192630898E-09    4.4295535682E-09
    4.3416237328E-09    4.2554383035E-09    4.1709626990E-09    4.0881630228E-09
    4.0070060496E-09    3.9274592130E-09    3.8494905912E-09    3.7730688948E-09
    3.6981634541E-09    3.6247442070E-09    3.5527816867E-09    3.4822470103E-09
    3.4131118674E-09    3.3453485083E-09    3.2789297328E-09    3.2138288798E-09
    3.1500198164E-09    3.0874769270E-09    3.0261751042E-09    2.9660897378E-09
    2.9071967052E-09    2.8494723619E-09    2.7928935317E-09    2.7374374978E-09
    2.6830819929E-09    2.6298051918E-09    2.5775857017E-09    2.5264025534E-09
    2.4762351933E-09    2.4270634752E-09    2.3788676522E-09    2.3316283681E-09
    2.2853266513E-09    2.2399439057E-09    2.1954619038E-09    2.1518627795E-09
    2.1091290205E-09    2.0672434618E-09    2.0261892782E-09    1.9859499788E-09
    1.9465093990E-09    1.9078516949E-09    1.8699613363E-09    1.8328231013E-09
    1.7964220692E-09    1.7607436152E-09    1.7257734049E-09    1.6914973876E-09
    1.6579017914E-09    1.6249731172E-09    1.5926981337E-09    1.5610638717E-09
    1.5300576191E-09    1.4996669161E-09    1.4698795499E-09    1.4406835497E-09
    1.4120671821E-09    1.3840189463E-09    1.3565275695E-09    1.3295820023E-09
    1.3031714148E-09    1.2772851915E-09    1.2519129276E-09    1.2270444245E-09
    1.2026696857E-09    1.1787789133E-09    1.1553625032E-09    1.1324110420E-09
    1.1099153033E-09    1.0878662432E-09    1.0662549974E-09    1.0450728772E-09
    1.0243113665E-09    1.0039621177E-09    9.8401694903E-10    9.6446784105E-10
    9.4530693327E-10    9.2652652110E-10    9.0811905276E-10    8.9007712626E-10
    8.7239348634E-10    8.5506102171E-10    8.3807276225E-10    8.2142187602E-10
    8.0510166658E-10    7.8910557032E-10    7.7342715384E-10    7.5806011131E-10
    7.4299826193E-10    7.2823554774E-10    7.1376603084E-10    6.9958389110E-10
    6.8568342389E-10    6.7205903771E-10    6.5870525201E-10    6.4561669483E-10
    6.3278810103E-10    6.2021430986E-10    6.0789026292E-10    5.9581100216E-10
    5.8397166794E-10    5.7236749699E-10    5.6099382050E-10    5.4984606239E-10
    5.3891973741E-10    5.2821044926E-10    5.1771388887E-10    5.0742583267E-10
    4.9734214090E-10    4.8745875591E-10    4.7777170053E-10    4.6827707667E-10
    4.5897106353E-10    4.4984991610E-10    4.4090996371E-10    4.3214760850E-10
    4.2355932403E-10    4.1514165378E-10    4.0689120992E-10    3.9880467188E-10
    3.9087878492E-10    3.8311035891E-10    3.7549626705E-10    3.6803344457E-10
    3.6071888752E-10    3.5354965153E-10    3.4652285081E-10    3.3963565676E-10
    3.3288529695E-10    3.2626905394E-10    3.1978426426E-10    3.1342831728E-10
    3.0719865413E-10    3.0109276686E-10    2.9510819727E-10    2.8924253592E-10
    2.8349342123E-10    2.7785853847E-10    2.7233561887E-10    2.6692243867E-10
    2.6161681824E-10    2.5641662131E-10    2.5131975399E-10    2.4632416392E-10
    2.4142783951E-10    2.3662880909E-10    2.3192514013E-10    2.2731493844E-10
    2.2279634747E-10    2.1836754758E-10    2.1402675519E-10    2.0977222215E-10
    2.0560223502E-10    2.0151511436E-10    1.9750921410E-10    1.9358292077E-10
    1.8973465307E-10    1.8596286104E-10    1.8226602548E-10    1.7864265737E-10
    1.7509129725E-10    1.7161051463E-10    1.6819890743E-10    1.6485510137E-10
    1.6157774956E-10    1.5836553179E-10    1.5521715408E-10    1.5213134813E-10
    1.4910687085E-10    1.4614250380E-10    1.4323705274E-10    1.4038934717E-10
    1.3759823983E-10    1.3486260626E-10    1.3218134430E-10    1.2955337369E-10
    1.2697763562E-10    1.2445309231E-10    1.2197872656E-10    1.1955354141E-10
    1.1717655971E-10    1.1484682371E-10    1.1256339465E-10    1.1032535244E-10
    1.0813179526E-10    1.0598183920E-10    1.0387461787E-10    1.0180928214E-10
    9.9784999754E-11    9.7800954948E-11    9.5856348178E-11    9.3950395776E-11
    9.2082329641E-11    9.0251396924E-11    8.8456859703E-11    8.6697994778E-11
    8.4974093281E-11    8.3284460427E-11    8.1628415230E-11    8.0005290230E-11
    7.8414431228E-11    7.6855197012E-11    7.5326959093E-11    7.3829101515E-11
    7.2361020531E-11    7.0922124390E-11    6.9511833095E-11    6.8129578170E-11
    6.6774802431E-11    6.5446959761E-11    6.4145514876E-11    6.2869943169E-11
    6.1619730434E-11    6.0394372678E-11    5.9193375923E-11    5.8016256003E-11
    5.6862538371E-11    5.5731757904E-11    5.4623458707E-11    5.3537193981E-11
    5.2472525784E-11    5.1429024874E-11    5.0406270539E-11    4.9403850424E-11
    4.8421360366E-11    4.7458404232E-11    4.6514593743E-11    4.5589548372E-11
    4.4682895136E-11    4.3794268460E-11    4.2923310036E-11    4.2069668673E-11
    4.1233000158E-11    4.0412967116E-11    3.9609238862E-11    3.8821491314E-11
    3.8049406815E-11    3.7292674019E-11    3.6550987767E-11    3.5824048963E-11
    3.5111564456E-11    3.4413246917E-11    3.3728814716E-11    3.3057991842E-11
    3.2400507763E-11    3.1756097320E-11    3.1124500624E-11    3.0505462947E-11
    2.9898734628E-11    2.9304070962E-11    2.8721232103E-11    2.8149982980E-11
    2.7590093197E-11    2.7041336935E-11    2.6503492858E-11    2.5976344031E-11
    2.5459677830E-11    2.4953285856E-11    2.4456963848E-11    2.3970511602E-11
    2.3493732911E-11    2.3026435456E-11    2.2568430741E-11    2.2119534015E-11
    2.1679564201E-11    2.1248343820E-11    2.0825698918E-11    2.0411458991E-11
    2.0005456944E-11    1.9607528993E-11    1.9217514610E-11    1.8835256456E-11
    1.8460600322E-11    1.8093395060E-11    1.7733492529E-11    1.7380747526E-11
    1.7035017742E-11    1.6696163699E-11    1.6364048687E-11    1.6038538716E-11
    1.5719502455E-11    1.5406811186E-11    1.5100338750E-11    1.4799961492E-11
    1.4505558214E-11    1.4217010136E-11    1.3934200836E-11    1.3657016205E-11
    1.3385344401E-11    1.3119075808E-11    1.2858102985E-11    1.2602320630E-11
    1.2351625527E-11    1.2105916522E-11    1.1865094469E-11    1.1629062194E-11
    1.1397724453E-11    1.1170987893E-11    1.0948761021E-11    1.0730954160E-11
    1.0517479414E-11    1.0308250635E-11    1.0103183393E-11    9.9021949354E-12
    9.7052041514E-12    9.5121315443E-12    9.3228991974E-12    9.1374307430E-12
    8.9556513316E-12    8.7774875978E-12    8.6028676408E-12    8.4317209896E-12
    8.2639785724E-12    8.0995726904E-12    7.9384369908E-12    7.7805064399E-12
    7.6257172969E-12    7.4740070881E-12    7.3253145773E-12    7.1795797559E-12
    7.0367438034E-12    6.8967490690E-12    6.7595390477E-12    6.6250583584E-12
    6.4932527207E-12    6.3640689335E-12    6.2374548518E-12    6.1133593681E-12
    5.9917323950E-12    5.8725248386E-12    5.7556885809E-12    5.6411764606E-12
    5.5289422541E-12    5.4189406570E-12    5.3111272654E-12    5.2054585559E-12
    5.1018918745E-12    5.0003854156E-12    4.9008982035E-12    4.8033900771E-12
    4.7078216742E-12    4.6141544149E-12    4.5223504866E-12    4.4323728285E-12
    4.3441851137E-12    4.2577517435E-12    4.1730378250E-12    4.0900091587E-12
    4.0086322251E-12    3.9288741714E-12    3.8507027978E-12    3.7740865449E-12
    3.6989944807E-12    3.6253962858E-12    3.5532622493E-12    3.4825632486E-12
    3.4132707400E-12    3.3453567475E-12    3.2787938514E-12    3.2135551772E-12
    3.1496143848E-12    3.0869456575E-12    3.0255236907E-12    2.9653236872E-12
    2.9063213406E-12    2.8484928281E-12    2.7918148005E-12    2.7362643729E-12
    2.6818191155E-12    2.6284570447E-12    2.5761566133E-12    2.5248967022E-12
    2.4746566152E-12    2.4254160661E-12    2.3771551722E-12    2.3298544460E-12
    2.2834947877E-12    2.2380574772E-12    2.1935241670E-12    2.1498768735E-12
    2.1070979708E-12    2.0651701858E-12    2.0240765876E-12    1.9838005819E-12
    1.9443259046E-12    1.9056366150E-12    1.8677170894E-12    1.8305520148E-12
    1.7941263824E-12    1.7584254813E-12    1.7234348956E-12    1.6891404948E-12
    1.6555284296E-12    1.6225851260E-12    1.5902972799E-12    1.5586518518E-12
    1.5276360617E-12    1.4972373835E-12    1.4674435394E-12    1.4382424980E-12
    1.4096224663E-12    1.3815718858E-12    1.3540794276E-12    1.3271339886E-12
    1.3007246860E-12    1.2748408538E-12    1.2494720381E-12    1.2246079916E-12
    1.2002386733E-12    1.1763542410E-12    1.1529450481E-12    1.1300016398E-12
    1.1075147495E-12    1.0854752948E-12    1.0638743740E-12    1.0427032624E-12
    1.0219534081E-12    1.0016164306E-12    9.8168411612E-13    9.6214841371E-13
    9.4300143272E-13    9.2423543939E-13    9.0584285381E-13    8.8781624683E-13
    8.7014833707E-13    8.5283198751E-13    8.3586020359E-13    8.1922613045E-13
    8.0292304908E-13    7.8694437415E-13    7.7128365129E-13    7.5593455453E-13
    7.4089088372E-13    7.2614656206E-13    7.1169563346E-13    6.9753225994E-13
    6.8365072092E-13    6.7004540895E-13    6.5671082812E-13    6.4364159185E-13
    6.3083242071E-13    6.1827814028E-13    6.0597367906E-13    5.9391406646E-13
    5.8209443015E-13    5.7050999582E-13    5.5915608385E-13    5.4802810757E-13
    5.3712157155E-13    5.2643206977E-13    5.1595528389E-13    5.0568698145E-13
    4.9562301418E-13    4.8575931611E-13    4.7609190224E-13    4.6661686744E-13
    4.5733038388E-13    4.4822869986E-13    4.3930813833E-13    4.3056509540E-13
    4.2199603883E-13    4.1359750669E-13    4.0536610590E-13    3.9729851040E-13
    3.8939146125E-13    3.8164176396E-13    3.7404628758E-13    3.6660196342E-13
    3.5930578382E-13    3.5215480100E-13    3.4514612578E-13    3.3827692648E-13
    3.3154442756E-13    3.2494590879E-13    3.1847870447E-13    3.1214020167E-13
    3.0592783941E-13    2.9983910770E-13    2.9387154645E-13    2.8802274452E-13
    2.8229033876E-13    2.7667201300E-13    2.7116549686E-13    2.6576856567E-13
    2.6047903891E-13    2.5529477936E-13    2.5021369230E-13    2.4523372471E-13
    2.4035286439E-13    2.3556913919E-13    2.3088061618E-13    2.2628540086E-13
    2.2178163619E-13    2.1736750267E-13    2.1304121670E-13    2.0880103018E-13
    2.0464522977E-13    2.0057213622E-13    1.9658010371E-13    1.9266751913E-13
    1.8883280150E-13    1.8507440115E-13    1.8139079931E-13    1.7778050769E-13
    1.7424206744E-13    1.7077404873E-13    1.6737505016E-13    1.6404369825E-13
    1.6077864681E-13    1.5757857646E-13    1.5444219404E-13    1.5136823200E-13
    1.4835544821E-13    1.4540262530E-13    1.4250857005E-13    1.3967211296E-13
    1.3689210780E-13    1.3416743116E-13    1.3149698197E-13    1.2887968106E-13
    1.2631447075E-13    1.2380031422E-13
   </PP_CHI.1>
   <PP_CHI.2
       type="real"
       size="1650"
       columns="4"
       index="2"
       occupation=" 4.000"
       pseudo_energy="   -0.2458517245E+01"
       label="3P"
       l="1" >
    2.3498980539E-12    2.6970101953E-04    1.0784648359E-03    2.4252742825E-03
    4.3084359538E-03    6.7255830108E-03    9.6736790989E-03    1.3149023374E-02
    1.7147256620E-02    2.1663368454E-02    2.6691705598E-02    3.2225981194E-02
    3.8259285167E-02    4.4784095579E-02    5.1792290989E-02    5.9275163759E-02
    6.7223434303E-02    7.5627266243E-02    8.4476282434E-02    9.3759581831E-02
    1.0346575717E-01    1.1358291342E-01    1.2409868696E-01    1.3500026546E-01
    1.4627440841E-01    1.5790746830E-01    1.6988541229E-01    1.8219384452E-01
    1.9481802880E-01    2.0774291183E-01    2.2095314672E-01    2.3443311695E-01
    2.4816696058E-01    2.6213859472E-01    2.7633174021E-01    2.9072994648E-01
    3.0531661648E-01    3.2007503169E-01    3.3498837721E-01    3.5003976670E-01
    3.6521226732E-01    3.8048892459E-01    3.9585278694E-01    4.1128693020E-01
    4.2677448175E-01    4.4229864435E-01    4.5784271972E-01    4.7339013162E-01
    4.8892444861E-01    5.0442940626E-01    5.1988892892E-01    5.3528715095E-01
    5.5060843733E-01    5.6583740369E-01    5.8095893575E-01    5.9595820803E-01
    6.1082070188E-01    6.2553222281E-01    6.4007891707E-01    6.5444728744E-01
    6.6862420825E-01    6.8259693959E-01    6.9635314067E-01    7.0988088241E-01
    7.2316865906E-01    7.3620539905E-01    7.4898047493E-01    7.6148371244E-01
    7.7370539866E-01    7.8563628932E-01    7.9726761514E-01    8.0859108737E-01
    8.1959890237E-01    8.3028374532E-01    8.4063879310E-01    8.5065771616E-01
    8.6033467973E-01    8.6966434396E-01    8.7864186340E-01    8.8726288556E-01
    8.9552354866E-01    9.0342047863E-01    9.1095078529E-01    9.1811205785E-01
    9.2490235958E-01    9.3132022185E-01    9.3736463744E-01    9.4303505325E-01
    9.4833136226E-01    9.5325389504E-01    9.5780341053E-01    9.6198108639E-01
    9.6578850875E-01    9.6922766149E-01    9.7230091509E-01    9.7501101501E-01
    9.7736106968E-01    9.7935453814E-01    9.8099521734E-01    9.8228722910E-01
    9.8323500686E-01    9.8384328214E-01    9.8411707082E-01    9.8406165921E-01
    9.8368259002E-01    9.8298564819E-01    9.8197684663E-01    9.8066241189E-01
    9.7904876990E-01    9.7714253157E-01    9.7495047854E-01    9.7247954894E-01
    9.6973682324E-01    9.6672951024E-01    9.6346493316E-01    9.5995051594E-01
    9.5619376967E-01    9.5220227929E-01    9.4798369047E-01    9.4354569680E-01
    9.3889602718E-01    9.3404243355E-01    9.2899267895E-01    9.2375452579E-01
    9.1833572460E-01    9.1274400306E-01    9.0698705538E-01    9.0107253208E-01
    8.9500803017E-01    8.8880108370E-01    8.8245915473E-01    8.7598962473E-01
    8.6939978631E-01    8.6269683550E-01    8.5588786436E-01    8.4897985401E-01
    8.4197966821E-01    8.3489404719E-01    8.2772960202E-01    8.2049280942E-01
    8.1319000690E-01    8.0582738838E-01    7.9841100026E-01    7.9094673781E-01
    7.8344034202E-01    7.7589739684E-01    7.6832332681E-01    7.6072339504E-01
    7.5310270163E-01    7.4546618237E-01    7.3781860785E-01    7.3016458289E-01
    7.2250854631E-01    7.1485477100E-01    7.0720736434E-01    6.9957026884E-01
    6.9194726316E-01    6.8434196332E-01    6.7675782420E-01    6.6919814130E-01
    6.6166605267E-01    6.5416454115E-01    6.4669643672E-01    6.3926441913E-01
    6.3187102060E-01    6.2451862879E-01    6.1720948985E-01    6.0994571167E-01
    6.0272926715E-01    5.9556199771E-01    5.8844561679E-01    5.8138171352E-01
    5.7437175639E-01    5.6741709704E-01    5.6051897408E-01    5.5367851694E-01
    5.4689674977E-01    5.4017459532E-01    5.3351287887E-01    5.2691233217E-01
    5.2037359730E-01    5.1389723057E-01    5.0748370637E-01    5.0113342101E-01
    4.9484669644E-01    4.8862378406E-01    4.8246486831E-01    4.7637007030E-01
    4.7033945137E-01    4.6437301650E-01    4.5847071773E-01    4.5263245745E-01
    4.4685809158E-01    4.4114743272E-01    4.3550025317E-01    4.2991628783E-01
    4.2439523705E-01    4.1893676934E-01    4.1354052400E-01    4.0820611361E-01
    4.0293312651E-01    3.9772112901E-01    3.9256966767E-01    3.8747827135E-01
    3.8244645323E-01    3.7747371267E-01    3.7255953700E-01    3.6770340322E-01
    3.6290477955E-01    3.5816312693E-01    3.5347790041E-01    3.4884855043E-01
    3.4427452404E-01    3.3975526596E-01    3.3529021968E-01    3.3087882833E-01
    3.2652053558E-01    3.2221478641E-01    3.1796102781E-01    3.1375870942E-01
    3.0960728410E-01    3.0550620841E-01    3.0145494310E-01    2.9745295341E-01
    2.9349970949E-01    2.8959468659E-01    2.8573736534E-01    2.8192723190E-01
    2.7816377813E-01    2.7444650164E-01    2.7077490591E-01    2.6714850028E-01
    2.6356679996E-01    2.6002932602E-01    2.5653560533E-01    2.5308517047E-01
    2.4967755970E-01    2.4631231676E-01    2.4298899084E-01    2.3970713640E-01
    2.3646631303E-01    2.3326608531E-01    2.3010602267E-01    2.2698569918E-01
    2.2390469345E-01    2.2086258841E-01    2.1785897119E-01    2.1489343290E-01
    2.1196556849E-01    2.0907497661E-01    2.0622125940E-01    2.0340402225E-01
    2.0062287317E-01    1.9787742178E-01    1.9516727838E-01    1.9249205452E-01
    1.8985136322E-01    1.8724481902E-01    1.8467203814E-01    1.8213263866E-01
    1.7962624063E-01    1.7715246622E-01    1.7471093980E-01    1.7230128813E-01
    1.6992314040E-01    1.6757612834E-01    1.6525988634E-01    1.6297405150E-01
    1.6071826372E-01    1.5849216577E-01    1.5629540335E-01    1.5412762511E-01
    1.5198848278E-01    1.4987763111E-01    1.4779472798E-01    1.4573943442E-01
    1.4371141460E-01    1.4171033588E-01    1.3973586884E-01    1.3778768724E-01
    1.3586546809E-01    1.3396889162E-01    1.3209764130E-01    1.3025140381E-01
    1.2842986906E-01    1.2663273021E-01    1.2485968360E-01    1.2311042880E-01
    1.2138466854E-01    1.1968210875E-01    1.1800245852E-01    1.1634543010E-01
    1.1471073885E-01    1.1309810324E-01    1.1150724485E-01    1.0993788833E-01
    1.0838976137E-01    1.0686259471E-01    1.0535612206E-01    1.0387008017E-01
    1.0240420871E-01    1.0095825032E-01    9.9531950531E-02    9.8125057790E-02
    9.6737323401E-02    9.5368501519E-02    9.4018349118E-02    9.2686625970E-02
    9.1373094620E-02    9.0077520363E-02    8.8799671216E-02    8.7539317897E-02
    8.6296233800E-02    8.5070194967E-02    8.3860980071E-02    8.2668370385E-02
    8.1492149758E-02    8.0332104598E-02    7.9188023837E-02    7.8059698917E-02
    7.6946923759E-02    7.5849494743E-02    7.4767210683E-02    7.3699872802E-02
    7.2647284711E-02    7.1609252383E-02    7.0585584131E-02    6.9576090586E-02
    6.8580584671E-02    6.7598881579E-02    6.6630798751E-02    6.5676155852E-02
    6.4734774750E-02    6.3806479491E-02    6.2891096278E-02    6.1988453451E-02
    6.1098381459E-02    6.0220712844E-02    5.9355282215E-02    5.8501926230E-02
    5.7660483570E-02    5.6830794920E-02    5.6012702949E-02    5.5206052286E-02
    5.4410689499E-02    5.3626463079E-02    5.2853223411E-02    5.2090822761E-02
    5.1339115252E-02    5.0597956841E-02    4.9867205307E-02    4.9146720222E-02
    4.8436362937E-02    4.7735996558E-02    4.7045485931E-02    4.6364697620E-02
    4.5693499885E-02    4.5031762671E-02    4.4379357579E-02    4.3736157855E-02
    4.3102038367E-02    4.2476875588E-02    4.1860547577E-02    4.1252933964E-02
    4.0653915925E-02    4.0063376172E-02    3.9481198929E-02    3.8907269918E-02
    3.8341476341E-02    3.7783706861E-02    3.7233851587E-02    3.6691802057E-02
    3.6157451218E-02    3.5630693413E-02    3.5111424362E-02    3.4599541150E-02
    3.4094942203E-02    3.3597527280E-02    3.3107197451E-02    3.2623855086E-02
    3.2147403835E-02    3.1677748616E-02    3.1214795599E-02    3.0758452190E-02
    3.0308627014E-02    2.9865229905E-02    2.9428171888E-02    2.8997365164E-02
    2.8572723099E-02    2.8154160206E-02    2.7741592131E-02    2.7334935643E-02
    2.6934108616E-02    2.6539030016E-02    2.6149619891E-02    2.5765799352E-02
    2.5387490564E-02    2.5014616731E-02    2.4647102083E-02    2.4284871866E-02
    2.3927852325E-02    2.3575970692E-02    2.3229155178E-02    2.2887334955E-02
    2.2550440149E-02    2.2218401824E-02    2.1891151970E-02    2.1568623497E-02
    2.1250750214E-02    2.0937466827E-02    2.0628708920E-02    2.0324412951E-02
    2.0024516232E-02    1.9728956927E-02    1.9437674035E-02    1.9150607382E-02
    1.8867697610E-02    1.8588886165E-02    1.8314115289E-02    1.8043328009E-02
    1.7776468124E-02    1.7513480201E-02    1.7254309560E-02    1.6998902264E-02
    1.6747205113E-02    1.6499165634E-02    1.6254732068E-02    1.6013853362E-02
    1.5776479163E-02    1.5542559805E-02    1.5312046303E-02    1.5084890341E-02
    1.4861044265E-02    1.4640461077E-02    1.4423094419E-02    1.4208898573E-02
    1.3997828447E-02    1.3789839570E-02    1.3584888081E-02    1.3382930723E-02
    1.3183924835E-02    1.2987828343E-02    1.2794599752E-02    1.2604198141E-02
    1.2416583152E-02    1.2231714986E-02    1.2049554393E-02    1.1870062663E-02
    1.1693201626E-02    1.1518933637E-02    1.1347221572E-02    1.1178028823E-02
    1.1011319289E-02    1.0847057369E-02    1.0685207956E-02    1.0525736431E-02
    1.0368608657E-02    1.0213790968E-02    1.0061250171E-02    9.9109535306E-03
    9.7628687699E-03    9.6169640607E-03    9.4732080184E-03    9.3315696965E-03
    9.1920185800E-03    9.0545245802E-03    8.9190580287E-03    8.7855896718E-03
    8.6540906648E-03    8.5245325670E-03    8.3968873355E-03    8.2711273206E-03
    8.1472252601E-03    8.0251542739E-03    7.9048878595E-03    7.7863998862E-03
    7.6696645905E-03    7.5546565712E-03    7.4413507840E-03    7.3297225375E-03
    7.2197474874E-03    7.1114016327E-03    7.0046613108E-03    6.8995031924E-03
    6.7959042779E-03    6.6938418920E-03    6.5932936800E-03    6.4942376031E-03
    6.3966519341E-03    6.3005152535E-03    6.2058064447E-03    6.1125046905E-03
    6.0205894686E-03    5.9300405480E-03    5.8408379844E-03    5.7529621170E-03
    5.6663935640E-03    5.5811132194E-03    5.4971022485E-03    5.4143420848E-03
    5.3328144263E-03    5.2525012314E-03    5.1733847158E-03    5.0954473487E-03
    5.0186718495E-03    4.9430411842E-03    4.8685385622E-03    4.7951474328E-03
    4.7228514819E-03    4.6516346290E-03    4.5814810234E-03    4.5123750418E-03
    4.4443012846E-03    4.3772445729E-03    4.3111899457E-03    4.2461226565E-03
    4.1820281709E-03    4.1188921629E-03    4.0567005128E-03    3.9954393038E-03
    3.9350948194E-03    3.8756535405E-03    3.8171021429E-03    3.7594274943E-03
    3.7026166518E-03    3.6466568592E-03    3.5915355446E-03    3.5372403175E-03
    3.4837589663E-03    3.4310794563E-03    3.3791899266E-03    3.3280786880E-03
    3.2777342205E-03    3.2281451710E-03    3.1793003511E-03    3.1311887343E-03
    3.0837994543E-03    3.0371218024E-03    2.9911452255E-03    2.9458593238E-03
    2.9012538484E-03    2.8573186999E-03    2.8140439254E-03    2.7714197170E-03
    2.7294364098E-03    2.6880844795E-03    2.6473545406E-03    2.6072373447E-03
    2.5677237780E-03    2.5288048600E-03    2.4904717412E-03    2.4527157014E-03
    2.4155281478E-03    2.3789006133E-03    2.3428247546E-03    2.3072923506E-03
    2.2722953004E-03    2.2378256219E-03    2.2038754500E-03    2.1704370346E-03
    2.1375027396E-03    2.1050650408E-03    2.0731165243E-03    2.0416498853E-03
    2.0106579262E-03    1.9801335551E-03    1.9500697845E-03    1.9204597296E-03
    1.8912966068E-03    1.8625737325E-03    1.8342845215E-03    1.8064224855E-03
    1.7789812319E-03    1.7519544622E-03    1.7253359711E-03    1.6991196444E-03
    1.6732994586E-03    1.6478694787E-03    1.6228238576E-03    1.5981568346E-03
    1.5738627340E-03    1.5499359642E-03    1.5263710161E-03    1.5031624622E-03
    1.4803049553E-03    1.4577932275E-03    1.4356220887E-03    1.4137864258E-03
    1.3922812016E-03    1.3711014534E-03    1.3502422921E-03    1.3296989013E-03
    1.3094665359E-03    1.2895405212E-03    1.2699162522E-03    1.2505891920E-03
    1.2315548712E-03    1.2128088869E-03    1.1943469016E-03    1.1761646424E-03
    1.1582578997E-03    1.1406225269E-03    1.1232544388E-03    1.1061496113E-03
    1.0893040800E-03    1.0727139397E-03    1.0563753433E-03    1.0402845012E-03
    1.0244376802E-03    1.0088312027E-03    9.9346144612E-04    9.7832484182E-04
    9.6341787446E-04    9.4873708122E-04    9.3427905094E-04    9.2004042344E-04
    9.0601788876E-04    8.9220818637E-04    8.7860810451E-04    8.6521447944E-04
    8.5202419471E-04    8.3903418054E-04    8.2624141303E-04    8.1364291358E-04
    8.0123574816E-04    7.8901702667E-04    7.7698390230E-04    7.6513357089E-04
    7.5346327028E-04    7.4197027974E-04    7.3065191928E-04    7.1950554912E-04
    7.0852856907E-04    6.9771841792E-04    6.8707257291E-04    6.7658854911E-04
    6.6626389891E-04    6.5609621142E-04    6.4608311197E-04    6.3622226153E-04
    6.2651135624E-04    6.1694812680E-04    6.0753033806E-04    5.9825578842E-04
    5.8912230941E-04    5.8012776514E-04    5.7127005183E-04    5.6254709737E-04
    5.5395686079E-04    5.4549733185E-04    5.3716653055E-04    5.2896250668E-04
    5.2088333940E-04    5.1292713679E-04    5.0509203540E-04    4.9737619986E-04
    4.8977782245E-04    4.8229512267E-04    4.7492634685E-04    4.6766976774E-04
    4.6052368415E-04    4.5348642051E-04    4.4655632651E-04    4.3973177675E-04
    4.3301117030E-04    4.2639293042E-04    4.1987550413E-04    4.1345736188E-04
    4.0713699723E-04    4.0091292642E-04    3.9478368814E-04    3.8874784310E-04
    3.8280397377E-04    3.7695068399E-04    3.7118659871E-04    3.6551036365E-04
    3.5992064496E-04    3.5441612896E-04    3.4899552182E-04    3.4365754925E-04
    3.3840095623E-04    3.3322450669E-04    3.2812698327E-04    3.2310718699E-04
    3.1816393701E-04    3.1329607034E-04    3.0850244159E-04    3.0378192267E-04
    2.9913340258E-04    2.9455578711E-04    2.9004799861E-04    2.8560897573E-04
    2.8123767320E-04    2.7693306153E-04    2.7269412686E-04    2.6851987065E-04
    2.6440930947E-04    2.6036147479E-04    2.5637541276E-04    2.5245018394E-04
    2.4858486314E-04    2.4477853918E-04    2.4103031468E-04    2.3733930586E-04
    2.3370464232E-04    2.3012546684E-04    2.2660093521E-04    2.2313021599E-04
    2.1971249037E-04    2.1634695193E-04    2.1303280647E-04    2.0976927184E-04
    2.0655557775E-04    2.0339096557E-04    2.0027468819E-04    1.9720600983E-04
    1.9418420586E-04    1.9120856263E-04    1.8827837735E-04    1.8539295785E-04
    1.8255162249E-04    1.7975369995E-04    1.7699852910E-04    1.7428545885E-04
    1.7161384799E-04    1.6898306503E-04    1.6639248807E-04    1.6384150464E-04
    1.6132951159E-04    1.5885591491E-04    1.5642012959E-04    1.5402157953E-04
    1.5165969737E-04    1.4933392436E-04    1.4704371023E-04    1.4478851307E-04
    1.4256779920E-04    1.4038104306E-04    1.3822772704E-04    1.3610734143E-04
    1.3401938423E-04    1.3196336109E-04    1.2993878515E-04    1.2794517698E-04
    1.2598206439E-04    1.2404898239E-04    1.2214547307E-04    1.2027108545E-04
    1.1842537542E-04    1.1660790561E-04    1.1481824532E-04    1.1305597037E-04
    1.1132066305E-04    1.0961191199E-04    1.0792931206E-04    1.0627246432E-04
    1.0464097587E-04    1.0303445980E-04    1.0145253509E-04    9.9894826480E-05
    9.8360964456E-05    9.6850585105E-05    9.5363330052E-05    9.3898846375E-05
    9.2456786518E-05    9.1036808215E-05    8.9638574405E-05    8.8261753158E-05
    8.6906017590E-05    8.5571045796E-05    8.4256520765E-05    8.2962130313E-05
    8.1687567006E-05    8.0432528089E-05    7.9196715414E-05    7.7979835372E-05
    7.6781598824E-05    7.5601721032E-05    7.4439921591E-05    7.3295924367E-05
    7.2169457429E-05    7.1060252986E-05    6.9968047327E-05    6.8892580753E-05
    6.7833597521E-05    6.6790845784E-05    6.5764077530E-05    6.4753048523E-05
    6.3757518248E-05    6.2777249853E-05    6.1812010095E-05    6.0861569283E-05
    5.9925701224E-05    5.9004183175E-05    5.8096795783E-05    5.7203323038E-05
    5.6323552221E-05    5.5457273857E-05    5.4604281660E-05    5.3764372490E-05
    5.2937346300E-05    5.2123006096E-05    5.1321157883E-05    5.0531610624E-05
    4.9754176196E-05    4.8988669342E-05    4.8234907628E-05    4.7492711403E-05
    4.6761903756E-05    4.6042310471E-05    4.5333759991E-05    4.4636083372E-05
    4.3949114249E-05    4.3272688792E-05    4.2606645672E-05    4.1950826018E-05
    4.1305073384E-05    4.0669233710E-05    4.0043155285E-05    3.9426688713E-05
    3.8819686877E-05    3.8222004905E-05    3.7633500136E-05    3.7054032082E-05
    3.6483462404E-05    3.5921654870E-05    3.5368475328E-05    3.4823791674E-05
    3.4287473820E-05    3.3759393662E-05    3.3239425053E-05    3.2727443771E-05
    3.2223327489E-05    3.1726955751E-05    3.1238209935E-05    3.0756973233E-05
    3.0283130620E-05    2.9816568827E-05    2.9357176315E-05    2.8904843248E-05
    2.8459461467E-05    2.8020924465E-05    2.7589127361E-05    2.7163966877E-05
    2.6745341312E-05    2.6333150519E-05    2.5927295878E-05    2.5527680281E-05
    2.5134208098E-05    2.4746785162E-05    2.4365318747E-05    2.3989717542E-05
    2.3619891629E-05    2.3255752468E-05    2.2897212869E-05    2.2544186977E-05
    2.2196590248E-05    2.1854339429E-05    2.1517352542E-05    2.1185548860E-05
    2.0858848890E-05    2.0537174357E-05    2.0220448179E-05    1.9908594456E-05
    1.9601538445E-05    1.9299206548E-05    1.9001526293E-05    1.8708426314E-05
    1.8419836339E-05    1.8135687168E-05    1.7855910662E-05    1.7580439722E-05
    1.7309208276E-05    1.7042151265E-05    1.6779204622E-05    1.6520305261E-05
    1.6265391062E-05    1.6014400855E-05    1.5767274406E-05    1.5523952404E-05
    1.5284376442E-05    1.5048489010E-05    1.4816233478E-05    1.4587554081E-05
    1.4362395908E-05    1.4140704891E-05    1.3922427786E-05    1.3707512166E-05
    1.3495906406E-05    1.3287559672E-05    1.3082421909E-05    1.2880443825E-05
    1.2681576887E-05    1.2485773302E-05    1.2292986011E-05    1.2103168675E-05
    1.1916275664E-05    1.1732262048E-05    1.1551083583E-05    1.1372696707E-05
    1.1197058520E-05    1.1024126784E-05    1.0853859905E-05    1.0686216927E-05
    1.0521157522E-05    1.0358641979E-05    1.0198631197E-05    1.0041086673E-05
    9.8859704946E-06    9.7332453299E-06    9.5828744195E-06    9.4348215676E-06
    9.2890511330E-06    9.1455280208E-06    9.0042176742E-06    8.8650860661E-06
    8.7280996912E-06    8.5932255578E-06    8.4604311800E-06    8.3296845703E-06
    8.2009542314E-06    8.0742091493E-06    7.9494187853E-06    7.8265530694E-06
    7.7055823926E-06    7.5864776002E-06    7.4692099846E-06    7.3537512785E-06
    7.2400736486E-06    7.1281496882E-06    7.0179524113E-06    6.9094552459E-06
    6.8026320278E-06    6.6974569942E-06    6.5939047776E-06    6.4919504000E-06
    6.3915692664E-06    6.2927371598E-06    6.1954302343E-06    6.0996250106E-06
    6.0052983693E-06    5.9124275463E-06    5.8209901267E-06    5.7309640401E-06
    5.6423275544E-06    5.5550592717E-06    5.4691381224E-06    5.3845433606E-06
    5.3012545587E-06    5.2192516031E-06    5.1385146891E-06    5.0590243159E-06
    4.9807612826E-06    4.9037066829E-06    4.8278419013E-06    4.7531486078E-06
    4.6796087544E-06    4.6072045702E-06    4.5359185574E-06    4.4657334870E-06
    4.3966323948E-06    4.3285985772E-06    4.2616155874E-06    4.1956672313E-06
    4.1307375636E-06    4.0668108842E-06    4.0038717344E-06    3.9419048929E-06
    3.8808953724E-06    3.8208284162E-06    3.7616894943E-06    3.7034643001E-06
    3.6461387470E-06    3.5896989650E-06    3.5341312974E-06    3.4794222974E-06
    3.4255587250E-06    3.3725275439E-06    3.3203159182E-06    3.2689112096E-06
    3.2183009739E-06    3.1684729586E-06    3.1194150994E-06    3.0711155178E-06
    3.0235625179E-06    2.9767445840E-06    2.9306503772E-06    2.8852687332E-06
    2.8405886596E-06    2.7965993331E-06    2.7532900969E-06    2.7106504582E-06
    2.6686700856E-06    2.6273388069E-06    2.5866466064E-06    2.5465836225E-06
    2.5071401453E-06    2.4683066147E-06    2.4300736173E-06    2.3924318851E-06
    2.3553722925E-06    2.3188858543E-06    2.2829637240E-06    2.2475971910E-06
    2.2127776790E-06    2.1784967436E-06    2.1447460707E-06    2.1115174740E-06
    2.0788028934E-06    2.0465943929E-06    2.0148841587E-06    1.9836644974E-06
    1.9529278342E-06    1.9226667108E-06    1.8928737839E-06    1.8635418234E-06
    1.8346637104E-06    1.8062324358E-06    1.7782410986E-06    1.7506829039E-06
    1.7235511616E-06    1.6968392849E-06    1.6705407881E-06    1.6446492859E-06
    1.6191584911E-06    1.5940622134E-06    1.5693543581E-06    1.5450289244E-06
    1.5210800038E-06    1.4975017792E-06    1.4742885228E-06    1.4514345955E-06
    1.4289344449E-06    1.4067826042E-06    1.3849736910E-06    1.3635024059E-06
    1.3423635310E-06    1.3215519290E-06    1.3010625420E-06    1.2808903899E-06
    1.2610305694E-06    1.2414782529E-06    1.2222286872E-06    1.2032771924E-06
    1.1846191610E-06    1.1662500562E-06    1.1481654115E-06    1.1303608292E-06
    1.1128319794E-06    1.0955745991E-06    1.0785844909E-06    1.0618575224E-06
    1.0453896248E-06    1.0291767921E-06    1.0132150802E-06    9.9750060574E-07
    9.8202954536E-07    9.6679813473E-07    9.5180266758E-07    9.3703949484E-07
    9.2250502378E-07    9.0819571712E-07    8.9410809218E-07    8.8023872005E-07
    8.6658422474E-07    8.5314128238E-07    8.3990662041E-07    8.2687701680E-07
    8.1404929929E-07    8.0142034456E-07    7.8898707755E-07    7.7674647066E-07
    7.6469554304E-07    7.5283135989E-07    7.4115103172E-07    7.2965171368E-07
    7.1833060484E-07    7.0718494752E-07    6.9621202667E-07    6.8540916912E-07
    6.7477374305E-07    6.6430315726E-07    6.5399486059E-07    6.4384634129E-07
    6.3385512640E-07    6.2401878117E-07    6.1433490848E-07    6.0480114823E-07
    5.9541517681E-07    5.8617470648E-07    5.7707748487E-07    5.6812129441E-07
    5.5930395179E-07    5.5062330747E-07    5.4207724509E-07    5.3366368103E-07
    5.2538056385E-07    5.1722587382E-07    5.0919762244E-07    5.0129385194E-07
    4.9351263481E-07    4.8585207333E-07    4.7831029912E-07    4.7088547269E-07
    4.6357578298E-07    4.5637944693E-07    4.4929470904E-07    4.4231984096E-07
    4.3545314107E-07    4.2869293406E-07    4.2203757049E-07    4.1548542647E-07
    4.0903490319E-07    4.0268442659E-07    3.9643244693E-07    3.9027743845E-07
    3.8421789898E-07    3.7825234959E-07    3.7237933420E-07    3.6659741928E-07
    3.6090519346E-07    3.5530126721E-07    3.4978427248E-07    3.4435286239E-07
    3.3900571090E-07    3.3374151247E-07    3.2855898176E-07    3.2345685334E-07
    3.1843388132E-07    3.1348883911E-07    3.0862051910E-07    3.0382773235E-07
    2.9910930832E-07    2.9446409459E-07    2.8989095657E-07    2.8538877723E-07
    2.8095645681E-07    2.7659291260E-07    2.7229707862E-07    2.6806790538E-07
    2.6390435967E-07    2.5980542424E-07    2.5577009759E-07    2.5179739373E-07
    2.4788634193E-07    2.4403598648E-07    2.4024538646E-07    2.3651361553E-07
    2.3283976168E-07    2.2922292702E-07    2.2566222757E-07    2.2215679302E-07
    2.1870576653E-07    2.1530830456E-07    2.1196357659E-07    2.0867076499E-07
    2.0542906476E-07    2.0223768341E-07    1.9909584066E-07    1.9600276837E-07
    1.9295771027E-07    1.8995992179E-07    1.8700866991E-07    1.8410323295E-07
    1.8124290043E-07    1.7842697284E-07    1.7565476152E-07    1.7292558849E-07
    1.7023878624E-07    1.6759369762E-07    1.6498967567E-07    1.6242608342E-07
    1.5990229379E-07    1.5741768941E-07    1.5497166247E-07    1.5256361458E-07
    1.5019295661E-07    1.4785910858E-07    1.4556149947E-07    1.4329956711E-07
    1.4107275806E-07    1.3888052743E-07    1.3672233880E-07    1.3459766404E-07
    1.3250598321E-07    1.3044678442E-07    1.2841956373E-07    1.2642382500E-07
    1.2445907976E-07    1.2252484713E-07    1.2062065369E-07    1.1874603335E-07
    1.1690052722E-07    1.1508368355E-07    1.1329505759E-07    1.1153421146E-07
    1.0980071410E-07    1.0809414110E-07    1.0641407465E-07    1.0476010341E-07
    1.0313182242E-07    1.0152883298E-07    9.9950742584E-08    9.8397164818E-08
    9.6867719247E-08    9.5362031338E-08    9.3879732361E-08    9.2420459307E-08
    9.0983854790E-08    8.9569566968E-08    8.8177249455E-08    8.6806561235E-08
    8.5457166578E-08    8.4128734961E-08    8.2820940986E-08    8.1533464299E-08
    8.0265989514E-08    7.9018206138E-08    7.7789808491E-08    7.6580495634E-08
    7.5389971294E-08    7.4217943793E-08    7.3064125976E-08    7.1928235141E-08
    7.0809992972E-08    6.9709125470E-08    6.8625362884E-08    6.7558439647E-08
    6.6508094312E-08    6.5474069485E-08    6.4456111767E-08    6.3453971686E-08
    6.2467403645E-08    6.1496165854E-08    6.0540020272E-08    5.9598732553E-08
    5.8672071986E-08    5.7759811437E-08    5.6861727296E-08    5.5977599424E-08
    5.5107211099E-08    5.4250348956E-08    5.3406802944E-08    5.2576366269E-08
    5.1758835348E-08    5.0954009751E-08    5.0161692165E-08    4.9381688334E-08
    4.8613807018E-08    4.7857859945E-08    4.7113661761E-08    4.6381029991E-08
    4.5659784992E-08    4.4949749905E-08    4.4250750619E-08    4.3562615726E-08
    4.2885176474E-08    4.2218266733E-08    4.1561722949E-08    4.0915384109E-08
    4.0279091694E-08    3.9652689649E-08    3.9036024343E-08    3.8428944525E-08
    3.7831301293E-08    3.7242948058E-08    3.6663740503E-08    3.6093536554E-08
    3.5532196339E-08    3.4979582160E-08    3.4435558456E-08    3.3899991770E-08
    3.3372750715E-08    3.2853705947E-08    3.2342730126E-08    3.1839697890E-08
    3.1344485825E-08    3.0856972430E-08    3.0377038094E-08    2.9904565059E-08
    2.9439437398E-08    2.8981540982E-08    2.8530763454E-08    2.8086994202E-08
    2.7650124332E-08    2.7220046639E-08    2.6796655585E-08    2.6379847269E-08
    2.5969519403E-08    2.5565571287E-08    2.5167903786E-08    2.4776419303E-08
    2.4391021757E-08    2.4011616559E-08    2.3638110590E-08    2.3270412176E-08
    2.2908431064E-08    2.2552078408E-08    2.2201266735E-08    2.1855909937E-08
    2.1515923239E-08    2.1181223184E-08    2.0851727611E-08    2.0527355636E-08
    2.0208027629E-08    1.9893665197E-08    1.9584191167E-08    1.9279529561E-08
    1.8979605584E-08    1.8684345603E-08    1.8393677125E-08    1.8107528788E-08
    1.7825830333E-08    1.7548512596E-08    1.7275507487E-08    1.7006747971E-08
    1.6742168059E-08    1.6481702782E-08    1.6225288184E-08    1.5972861300E-08
    1.5724360145E-08    1.5479723695E-08    1.5238891875E-08    1.5001805543E-08
    1.4768406476E-08    1.4538637357E-08    1.4312441756E-08    1.4089764122E-08
    1.3870549766E-08    1.3654744851E-08    1.3442296372E-08    1.3233152152E-08
    1.3027260822E-08    1.2824571812E-08    1.2625035338E-08    1.2428602388E-08
    1.2235224714E-08    1.2044854815E-08    1.1857445929E-08    1.1672952022E-08
    1.1491327773E-08    1.1312528567E-08    1.1136510481E-08    1.0963230276E-08
    1.0792645383E-08    1.0624713896E-08    1.0459394559E-08    1.0296646757E-08
    1.0136430509E-08    9.9787064514E-09    9.8234358347E-09    9.6705805107E-09
    9.5201029243E-09    9.3719661038E-09    9.2261336517E-09    9.0825697371E-09
    8.9412390855E-09    8.8021069707E-09    8.6651392059E-09    8.5303021359E-09
    8.3975626284E-09    8.2668880661E-09    8.1382463379E-09    8.0116058332E-09
    7.8869354318E-09    7.7642044975E-09    7.6433828701E-09    7.5244408582E-09
    7.4073492318E-09    7.2920792155E-09    7.1786024805E-09    7.0668911389E-09
    6.9569177366E-09    6.8486552457E-09    6.7420770585E-09    6.6371569810E-09
    6.5338692263E-09    6.4321884083E-09    6.3320895353E-09    6.2335480045E-09
    6.1365395955E-09    6.0410404643E-09    5.9470271377E-09    5.8544765071E-09
    5.7633658234E-09    5.6736726910E-09    5.5853750624E-09    5.4984512328E-09
    5.4128798351E-09    5.3286398345E-09    5.2457105229E-09    5.1640715141E-09
    5.0837027392E-09    5.0045844407E-09    4.9266971689E-09    4.8500217758E-09
    4.7745394117E-09    4.7002315200E-09    4.6270798323E-09    4.5550663643E-09
    4.4841734113E-09    4.4143835441E-09    4.3456796041E-09    4.2780446995E-09
    4.2114622014E-09    4.1459157396E-09    4.0813891981E-09    4.0178667117E-09
    3.9553326618E-09    3.8937716726E-09    3.8331686074E-09    3.7735085648E-09
    3.7147768751E-09    3.6569590970E-09    3.6000410136E-09    3.5440086290E-09
    3.4888481650E-09    3.4345460577E-09    3.3810889539E-09    3.3284637083E-09
    3.2766573797E-09    3.2256572284E-09    3.1754507129E-09    3.1260254867E-09
    3.0773693951E-09    3.0294704725E-09    2.9823169395E-09    2.9358971997E-09
    2.8901998372E-09    2.8452136132E-09    2.8009274645E-09    2.7573304993E-09
    2.7144119956E-09    2.6721613978E-09    2.6305683146E-09    2.5896225164E-09
    2.5493139326E-09    2.5096326491E-09    2.4705689061E-09    2.4321130957E-09
    2.3942557595E-09    2.3569875860E-09    2.3202994086E-09    2.2841822032E-09
    2.2486270862E-09    2.2136253119E-09    2.1791682708E-09    2.1452474875E-09
    2.1118546181E-09    2.0789814488E-09    2.0466198933E-09    2.0147619912E-09
    1.9833999058E-09    1.9525259225E-09    1.9221324465E-09    1.8922120010E-09
    1.8627572259E-09    1.8337608755E-09    1.8052158165E-09    1.7771150270E-09
    1.7494515939E-09    1.7222187119E-09    1.6954096815E-09    1.6690179072E-09
    1.6430368964E-09    1.6174602574E-09    1.5922816979E-09    1.5674950237E-09
    1.5430941365E-09    1.5190730332E-09    1.4954258041E-09    1.4721466312E-09
    1.4492297871E-09    1.4266696336E-09    1.4044606203E-09    1.3825972828E-09
    1.3610742421E-09    1.3398862026E-09    1.3190279512E-09    1.2984943558E-09
    1.2782803643E-09    1.2583810030E-09    1.2387913757E-09    1.2195066625E-09
    1.2005221182E-09    1.1818330717E-09    1.1634349244E-09    1.1453231493E-09
    1.1274932898E-09    1.1099409587E-09    1.0926618368E-09    1.0756516724E-09
    1.0589062800E-09    1.0424215391E-09    1.0261933931E-09    1.0102178488E-09
    9.9449097511E-10    9.7900890191E-10    9.6376781941E-10    9.4876397702E-10
    9.3399368268E-10    9.1945330168E-10    9.0513925585E-10    8.9104802270E-10
    8.7717613455E-10    8.6352017767E-10    8.5007679145E-10    8.3684266753E-10
    8.2381454900E-10    8.1098922979E-10    7.9836355361E-10    7.8593441329E-10
    7.7369875001E-10    7.6165355254E-10    7.4979585649E-10    7.3812274363E-10
    7.2663134108E-10    7.1531882066E-10    7.0418239830E-10    6.9321933321E-10
    6.8242692723E-10    6.7180252419E-10    6.6134350923E-10    6.5104730822E-10
    6.4091138704E-10    6.3093325102E-10    6.2111044425E-10    6.1144054918E-10
    6.0192118580E-10    5.9255001114E-10    5.8332471869E-10    5.7424303782E-10
    5.6530273327E-10    5.5650160451E-10    5.4783748529E-10    5.3930824298E-10
    5.3091177830E-10    5.2264602456E-10    5.1450894723E-10    5.0649854344E-10
    4.9861284150E-10    4.9084990039E-10    4.8320780929E-10    4.7568468713E-10
    4.6827868206E-10    4.6098797112E-10    4.5381075974E-10    4.4674528122E-10
    4.3978979638E-10    4.3294259309E-10    4.2620198589E-10    4.1956631552E-10
    4.1303394855E-10    4.0660327695E-10    4.0027271775E-10    3.9404071262E-10
    3.8790572749E-10    3.8186625214E-10    3.7592079986E-10    3.7006790708E-10
    3.6430613300E-10    3.5863405925E-10    3.5305028952E-10    3.4755344921E-10
    3.4214218519E-10    3.3681516536E-10    3.3157107834E-10    3.2640863316E-10
    3.2132655893E-10    3.1632360458E-10    3.1139853846E-10    3.0655014811E-10
    3.0177723992E-10    2.9707863891E-10    2.9245318836E-10    2.8789974956E-10
    2.8341720152E-10    2.7900444069E-10    2.7466038070E-10    2.7038395209E-10
    2.6617410204E-10    2.6202979410E-10    2.5795000796E-10    2.5393373924E-10
    2.4997999915E-10    2.4608781430E-10    2.4225622645E-10    2.3848429226E-10
    2.3477108310E-10    2.3111568477E-10    2.2751719730E-10    2.2397473471E-10
    2.2048742487E-10    2.1705440919E-10    2.1367484244E-10    2.1034789257E-10
    2.0707274045E-10    2.0384857972E-10    2.0067461656E-10    1.9755006951E-10
    1.9447416926E-10    1.9144615848E-10    1.8846529166E-10    1.8553083487E-10
    1.8264206560E-10    1.7979827261E-10    1.7699875570E-10    1.7424282559E-10
    1.7152980372E-10    1.6885902209E-10    1.6622982307E-10    1.6364155932E-10
    1.6109359357E-10    1.5858529845E-10    1.5611605636E-10    1.5368525932E-10
    1.5129230881E-10    1.4893661562E-10    1.4661759971E-10    1.4433469009E-10
    1.4208732460E-10    1.3987494991E-10    1.3769702128E-10    1.3555300242E-10
    1.3344236542E-10    1.3136459057E-10    1.2931916626E-10    1.2730558883E-10
    1.2532336247E-10    1.2337199907E-10    1.2145101815E-10    1.1955994669E-10
    1.1769831905E-10    1.1586567682E-10    1.1406156874E-10    1.1228555056E-10
    1.1053718497E-10    1.0881604143E-10    1.0712169614E-10    1.0545373185E-10
    1.0381173785E-10    1.0219530982E-10    1.0060404972E-10    9.9037565722E-11
    9.7495472074E-11    9.5977389046E-11    9.4482942814E-11    9.3011765373E-11
    9.1563494450E-11    9.0137773389E-11
   </PP_CHI.2>
   <PP_CHI.3
       type="real"
       size="1650"
       columns="4"
       index="3"
       occupation=" 2.000"
       pseudo_energy="   -0.2495985092E+01"
       label="3P"
       l="1" >
    2.4063286086E-12    2.7253635703E-04    1.0898005901E-03    2.4507587572E-03
    4.3536895328E-03    6.7961870717E-03    9.7751650095E-03    1.3286861592E-02
    1.7326845924E-02    2.1890025320E-02    2.6970653749E-02    3.2562341348E-02
    3.8658064995E-02    4.5250179904E-02    5.2330432232E-02    5.9889972672E-02
    6.7919370989E-02    7.6408631490E-02    8.5347209379E-02    9.4724027974E-02
    1.0452749675E-01    1.1474553014E-01    1.2536556717E-01    1.3637459167E-01
    1.4775915328E-01    1.5950538899E-01    1.7159904533E-01    1.8402550107E-01
    1.9676979036E-01    2.0981662645E-01    2.2315042567E-01    2.3675533183E-01
    2.5061524094E-01    2.6471382613E-01    2.7903456287E-01    2.9356075422E-01
    3.0827555631E-01    3.2316200384E-01    3.3820303556E-01    3.5338151977E-01
    3.6868027972E-01    3.8408211884E-01    3.9956984588E-01    4.1512629976E-01
    4.3073437415E-01    4.4637704180E-01    4.6203737847E-01    4.7769858646E-01
    4.9334401774E-01    5.0895719655E-01    5.2452184156E-01    5.4002188738E-01
    5.5544150562E-01    5.7076512516E-01    5.8597745191E-01    6.0106348784E-01
    6.1600854924E-01    6.3079828435E-01    6.4541869015E-01    6.5985612835E-01
    6.7409734065E-01    6.8812946310E-01    7.0194003966E-01    7.1551703485E-01
    7.2884884556E-01    7.4192431201E-01    7.5473272774E-01    7.6726384872E-01
    7.7950790160E-01    7.9145559099E-01    8.0309810587E-01    8.1442712504E-01
    8.2543482171E-01    8.3611386718E-01    8.4645743355E-01    8.5645919566E-01
    8.6611333203E-01    8.7541452501E-01    8.8435796004E-01    8.9293932408E-01
    9.0115480321E-01    9.0900107942E-01    9.1647532661E-01    9.2357520585E-01
    9.3029885987E-01    9.3664490681E-01    9.4261243334E-01    9.4820098706E-01
    9.5341056823E-01    9.5824162096E-01    9.6269502377E-01    9.6677207957E-01
    9.7047450514E-01    9.7380442015E-01    9.7676433561E-01    9.7935714199E-01
    9.8158609690E-01    9.8345481235E-01    9.8496724178E-01    9.8612766666E-01
    9.8694068293E-01    9.8741118711E-01    9.8754436227E-01    9.8734566379E-01
    9.8682080496E-01    9.8597574252E-01    9.8481666208E-01    9.8334996350E-01
    9.8158224625E-01    9.7952029477E-01    9.7717106392E-01    9.7454166442E-01
    9.7163934843E-01    9.6847149528E-01    9.6504559725E-01    9.6136924564E-01
    9.5745011696E-01    9.5329595935E-01    9.4891457928E-01    9.4431382845E-01
    9.3950159102E-01    9.3448577113E-01    9.2927428073E-01    9.2387502774E-01
    9.1829590455E-01    9.1254477694E-01    9.0662947330E-01    9.0055777427E-01
    8.9433740281E-01    8.8797601463E-01    8.8148118901E-01    8.7486042018E-01
    8.6812110894E-01    8.6127055484E-01    8.5431594878E-01    8.4726436599E-01
    8.4012275949E-01    8.3289795401E-01    8.2559664028E-01    8.1822536982E-01
    8.1079055012E-01    8.0329844028E-01    7.9575514704E-01    7.8816662126E-01
    7.8053865480E-01    7.7287687779E-01    7.6518675632E-01    7.5747359051E-01
    7.4974251296E-01    7.4199848755E-01    7.3424630864E-01    7.2649060057E-01
    7.1873581755E-01    7.1098624382E-01    7.0324599417E-01    6.9551901470E-01
    6.8780908397E-01    6.8011981427E-01    6.7245465333E-01    6.6481688614E-01
    6.5720963702E-01    6.4963587202E-01    6.4209840137E-01    6.3459988223E-01
    6.2714282160E-01    6.1972957933E-01    6.1236237137E-01    6.0504327312E-01
    5.9777422289E-01    5.9055702544E-01    5.8339335576E-01    5.7628476273E-01
    5.6923267302E-01    5.6223839497E-01    5.5530312254E-01    5.4842793929E-01
    5.4161382240E-01    5.3486164667E-01    5.2817218861E-01    5.2154613042E-01
    5.1498406398E-01    5.0848649494E-01    5.0205384657E-01    4.9568646374E-01
    4.8938461679E-01    4.8314850533E-01    4.7697826201E-01    4.7087395620E-01
    4.6483559764E-01    4.5886313991E-01    4.5295648395E-01    4.4711548141E-01
    4.4133993791E-01    4.3562961621E-01    4.2998423933E-01    4.2440349350E-01
    4.1888703104E-01    4.1343447312E-01    4.0804541246E-01    4.0271941585E-01
    3.9745602659E-01    3.9225476687E-01    3.8711513997E-01    3.8203663236E-01
    3.7701871575E-01    3.7206084898E-01    3.6716247980E-01    3.6232304660E-01
    3.5754197994E-01    3.5281870412E-01    3.4815263847E-01    3.4354319875E-01
    3.3898979826E-01    3.3449184899E-01    3.3004876263E-01    3.2565995151E-01
    3.2132482942E-01    3.1704281241E-01    3.1281331949E-01    3.0863577322E-01
    3.0450960026E-01    3.0043423190E-01    2.9640910443E-01    2.9243365952E-01
    2.8850734456E-01    2.8462961286E-01    2.8079992387E-01    2.7701774338E-01
    2.7328254358E-01    2.6959380318E-01    2.6595100744E-01    2.6235364816E-01
    2.5880122368E-01    2.5529323887E-01    2.5182920496E-01    2.4840863957E-01
    2.4503106650E-01    2.4169601567E-01    2.3840302295E-01    2.3515163001E-01
    2.3194138419E-01    2.2877183830E-01    2.2564255047E-01    2.2255308396E-01
    2.1950300701E-01    2.1649189264E-01    2.1351931845E-01    2.1058486651E-01
    2.0768812310E-01    2.0482867858E-01    2.0200612724E-01    1.9922006699E-01
    1.9647009875E-01    1.9375582540E-01    1.9107685058E-01    1.8843277938E-01
    1.8582321855E-01    1.8324777656E-01    1.8070606377E-01    1.7819769257E-01
    1.7572227751E-01    1.7327943544E-01    1.7086878560E-01    1.6848994975E-01
    1.6614255227E-01    1.6382622026E-01    1.6154058358E-01    1.5928527500E-01
    1.5705993022E-01    1.5486418793E-01    1.5269768992E-01    1.5056008106E-01
    1.4845100940E-01    1.4637012619E-01    1.4431708588E-01    1.4229154622E-01
    1.4029316821E-01    1.3832161615E-01    1.3637655768E-01    1.3445766372E-01
    1.3256460856E-01    1.3069706979E-01    1.2885472835E-01    1.2703726849E-01
    1.2524437781E-01    1.2347574719E-01    1.2173107084E-01    1.2001004624E-01
    1.1831237418E-01    1.1663775868E-01    1.1498590702E-01    1.1335652970E-01
    1.1174934045E-01    1.1016405617E-01    1.0860039692E-01    1.0705808593E-01
    1.0553684953E-01    1.0403641716E-01    1.0255652133E-01    1.0109689762E-01
    9.9657284625E-02    9.8237423941E-02    9.6837060149E-02    9.5455940782E-02
    9.4093816300E-02    9.2750440067E-02    9.1425568325E-02    9.0118960166E-02
    8.8830377510E-02    8.7559585076E-02    8.6306350359E-02    8.5070443600E-02
    8.3851637768E-02    8.2649708526E-02    8.1464434211E-02    8.0295595806E-02
    7.9142976916E-02    7.8006363742E-02    7.6885545053E-02    7.5780312169E-02
    7.4690458925E-02    7.3615781655E-02    7.2556079162E-02    7.1511152697E-02
    7.0480805930E-02    6.9464844929E-02    6.8463078137E-02    6.7475316341E-02
    6.6501372657E-02    6.5541062497E-02    6.4594203554E-02    6.3660615770E-02
    6.2740121320E-02    6.1832544584E-02    6.0937712123E-02    6.0055452660E-02
    5.9185597055E-02    5.8327978281E-02    5.7482431402E-02    5.6648793553E-02
    5.5826903914E-02    5.5016603690E-02    5.4217736088E-02    5.3430146298E-02
    5.2653681465E-02    5.1888190675E-02    5.1133524927E-02    5.0389537117E-02
    4.9656082014E-02    4.8933016238E-02    4.8220198244E-02    4.7517488296E-02
    4.6824748450E-02    4.6141842532E-02    4.5468636120E-02    4.4804996520E-02
    4.4150792753E-02    4.3505895526E-02    4.2870177222E-02    4.2243511875E-02
    4.1625775151E-02    4.1016844333E-02    4.0416598297E-02    3.9824917498E-02
    3.9241683948E-02    3.8666781200E-02    3.8100094329E-02    3.7541509912E-02
    3.6990916016E-02    3.6448202173E-02    3.5913259367E-02    3.5385980018E-02
    3.4866257960E-02    3.4353988426E-02    3.3849068033E-02    3.3351394766E-02
    3.2860867955E-02    3.2377388266E-02    3.1900857682E-02    3.1431179485E-02
    3.0968258245E-02    3.0511999797E-02    3.0062311234E-02    2.9619100885E-02
    2.9182278301E-02    2.8751754243E-02    2.8327440664E-02    2.7909250696E-02
    2.7497098633E-02    2.7090899919E-02    2.6690571132E-02    2.6296029971E-02
    2.5907195242E-02    2.5523986844E-02    2.5146325751E-02    2.4774134008E-02
    2.4407334707E-02    2.4045851982E-02    2.3689610989E-02    2.3338537899E-02
    2.2992559882E-02    2.2651605094E-02    2.2315602666E-02    2.1984482690E-02
    2.1658176207E-02    2.1336615197E-02    2.1019732565E-02    2.0707462127E-02
    2.0399738603E-02    2.0096497603E-02    1.9797675613E-02    1.9503209990E-02
    1.9213038944E-02    1.8927101531E-02    1.8645337639E-02    1.8367687983E-02
    1.8094094087E-02    1.7824498277E-02    1.7558843672E-02    1.7297074171E-02
    1.7039134443E-02    1.6784969919E-02    1.6534526780E-02    1.6287751948E-02
    1.6044593076E-02    1.5804998538E-02    1.5568917422E-02    1.5336299516E-02
    1.5107095304E-02    1.4881255951E-02    1.4658733300E-02    1.4439479859E-02
    1.4223448794E-02    1.4010593919E-02    1.3800869688E-02    1.3594231189E-02
    1.3390634129E-02    1.3190034834E-02    1.2992390234E-02    1.2797657859E-02
    1.2605795829E-02    1.2416762847E-02    1.2230518192E-02    1.2047021709E-02
    1.1866233803E-02    1.1688115431E-02    1.1512628097E-02    1.1339733840E-02
    1.1169395230E-02    1.1001575360E-02    1.0836237842E-02    1.0673346792E-02
    1.0512866833E-02    1.0354763083E-02    1.0199001146E-02    1.0045547111E-02
    9.8943675431E-03    9.7454294756E-03    9.5987004055E-03    9.4541482866E-03
    9.3117415233E-03    9.1714489649E-03    9.0332398989E-03    8.8970840457E-03
    8.7629515526E-03    8.6308129875E-03    8.5006393339E-03    8.3724019849E-03
    8.2460727377E-03    8.1216237879E-03    7.9990277247E-03    7.8782575246E-03
    7.7592865471E-03    7.6420885287E-03    7.5266375784E-03    7.4129081721E-03
    7.3008751479E-03    7.1905137011E-03    7.0817993792E-03    6.9747080771E-03
    6.8692160328E-03    6.7652998218E-03    6.6629363535E-03    6.5621028659E-03
    6.4627769212E-03    6.3649364018E-03    6.2685595053E-03    6.1736247407E-03
    6.0801109237E-03    5.9879971729E-03    5.8972629051E-03    5.8078878317E-03
    5.7198519544E-03    5.6331355612E-03    5.5477192226E-03    5.4635837876E-03
    5.3807103796E-03    5.2990803932E-03    5.2186754899E-03    5.1394775947E-03
    5.0614688925E-03    4.9846318241E-03    4.9089490831E-03    4.8344036123E-03
    4.7609786000E-03    4.6886574769E-03    4.6174239126E-03    4.5472618123E-03
    4.4781553132E-03    4.4100887821E-03    4.3430468112E-03    4.2770142158E-03
    4.2119760305E-03    4.1479175067E-03    4.0848241093E-03    4.0226815137E-03
    3.9614756030E-03    3.9011924649E-03    3.8418183890E-03    3.7833398640E-03
    3.7257435747E-03    3.6690163995E-03    3.6131454075E-03    3.5581178558E-03
    3.5039211871E-03    3.4505430270E-03    3.3979711811E-03    3.3461936328E-03
    3.2951985410E-03    3.2449742370E-03    3.1955092225E-03    3.1467921674E-03
    3.0988119066E-03    3.0515574388E-03    3.0050179231E-03    2.9591826774E-03
    2.9140411762E-03    2.8695830477E-03    2.8257980723E-03    2.7826761804E-03
    2.7402074498E-03    2.6983821039E-03    2.6571905097E-03    2.6166231757E-03
    2.5766707499E-03    2.5373240175E-03    2.4985738995E-03    2.4604114504E-03
    2.4228278562E-03    2.3858144330E-03    2.3493626246E-03    2.3134640010E-03
    2.2781102564E-03    2.2432932076E-03    2.2090047922E-03    2.1752370668E-03
    2.1419822053E-03    2.1092324973E-03    2.0769803463E-03    2.0452182681E-03
    2.0139388893E-03    1.9831349458E-03    1.9527992807E-03    1.9229248434E-03
    1.8935046876E-03    1.8645319701E-03    1.8359999492E-03    1.8079019830E-03
    1.7802315285E-03    1.7529821395E-03    1.7261474658E-03    1.6997212515E-03
    1.6736973337E-03    1.6480696410E-03    1.6228321924E-03    1.5979790960E-03
    1.5735045475E-03    1.5494028290E-03    1.5256683079E-03    1.5022954354E-03
    1.4792787455E-03    1.4566128536E-03    1.4342924557E-03    1.4123123266E-03
    1.3906673193E-03    1.3693523636E-03    1.3483624651E-03    1.3276927039E-03
    1.3073382338E-03    1.2872942808E-03    1.2675561427E-03    1.2481191872E-03
    1.2289788517E-03    1.2101306417E-03    1.1915701301E-03    1.1732929560E-03
    1.1552948240E-03    1.1375715030E-03    1.1201188253E-03    1.1029326858E-03
    1.0860090408E-03    1.0693439076E-03    1.0529333631E-03    1.0367735429E-03
    1.0208606410E-03    1.0051909084E-03    9.8976065239E-04    9.7456623591E-04
    9.5960407647E-04    9.4487064551E-04    9.3036246752E-04    9.1607611932E-04
    9.0200822921E-04    8.8815547630E-04    8.7451458966E-04    8.6108234767E-04
    8.4785557721E-04    8.3483115301E-04    8.2200599689E-04    8.0937707708E-04
    7.9694140754E-04    7.8469604726E-04    7.7263809961E-04    7.6076471167E-04
    7.4907307358E-04    7.3756041792E-04    7.2622401903E-04    7.1506119244E-04
    7.0406929425E-04    6.9324572047E-04    6.8258790651E-04    6.7209332651E-04
    6.6175949284E-04    6.5158395547E-04    6.4156430142E-04    6.3169815424E-04
    6.2198317344E-04    6.1241705393E-04    6.0299752554E-04    5.9372235246E-04
    5.8458933275E-04    5.7559629781E-04    5.6674111190E-04    5.5802167164E-04
    5.4943590553E-04    5.4098177347E-04    5.3265726627E-04    5.2446040524E-04
    5.1638924167E-04    5.0844185643E-04    5.0061635947E-04    4.9291088946E-04
    4.8532361330E-04    4.7785272569E-04    4.7049644878E-04    4.6325303168E-04
    4.5612075010E-04    4.4909790594E-04    4.4218282688E-04    4.3537386603E-04
    4.2866940150E-04    4.2206783606E-04    4.1556759677E-04    4.0916713457E-04
    4.0286492397E-04    3.9665946267E-04    3.9054927122E-04    3.8453289267E-04
    3.7860889224E-04    3.7277585697E-04    3.6703239539E-04    3.6137713723E-04
    3.5580873305E-04    3.5032585397E-04    3.4492719133E-04    3.3961145639E-04
    3.3437738005E-04    3.2922371252E-04    3.2414922305E-04    3.1915269966E-04
    3.1423294880E-04    3.0938879512E-04    3.0461908118E-04    2.9992266719E-04
    2.9529843071E-04    2.9074526642E-04    2.8626208586E-04    2.8184781715E-04
    2.7750140477E-04    2.7322180927E-04    2.6900800707E-04    2.6485899022E-04
    2.6077376611E-04    2.5675135729E-04    2.5279080123E-04    2.4889115008E-04
    2.4505147045E-04    2.4127084321E-04    2.3754836323E-04    2.3388313923E-04
    2.3027429351E-04    2.2672096179E-04    2.2322229298E-04    2.1977744897E-04
    2.1638560448E-04    2.1304594681E-04    2.0975767567E-04    2.0652000302E-04
    2.0333215284E-04    2.0019336096E-04    1.9710287491E-04    1.9405995370E-04
    1.9106386766E-04    1.8811389828E-04    1.8520933804E-04    1.8234949021E-04
    1.7953366874E-04    1.7676119805E-04    1.7403141289E-04    1.7134365818E-04
    1.6869728886E-04    1.6609166975E-04    1.6352617536E-04    1.6100018977E-04
    1.5851310650E-04    1.5606432832E-04    1.5365326716E-04    1.5127934393E-04
    1.4894198841E-04    1.4664063910E-04    1.4437474310E-04    1.4214375595E-04
    1.3994714155E-04    1.3778437198E-04    1.3565492743E-04    1.3355829601E-04
    1.3149397369E-04    1.2946146416E-04    1.2746027868E-04    1.2548993603E-04
    1.2354996234E-04    1.2163989098E-04    1.1975926250E-04    1.1790762446E-04
    1.1608453136E-04    1.1428954452E-04    1.1252223198E-04    1.1078216840E-04
    1.0906893495E-04    1.0738211922E-04    1.0572131513E-04    1.0408612279E-04
    1.0247614848E-04    1.0089100447E-04    9.9330309011E-05    9.7793686173E-05
    9.6280765804E-05    9.4791183423E-05    9.3324580133E-05    9.1880602541E-05
    9.0458902670E-05    8.9059137877E-05    8.7680970774E-05    8.6324069143E-05
    8.4988105864E-05    8.3672758829E-05    8.2377710870E-05    8.1102649686E-05
    7.9847267761E-05    7.8611262299E-05    7.7394335146E-05    7.6196192722E-05
    7.5016545951E-05    7.3855110189E-05    7.2711605161E-05    7.1585754892E-05
    7.0477287640E-05    6.9385935833E-05    6.8311436004E-05    6.7253528729E-05
    6.6211958566E-05    6.5186473992E-05    6.4176827344E-05    6.3182774761E-05
    6.2204076126E-05    6.1240495004E-05    6.0291798593E-05    5.9357757664E-05
    5.8438146504E-05    5.7532742870E-05    5.6641327928E-05    5.5763686204E-05
    5.4899605535E-05    5.4048877014E-05    5.3211294941E-05    5.2386656777E-05
    5.1574763094E-05    5.0775417524E-05    4.9988426719E-05    4.9213600296E-05
    4.8450750802E-05    4.7699693659E-05    4.6960247128E-05    4.6232232259E-05
    4.5515472853E-05    4.4809795419E-05    4.4115029130E-05    4.3431005786E-05
    4.2757559769E-05    4.2094528009E-05    4.1441749940E-05    4.0799067466E-05
    4.0166324918E-05    3.9543369022E-05    3.8930048859E-05    3.8326215831E-05
    3.7731723624E-05    3.7146428172E-05    3.6570187626E-05    3.6002862317E-05
    3.5444314724E-05    3.4894409439E-05    3.4353013139E-05    3.3819994548E-05
    3.3295224413E-05    3.2778575465E-05    3.2269922394E-05    3.1769141819E-05
    3.1276112254E-05    3.0790714084E-05    3.0312829532E-05    2.9842342636E-05
    2.9379139215E-05    2.8923106847E-05    2.8474134838E-05    2.8032114199E-05
    2.7596937617E-05    2.7168499431E-05    2.6746695606E-05    2.6331423708E-05
    2.5922582880E-05    2.5520073816E-05    2.5123798740E-05    2.4733661382E-05
    2.4349566952E-05    2.3971422119E-05    2.3599134992E-05    2.3232615092E-05
    2.2871773334E-05    2.2516522005E-05    2.2166774742E-05    2.1822446512E-05
    2.1483453594E-05    2.1149713552E-05    2.0821145224E-05    2.0497668695E-05
    2.0179205283E-05    1.9865677517E-05    1.9557009120E-05    1.9253124989E-05
    1.8953951180E-05    1.8659414887E-05    1.8369444425E-05    1.8083969217E-05
    1.7802919769E-05    1.7526227662E-05    1.7253825528E-05    1.6985647041E-05
    1.6721626894E-05    1.6461700788E-05    1.6205805415E-05    1.5953878443E-05
    1.5705858501E-05    1.5461685165E-05    1.5221298940E-05    1.4984641251E-05
    1.4751654425E-05    1.4522281679E-05    1.4296467105E-05    1.4074155657E-05
    1.3855293138E-05    1.3639826188E-05    1.3427702269E-05    1.3218869654E-05
    1.3013277413E-05    1.2810875403E-05    1.2611614252E-05    1.2415445354E-05
    1.2222320850E-05    1.2032193618E-05    1.1845017268E-05    1.1660746120E-05
    1.1479335204E-05    1.1300740241E-05    1.1124917636E-05    1.0951824468E-05
    1.0781418477E-05    1.0613658056E-05    1.0448502240E-05    1.0285910697E-05
    1.0125843718E-05    9.9682622050E-06    9.8131276658E-06    9.6604022018E-06
    9.5100484996E-06    9.3620298219E-06    9.2163099990E-06    9.0728534196E-06
    8.9316250225E-06    8.7925902880E-06    8.6557152298E-06    8.5209663863E-06
    8.3883108129E-06    8.2577160741E-06    8.1291502353E-06    8.0025818556E-06
    7.8779799795E-06    7.7553141302E-06    7.6345543015E-06    7.5156709512E-06
    7.3986349936E-06    7.2834177923E-06    7.1699911538E-06    7.0583273202E-06
    6.9483989626E-06    6.8401791748E-06    6.7336414663E-06    6.6287597563E-06
    6.5255083672E-06    6.4238620184E-06    6.3237958200E-06    6.2252852673E-06
    6.1283062344E-06    6.0328349684E-06    5.9388480838E-06    5.8463225568E-06
    5.7552357198E-06    5.6655652557E-06    5.5772891926E-06    5.4903858985E-06
    5.4048340761E-06    5.3206127576E-06    5.2377012995E-06    5.1560793777E-06
    5.0757269828E-06    4.9966244148E-06    4.9187522785E-06    4.8420914791E-06
    4.7666232171E-06    4.6923289840E-06    4.6191905580E-06    4.5471899989E-06
    4.4763096445E-06    4.4065321061E-06    4.3378402639E-06    4.2702172634E-06
    4.2036465109E-06    4.1381116696E-06    4.0735966558E-06    4.0100856348E-06
    3.9475630169E-06    3.8860134541E-06    3.8254218360E-06    3.7657732862E-06
    3.7070531587E-06    3.6492470343E-06    3.5923407174E-06    3.5363202321E-06
    3.4811718189E-06    3.4268819316E-06    3.3734372340E-06    3.3208245963E-06
    3.2690310922E-06    3.2180439958E-06    3.1678507783E-06    3.1184391050E-06
    3.0697968324E-06    3.0219120054E-06    2.9747728539E-06    2.9283677904E-06
    2.8826854069E-06    2.8377144723E-06    2.7934439296E-06    2.7498628933E-06
    2.7069606464E-06    2.6647266383E-06    2.6231504818E-06    2.5822219511E-06
    2.5419309784E-06    2.5022676526E-06    2.4632222160E-06    2.4247850621E-06
    2.3869467336E-06    2.3496979199E-06    2.3130294548E-06    2.2769323140E-06
    2.2413976135E-06    2.2064166070E-06    2.1719806839E-06    2.1380813672E-06
    2.1047103114E-06    2.0718593004E-06    2.0395202457E-06    2.0076851842E-06
    1.9763462765E-06    1.9454958047E-06    1.9151261709E-06    1.8852298948E-06
    1.8557996124E-06    1.8268280741E-06    1.7983081425E-06    1.7702327912E-06
    1.7425951029E-06    1.7153882676E-06    1.6886055811E-06    1.6622404431E-06
    1.6362863560E-06    1.6107369228E-06    1.5855858463E-06    1.5608269265E-06
    1.5364540601E-06    1.5124612385E-06    1.4888425462E-06    1.4655921598E-06
    1.4427043462E-06    1.4201734615E-06    1.3979939493E-06    1.3761603396E-06
    1.3546672473E-06    1.3335093710E-06    1.3126814917E-06    1.2921784715E-06
    1.2719952521E-06    1.2521268540E-06    1.2325683750E-06    1.2133149891E-06
    1.1943619453E-06    1.1757045664E-06    1.1573382479E-06    1.1392584567E-06
    1.1214607305E-06    1.1039406759E-06    1.0866939683E-06    1.0697163498E-06
    1.0530036291E-06    1.0365516799E-06    1.0203564398E-06    1.0044139100E-06
    9.8872015357E-07    9.7327129484E-07    9.5806351842E-07    9.4309306826E-07
    9.2835624668E-07    9.1384941349E-07    8.9956898514E-07    8.8551143378E-07
    8.7167328643E-07    8.5805112412E-07    8.4464158106E-07    8.3144134378E-07
    8.1844715038E-07    8.0565578968E-07    7.9306410045E-07    7.8066897064E-07
    7.6846733660E-07    7.5645618234E-07    7.4463253880E-07    7.3299348310E-07
    7.2153613785E-07    7.1025767042E-07    6.9915529224E-07    6.8822625816E-07
    6.7746786571E-07    6.6687745450E-07    6.5645240553E-07    6.4619014057E-07
    6.3608812150E-07    6.2614384970E-07    6.1635486544E-07    6.0671874728E-07
    5.9723311148E-07    5.8789561137E-07    5.7870393685E-07    5.6965581375E-07
    5.6074900333E-07    5.5198130165E-07    5.4335053915E-07    5.3485457999E-07
    5.2649132163E-07    5.1825869424E-07    5.1015466021E-07    5.0217721369E-07
    4.9432438001E-07    4.8659421532E-07    4.7898480599E-07    4.7149426821E-07
    4.6412074750E-07    4.5686241827E-07    4.4971748335E-07    4.4268417357E-07
    4.3576074733E-07    4.2894549013E-07    4.2223671421E-07    4.1563275806E-07
    4.0913198608E-07    4.0273278814E-07    3.9643357921E-07    3.9023279893E-07
    3.8412891126E-07    3.7812040411E-07    3.7220578891E-07    3.6638360032E-07
    3.6065239582E-07    3.5501075536E-07    3.4945728103E-07    3.4399059670E-07
    3.3860934769E-07    3.3331220042E-07    3.2809784210E-07    3.2296498040E-07
    3.1791234314E-07    3.1293867795E-07    3.0804275200E-07    3.0322335167E-07
    2.9847928224E-07    2.9380936764E-07    2.8921245013E-07    2.8468738999E-07
    2.8023306530E-07    2.7584837162E-07    2.7153222172E-07    2.6728354533E-07
    2.6310128887E-07    2.5898441517E-07    2.5493190326E-07    2.5094274807E-07
    2.4701596020E-07    2.4315056569E-07    2.3934560575E-07    2.3560013657E-07
    2.3191322904E-07    2.2828396855E-07    2.2471145473E-07    2.2119480128E-07
    2.1773313572E-07    2.1432559916E-07    2.1097134612E-07    2.0766954431E-07
    2.0441937442E-07    2.0122002992E-07    1.9807071685E-07    1.9497065366E-07
    1.9191907097E-07    1.8891521142E-07    1.8595832944E-07    1.8304769113E-07
    1.8018257401E-07    1.7736226688E-07    1.7458606965E-07    1.7185329312E-07
    1.6916325888E-07    1.6651529910E-07    1.6390875635E-07    1.6134298348E-07
    1.5881734342E-07    1.5633120907E-07    1.5388396309E-07    1.5147499779E-07
    1.4910371495E-07    1.4676952570E-07    1.4447185035E-07    1.4221011828E-07
    1.3998376775E-07    1.3779224579E-07    1.3563500808E-07    1.3351151879E-07
    1.3142125044E-07    1.2936368380E-07    1.2733830775E-07    1.2534461913E-07
    1.2338212263E-07    1.2145033072E-07    1.1954876342E-07    1.1767694829E-07
    1.1583442025E-07    1.1402072147E-07    1.1223540129E-07    1.1047801607E-07
    1.0874812909E-07    1.0704531049E-07    1.0536913707E-07    1.0371919228E-07
    1.0209506605E-07    1.0049635472E-07    9.8922660947E-08    9.7373593570E-08
    9.5848767553E-08    9.4347803872E-08    9.2870329418E-08    9.1415976913E-08
    8.9984384813E-08    8.8575197221E-08    8.7188063801E-08    8.5822639688E-08
    8.4478585405E-08    8.3155566777E-08    8.1853254850E-08    8.0571325806E-08
    7.9309460887E-08    7.8067346315E-08    7.6844673214E-08    7.5641137535E-08
    7.4456439977E-08    7.3290285915E-08    7.2142385328E-08    7.1012452726E-08
    6.9900207077E-08    6.8805371745E-08    6.7727674414E-08    6.6666847023E-08
    6.5622625699E-08    6.4594750694E-08    6.3582966317E-08    6.2587020871E-08
    6.1606666596E-08    6.0641659604E-08    5.9691759815E-08    5.8756730904E-08
    5.7836340236E-08    5.6930358816E-08    5.6038561222E-08    5.5160725561E-08
    5.4296633405E-08    5.3446069741E-08    5.2608822916E-08    5.1784684586E-08
    5.0973449664E-08    5.0174916265E-08    4.9388885662E-08    4.8615162237E-08
    4.7853553427E-08    4.7103869681E-08    4.6365924408E-08    4.5639533936E-08
    4.4924517465E-08    4.4220697020E-08    4.3527897407E-08    4.2845946176E-08
    4.2174673570E-08    4.1513912484E-08    4.0863498429E-08    4.0223269487E-08
    3.9593066269E-08    3.8972731881E-08    3.8362111881E-08    3.7761054243E-08
    3.7169409318E-08    3.6587029795E-08    3.6013770669E-08    3.5449489200E-08
    3.4894044881E-08    3.4347299403E-08    3.3809116619E-08    3.3279362513E-08
    3.2757905163E-08    3.2244614710E-08    3.1739363326E-08    3.1242025182E-08
    3.0752476417E-08    3.0270595108E-08    2.9796261239E-08    2.9329356669E-08
    2.8869765108E-08    2.8417372082E-08    2.7972064909E-08    2.7533732668E-08
    2.7102266174E-08    2.6677557951E-08    2.6259502202E-08    2.5847994787E-08
    2.5442933193E-08    2.5044216513E-08    2.4651745415E-08    2.4265422123E-08
    2.3885150392E-08    2.3510835480E-08    2.3142384128E-08    2.2779704538E-08
    2.2422706344E-08    2.2071300598E-08    2.1725399741E-08    2.1384917583E-08
    2.1049769286E-08    2.0719871337E-08    2.0395141529E-08    2.0075498944E-08
    1.9760863927E-08    1.9451158071E-08    1.9146304195E-08    1.8846226326E-08
    1.8550849680E-08    1.8260100644E-08    1.7973906756E-08    1.7692196686E-08
    1.7414900224E-08    1.7141948256E-08    1.6873272749E-08    1.6608806737E-08
    1.6348484300E-08    1.6092240551E-08    1.5840011619E-08    1.5591734629E-08
    1.5347347695E-08    1.5106789894E-08    1.4870001261E-08    1.4636922768E-08
    1.4407496310E-08    1.4181664692E-08    1.3959371616E-08    1.3740561661E-08
    1.3525180277E-08    1.3313173767E-08    1.3104489273E-08    1.2899074765E-08
    1.2696879030E-08    1.2497851653E-08    1.2301943010E-08    1.2109104252E-08
    1.1919287298E-08    1.1732444817E-08    1.1548530218E-08    1.1367497642E-08
    1.1189301947E-08    1.1013898697E-08    1.0841244152E-08    1.0671295257E-08
    1.0504009630E-08    1.0339345553E-08    1.0177261962E-08    1.0017718436E-08
    9.8606751837E-09    9.7060930409E-09    9.5539334542E-09    9.4041584743E-09
    9.2567307459E-09    9.1116134987E-09    8.9687705376E-09    8.8281662352E-09
    8.6897655213E-09    8.5535338749E-09    8.4194373156E-09    8.2874423948E-09
    8.1575161879E-09    8.0296262854E-09    7.9037407854E-09    7.7798282859E-09
    7.6578578765E-09    7.5377991307E-09    7.4196220985E-09    7.3032972987E-09
    7.1887957119E-09    7.0760887731E-09    6.9651483641E-09    6.8559468080E-09
    6.7484568607E-09    6.6426517051E-09    6.5385049437E-09    6.4359905925E-09
    6.3350830744E-09    6.2357572130E-09    6.1379882256E-09    6.0417517184E-09
    5.9470236793E-09    5.8537804723E-09    5.7619988317E-09    5.6716558558E-09
    5.5827290020E-09    5.4951960803E-09    5.4090352485E-09    5.3242250064E-09
    5.2407441908E-09    5.1585719699E-09    5.0776878380E-09    4.9980716107E-09
    4.9197034196E-09    4.8425637077E-09    4.7666332240E-09    4.6918930192E-09
    4.6183244411E-09    4.5459091294E-09    4.4746290114E-09    4.4044662976E-09
    4.3354034770E-09    4.2674233130E-09    4.2005088389E-09    4.1346433536E-09
    4.0698104180E-09    4.0059938506E-09    3.9431777230E-09    3.8813463565E-09
    3.8204843180E-09    3.7605764162E-09    3.7016076976E-09    3.6435634430E-09
    3.5864291638E-09    3.5301905987E-09    3.4748337095E-09    3.4203446780E-09
    3.3667099025E-09    3.3139159943E-09    3.2619497745E-09    3.2107982707E-09
    3.1604487135E-09    3.1108885340E-09    3.0621053600E-09    3.0140870132E-09
    2.9668215059E-09    2.9202970385E-09    2.8745019960E-09    2.8294249456E-09
    2.7850546332E-09    2.7413799817E-09    2.6983900870E-09    2.6560742164E-09
    2.6144218048E-09    2.5734224529E-09    2.5330659244E-09    2.4933421432E-09
    2.4542411912E-09    2.4157533055E-09    2.3778688766E-09    2.3405784454E-09
    2.3038727008E-09    2.2677424778E-09    2.2321787551E-09    2.1971726525E-09
    2.1627154291E-09    2.1287984809E-09    2.0954133387E-09    2.0625516662E-09
    2.0302052577E-09    1.9983660359E-09    1.9670260503E-09    1.9361774748E-09
    1.9058126060E-09    1.8759238613E-09    1.8465037766E-09    1.8175450053E-09
    1.7890403155E-09    1.7609825889E-09    1.7333648187E-09    1.7061801078E-09
    1.6794216672E-09    1.6530828144E-09    1.6271569715E-09    1.6016376636E-09
    1.5765185177E-09    1.5517932602E-09    1.5274557162E-09    1.5034998073E-09
    1.4799195506E-09    1.4567090567E-09    1.4338625287E-09    1.4113742603E-09
    1.3892386350E-09    1.3674501241E-09    1.3460032856E-09    1.3248927629E-09
    1.3041132832E-09    1.2836596563E-09    1.2635267736E-09    1.2437096063E-09
    1.2242032044E-09    1.2050026958E-09    1.1861032845E-09    1.1675002498E-09
    1.1491889450E-09    1.1311647962E-09    1.1134233010E-09    1.0959600279E-09
    1.0787706146E-09    1.0618507672E-09    1.0451962593E-09    1.0288029307E-09
    1.0126666863E-09    9.9678349515E-10    9.8114938968E-10    9.6576046437E-10
    9.5061287494E-10    9.3570283736E-10    9.2102662686E-10    9.0658057722E-10
    8.9236107962E-10    8.7836458179E-10    8.6458758714E-10    8.5102665392E-10
    8.3767839430E-10    8.2453947356E-10    8.1160660925E-10    7.9887657032E-10
    7.8634617652E-10    7.7401229739E-10    7.6187185154E-10    7.4992180585E-10
    7.3815917480E-10    7.2658101962E-10    7.1518444766E-10    7.0396661154E-10
    6.9292470854E-10    6.8205597998E-10    6.7135771036E-10    6.6082722675E-10
    6.5046189812E-10    6.4025913470E-10    6.3021638730E-10    6.2033114671E-10
    6.1060094302E-10    6.0102334503E-10    5.9159595978E-10    5.8231643174E-10
    5.7318244232E-10    5.6419170928E-10    5.5534198615E-10    5.4663106170E-10
    5.3805675934E-10    5.2961693662E-10    5.2130948461E-10    5.1313232759E-10
    5.0508342231E-10    4.9716075756E-10    4.8936235364E-10    4.8168626193E-10
    4.7413056433E-10    4.6669337280E-10    4.5937282894E-10    4.5216710340E-10
    4.4507439563E-10    4.3809293329E-10    4.3122097179E-10    4.2445679391E-10
    4.1779870935E-10    4.1124505431E-10    4.0479419109E-10    3.9844450765E-10
    3.9219441717E-10    3.8604235783E-10    3.7998679225E-10    3.7402620715E-10
    3.6815911298E-10    3.6238404354E-10    3.5669955563E-10    3.5110422866E-10
    3.4559666433E-10    3.4017548624E-10    3.3483933958E-10    3.2958689083E-10
    3.2441682736E-10    3.1932785710E-10    3.1431870826E-10    3.0938812898E-10
    3.0453488702E-10    2.9975776949E-10    2.9505558248E-10    2.9042715080E-10
    2.8587131774E-10    2.8138694472E-10    2.7697291099E-10    2.7262811338E-10
    2.6835146601E-10    2.6414190004E-10    2.5999836339E-10    2.5591982046E-10
    2.5190525188E-10    2.4795365430E-10    2.4406404011E-10    2.4023543717E-10
    2.3646688859E-10    2.3275745247E-10    2.2910620169E-10    2.2551222367E-10
    2.2197462014E-10    2.1849250689E-10    2.1506501360E-10    2.1169128362E-10
    2.0837047371E-10    2.0510175386E-10    2.0188430709E-10    1.9871732919E-10
    1.9560002860E-10    1.9253162615E-10    1.8951135491E-10    1.8653845992E-10
    1.8361219814E-10    1.8073183815E-10    1.7789666000E-10    1.7510595503E-10
    1.7235902570E-10    1.6965518539E-10    1.6699375826E-10    1.6437407907E-10
    1.6179549300E-10    1.5925735550E-10    1.5675903216E-10    1.5429989850E-10
    1.5187933983E-10    1.4949675110E-10    1.4715153675E-10    1.4484311057E-10
    1.4257089553E-10    1.4033432365E-10    1.3813283584E-10    1.3596588181E-10
    1.3383291990E-10    1.3173341695E-10    1.2966684813E-10    1.2763269686E-10
    1.2563045467E-10    1.2365962105E-10    1.2171970333E-10    1.1981021660E-10
    1.1793068350E-10    1.1608063422E-10    1.1425960629E-10    1.1246714450E-10
    1.1070280076E-10    1.0896613404E-10    1.0725671020E-10    1.0557410191E-10
    1.0391788856E-10    1.0228765612E-10    1.0068299703E-10    9.9103510194E-11
    9.7548800752E-11    9.6018480053E-11    9.4512165539E-11    9.3029480652E-11
    9.1570054739E-11    9.0133522962E-11    8.8719526202E-11    8.7327710961E-11
    8.5957729305E-11    8.4609238760E-11    8.3281902215E-11    8.1975387847E-11
    8.0689369037E-11    7.9423524289E-11    7.8177537148E-11    7.6951096123E-11
    7.5743894610E-11    7.4555630797E-11
   </PP_CHI.3>
   <PP_CHI.4
       type="real"
       size="1650"
       columns="4"
       index="4"
       occupation=" 0.600"
       pseudo_energy="   -0.2368357481E+00"
       label="3D"
       l="2" >
    6.3775482291E-13    2.1431985574E-06    1.7139971248E-05    5.7815819671E-05
    1.3694016486E-04    2.6719846854E-04    4.6116454788E-04    7.3127314743E-04
    1.0897928314E-03    1.5487992583E-03    2.1201488999E-03    2.8154532641E-03
    3.6460536805E-03    4.6229967075E-03    5.7570102150E-03    7.0584801990E-03
    8.5374283791E-03    1.0203490630E-02    1.2065896295E-02    1.4133448431E-02
    1.6414505019E-02    1.8916961199E-02    2.1648232548E-02    2.4615239455E-02
    2.7824392614E-02    3.1281579675E-02    3.4992153074E-02    3.8960919071E-02
    4.3192128018E-02    4.7689465877E-02    5.2456046996E-02    5.7494408174E-02
    6.2806503996E-02    6.8393703480E-02    7.4256788010E-02    8.0395950566E-02
    8.6810796257E-02    9.3500344133E-02    1.0046303028E-01    1.0769671220E-01
    1.1519867438E-01    1.2296563521E-01    1.3099375497E-01    1.3927864515E-01
    1.4781537881E-01    1.5659850214E-01    1.6562204712E-01    1.7487954519E-01
    1.8436404204E-01    1.9406811329E-01    2.0398388117E-01    2.1410303212E-01
    2.2441683520E-01    2.3491616133E-01    2.4559150327E-01    2.5643299639E-01
    2.6743043997E-01    2.7857331918E-01    2.8985082763E-01    3.0125189032E-01
    3.1276518711E-01    3.2437917653E-01    3.3608211991E-01    3.4786210577E-01
    3.5970707439E-01    3.7160484260E-01    3.8354312854E-01    3.9550957654E-01
    4.0749178191E-01    4.1947731566E-01    4.3145374907E-01    4.4340867805E-01
    4.5532974725E-01    4.6720467384E-01    4.7902127094E-01    4.9076747062E-01
    5.0243134644E-01    5.1400113545E-01    5.2546525965E-01    5.3681234688E-01
    5.4803125092E-01    5.5911107109E-01    5.7004117095E-01    5.8081119633E-01
    5.9141109254E-01    6.0183112071E-01    6.1206187332E-01    6.2209428879E-01
    6.3191966521E-01    6.4152967307E-01    6.5091636710E-01    6.6007219709E-01
    6.6899001775E-01    6.7766309756E-01    6.8608512663E-01    6.9425022355E-01
    7.0215294119E-01    7.0978827153E-01    7.1715164948E-01    7.2423895565E-01
    7.3104651813E-01    7.3757111336E-01    7.4380996586E-01    7.4976074718E-01
    7.5542157377E-01    7.6079100397E-01    7.6586803409E-01    7.7065209362E-01
    7.7514303954E-01    7.7934114986E-01    7.8324711629E-01    7.8686203617E-01
    7.9018740368E-01    7.9322510032E-01    7.9597738466E-01    7.9844688158E-01
    8.0063657080E-01    8.0254977489E-01    8.0419014676E-01    8.0556165664E-01
    8.0666857864E-01    8.0751547692E-01    8.0810719143E-01    8.0844882340E-01
    8.0854572052E-01    8.0840346188E-01    8.0802784271E-01    8.0742485896E-01
    8.0660069176E-01    8.0556169184E-01    8.0431436383E-01    8.0286535066E-01
    8.0122141792E-01    7.9938943833E-01    7.9737637632E-01    7.9518927275E-01
    7.9283522980E-01    7.9032139613E-01    7.8765495219E-01    7.8484309588E-01
    7.8189302849E-01    7.7881194098E-01    7.7560700061E-01    7.7228533793E-01
    7.6885403422E-01    7.6532010933E-01    7.6169050994E-01    7.5797209837E-01
    7.5417164175E-01    7.5029580176E-01    7.4635112490E-01    7.4234403318E-01
    7.3828081547E-01    7.3416761922E-01    7.3001044292E-01    7.2581512893E-01
    7.2158735694E-01    7.1733263803E-01    7.1305630916E-01    7.0876352831E-01
    7.0445927013E-01    7.0014832212E-01    6.9583528139E-01    6.9152455192E-01
    6.8722034231E-01    6.8292666414E-01    6.7864733072E-01    6.7438595640E-01
    6.7014595637E-01    6.6593054683E-01    6.6174274577E-01    6.5758537402E-01
    6.5346105680E-01    6.4937222574E-01    6.4532112112E-01    6.4130979466E-01
    6.3734011250E-01    6.3341375867E-01    6.2953223874E-01    6.2569688384E-01
    6.2190885496E-01    6.1816914746E-01    6.1447859585E-01    6.1083787881E-01
    6.0724752439E-01    6.0370791536E-01    6.0021929477E-01    5.9678177167E-01
    5.9339532688E-01    5.9005981894E-01    5.8677499012E-01    5.8354047252E-01
    5.8035579421E-01    5.7722038541E-01    5.7413358471E-01    5.7109464532E-01
    5.6810274123E-01    5.6515697346E-01    5.6225637621E-01    5.5939992297E-01
    5.5658653260E-01    5.5381507530E-01    5.5108437854E-01    5.4839323287E-01
    5.4574039763E-01    5.4312460657E-01    5.4054457332E-01    5.3799899676E-01
    5.3548656620E-01    5.3300596653E-01    5.3055588308E-01    5.2813500642E-01
    5.2574203696E-01    5.2337568942E-01    5.2103469707E-01    5.1871781584E-01
    5.1642382826E-01    5.1415154718E-01    5.1189981933E-01    5.0966752870E-01
    5.0745359971E-01    5.0525700021E-01    5.0307674427E-01    5.0091189482E-01
    4.9876156601E-01    4.9662492546E-01    4.9450119631E-01    4.9238965901E-01
    4.9028965294E-01    4.8820057791E-01    4.8612189534E-01    4.8405312933E-01
    4.8199386755E-01    4.7994376181E-01    4.7790252865E-01    4.7586994935E-01
    4.7384587037E-01    4.7183020314E-01    4.6982291959E-01    4.6782403568E-01
    4.6583357830E-01    4.6385156014E-01    4.6187799196E-01    4.5991288035E-01
    4.5795622720E-01    4.5600803013E-01    4.5406828259E-01    4.5213697400E-01
    4.5021408990E-01    4.4829961211E-01    4.4639351894E-01    4.4449578530E-01
    4.4260638297E-01    4.4072528073E-01    4.3885244456E-01    4.3698783787E-01
    4.3513142163E-01    4.3328315465E-01    4.3144299368E-01    4.2961089368E-01
    4.2778680795E-01    4.2597068832E-01    4.2416248535E-01    4.2236214848E-01
    4.2056962619E-01    4.1878486614E-01    4.1700781537E-01    4.1523842035E-01
    4.1347662720E-01    4.1172238176E-01    4.0997562969E-01    4.0823631663E-01
    4.0650438824E-01    4.0477979033E-01    4.0306246891E-01    4.0135237029E-01
    3.9964944111E-01    3.9795362844E-01    3.9626487980E-01    3.9458314323E-01
    3.9290836731E-01    3.9124050121E-01    3.8957949470E-01    3.8792529822E-01
    3.8627786284E-01    3.8463714031E-01    3.8300308309E-01    3.8137564433E-01
    3.7975477788E-01    3.7814043830E-01    3.7653258087E-01    3.7493116159E-01
    3.7333613716E-01    3.7174746499E-01    3.7016510319E-01    3.6858901056E-01
    3.6701914660E-01    3.6545547147E-01    3.6389794601E-01    3.6234653172E-01
    3.6080119075E-01    3.5926188586E-01    3.5772858047E-01    3.5620123859E-01
    3.5467982484E-01    3.5316430442E-01    3.5165464311E-01    3.5015080727E-01
    3.4865276379E-01    3.4716048012E-01    3.4567392421E-01    3.4419306456E-01
    3.4271787016E-01    3.4124831049E-01    3.3978435551E-01    3.3832597568E-01
    3.3687314189E-01    3.3542582548E-01    3.3398399827E-01    3.3254763246E-01
    3.3111670071E-01    3.2969117608E-01    3.2827103203E-01    3.2685624241E-01
    3.2544678146E-01    3.2404262381E-01    3.2264374444E-01    3.2125011870E-01
    3.1986172230E-01    3.1847853128E-01    3.1710052203E-01    3.1572767128E-01
    3.1435995608E-01    3.1299735377E-01    3.1163984206E-01    3.1028739891E-01
    3.0894000261E-01    3.0759763174E-01    3.0626026517E-01    3.0492788205E-01
    3.0360046180E-01    3.0227798413E-01    3.0096042901E-01    2.9964777666E-01
    2.9834000757E-01    2.9703710249E-01    2.9573904240E-01    2.9444580854E-01
    2.9315738238E-01    2.9187374564E-01    2.9059488024E-01    2.8932076835E-01
    2.8805139238E-01    2.8678673492E-01    2.8552677880E-01    2.8427150706E-01
    2.8302090294E-01    2.8177494989E-01    2.8053363156E-01    2.7929693180E-01
    2.7806483466E-01    2.7683732435E-01    2.7561438532E-01    2.7439600215E-01
    2.7318215964E-01    2.7197284275E-01    2.7076803662E-01    2.6956772656E-01
    2.6837189805E-01    2.6718053675E-01    2.6599362845E-01    2.6481115913E-01
    2.6363311491E-01    2.6245948209E-01    2.6129024708E-01    2.6012539648E-01
    2.5896491701E-01    2.5780879556E-01    2.5665701912E-01    2.5550957486E-01
    2.5436645005E-01    2.5322763214E-01    2.5209310865E-01    2.5096286728E-01
    2.4983689582E-01    2.4871518221E-01    2.4759771450E-01    2.4648448083E-01
    2.4537546951E-01    2.4427066892E-01    2.4317006756E-01    2.4207365404E-01
    2.4098141708E-01    2.3989334550E-01    2.3880942821E-01    2.3772965424E-01
    2.3665401269E-01    2.3558249277E-01    2.3451508378E-01    2.3345177510E-01
    2.3239255619E-01    2.3133741662E-01    2.3028634601E-01    2.2923933409E-01
    2.2819637063E-01    2.2715744550E-01    2.2612254865E-01    2.2509167006E-01
    2.2406479982E-01    2.2304192806E-01    2.2202304498E-01    2.2100814084E-01
    2.1999720596E-01    2.1899023071E-01    2.1798720552E-01    2.1698812086E-01
    2.1599296728E-01    2.1500173533E-01    2.1401441564E-01    2.1303099888E-01
    2.1205147574E-01    2.1107583697E-01    2.1010407335E-01    2.0913617570E-01
    2.0817213484E-01    2.0721194167E-01    2.0625558709E-01    2.0530306203E-01
    2.0435435744E-01    2.0340946430E-01    2.0246837361E-01    2.0153107639E-01
    2.0059756367E-01    1.9966782650E-01    1.9874185596E-01    1.9781964310E-01
    1.9690117902E-01    1.9598645481E-01    1.9507546158E-01    1.9416819041E-01
    1.9326463244E-01    1.9236477876E-01    1.9146862049E-01    1.9057614873E-01
    1.8968735460E-01    1.8880222920E-01    1.8792076362E-01    1.8704294896E-01
    1.8616877631E-01    1.8529823672E-01    1.8443132128E-01    1.8356802103E-01
    1.8270832700E-01    1.8185223023E-01    1.8099972173E-01    1.8015079248E-01
    1.7930543347E-01    1.7846363565E-01    1.7762538997E-01    1.7679068734E-01
    1.7595951866E-01    1.7513187481E-01    1.7430774664E-01    1.7348712499E-01
    1.7267000066E-01    1.7185636444E-01    1.7104620708E-01    1.7023951933E-01
    1.6943629187E-01    1.6863651540E-01    1.6784018057E-01    1.6704727799E-01
    1.6625779828E-01    1.6547173199E-01    1.6468906967E-01    1.6390980182E-01
    1.6313391893E-01    1.6236141145E-01    1.6159226980E-01    1.6082648437E-01
    1.6006404553E-01    1.5930494360E-01    1.5854916889E-01    1.5779671167E-01
    1.5704756218E-01    1.5630171063E-01    1.5555914720E-01    1.5481986204E-01
    1.5408384528E-01    1.5335108700E-01    1.5262157727E-01    1.5189530612E-01
    1.5117226354E-01    1.5045243952E-01    1.4973582400E-01    1.4902240689E-01
    1.4831217809E-01    1.4760512745E-01    1.4690124481E-01    1.4620051997E-01
    1.4550294272E-01    1.4480850280E-01    1.4411718995E-01    1.4342899386E-01
    1.4274390422E-01    1.4206191067E-01    1.4138300285E-01    1.4070717036E-01
    1.4003440279E-01    1.3936468969E-01    1.3869802060E-01    1.3803438505E-01
    1.3737377253E-01    1.3671617251E-01    1.3606157446E-01    1.3540996781E-01
    1.3476134199E-01    1.3411568640E-01    1.3347299042E-01    1.3283324344E-01
    1.3219643479E-01    1.3156255383E-01    1.3093158988E-01    1.3030353226E-01
    1.2967837026E-01    1.2905609317E-01    1.2843669027E-01    1.2782015083E-01
    1.2720646410E-01    1.2659561933E-01    1.2598760576E-01    1.2538241262E-01
    1.2478002913E-01    1.2418044452E-01    1.2358364798E-01    1.2298962874E-01
    1.2239837598E-01    1.2180987892E-01    1.2122412674E-01    1.2064110864E-01
    1.2006081382E-01    1.1948323146E-01    1.1890835076E-01    1.1833616091E-01
    1.1776665110E-01    1.1719981054E-01    1.1663562841E-01    1.1607409392E-01
    1.1551519629E-01    1.1495892471E-01    1.1440526841E-01    1.1385421662E-01
    1.1330575855E-01    1.1275988345E-01    1.1221658057E-01    1.1167583916E-01
    1.1113764848E-01    1.1060199782E-01    1.1006887645E-01    1.0953827367E-01
    1.0901017879E-01    1.0848458113E-01    1.0796147003E-01    1.0744083484E-01
    1.0692266491E-01    1.0640694963E-01    1.0589367839E-01    1.0538284061E-01
    1.0487442570E-01    1.0436842311E-01    1.0386482230E-01    1.0336361275E-01
    1.0286478397E-01    1.0236832547E-01    1.0187422679E-01    1.0138247749E-01
    1.0089306714E-01    1.0040598536E-01    9.9921221757E-02    9.9438765985E-02
    9.8958607710E-02    9.8480736626E-02    9.8005142447E-02    9.7531814915E-02
    9.7060743794E-02    9.6591918873E-02    9.6125329969E-02    9.5660966923E-02
    9.5198819603E-02    9.4738877903E-02    9.4281131745E-02    9.3825571078E-02
    9.3372185879E-02    9.2920966153E-02    9.2471901935E-02    9.2024983286E-02
    9.1580200300E-02    9.1137543096E-02    9.0697001828E-02    9.0258566677E-02
    8.9822227855E-02    8.9387975605E-02    8.8955800201E-02    8.8525691949E-02
    8.8097641186E-02    8.7671638281E-02    8.7247673636E-02    8.6825737685E-02
    8.6405820893E-02    8.5987913760E-02    8.5572006819E-02    8.5158090636E-02
    8.4746155809E-02    8.4336192972E-02    8.3928192793E-02    8.3522145972E-02
    8.3118043246E-02    8.2715875384E-02    8.2315633191E-02    8.1917307507E-02
    8.1520889206E-02    8.1126369199E-02    8.0733738431E-02    8.0342987883E-02
    7.9954108570E-02    7.9567091544E-02    7.9181927894E-02    7.8798608742E-02
    7.8417125249E-02    7.8037468610E-02    7.7659630057E-02    7.7283600858E-02
    7.6909372319E-02    7.6536935781E-02    7.6166282620E-02    7.5797404251E-02
    7.5430292126E-02    7.5064937732E-02    7.4701332593E-02    7.4339468271E-02
    7.3979336363E-02    7.3620928504E-02    7.3264236367E-02    7.2909251660E-02
    7.2555966129E-02    7.2204371556E-02    7.1854459761E-02    7.1506222601E-02
    7.1159651969E-02    7.0814739795E-02    7.0471478047E-02    7.0129858730E-02
    6.9789873884E-02    6.9451515588E-02    6.9114775957E-02    6.8779647143E-02
    6.8446121335E-02    6.8114190757E-02    6.7783847673E-02    6.7455084380E-02
    6.7127893216E-02    6.6802266550E-02    6.6478196793E-02    6.6155676390E-02
    6.5834697821E-02    6.5515253605E-02    6.5197336295E-02    6.4880938483E-02
    6.4566052793E-02    6.4252671890E-02    6.3940788470E-02    6.3630395269E-02
    6.3321485056E-02    6.3014050637E-02    6.2708084853E-02    6.2403580582E-02
    6.2100530735E-02    6.1798928260E-02    6.1498766140E-02    6.1200037393E-02
    6.0902735071E-02    6.0606852262E-02    6.0312382089E-02    6.0019317710E-02
    5.9727652315E-02    5.9437379131E-02    5.9148491418E-02    5.8860982472E-02
    5.8574845620E-02    5.8290074227E-02    5.8006661687E-02    5.7724601432E-02
    5.7443886925E-02    5.7164511664E-02    5.6886469178E-02    5.6609753032E-02
    5.6334356823E-02    5.6060274180E-02    5.5787498765E-02    5.5516024274E-02
    5.5245844434E-02    5.4976953004E-02    5.4709343778E-02    5.4443010578E-02
    5.4177947262E-02    5.3914147716E-02    5.3651605860E-02    5.3390315646E-02
    5.3130271055E-02    5.2871466101E-02    5.2613894828E-02    5.2357551311E-02
    5.2102429658E-02    5.1848524003E-02    5.1595828515E-02    5.1344337390E-02
    5.1094044857E-02    5.0844945173E-02    5.0597032625E-02    5.0350301530E-02
    5.0104746234E-02    4.9860361114E-02    4.9617140575E-02    4.9375079051E-02
    4.9134171004E-02    4.8894410928E-02    4.8655793341E-02    4.8418312793E-02
    4.8181963862E-02    4.7946741153E-02    4.7712639298E-02    4.7479652959E-02
    4.7247776825E-02    4.7017005613E-02    4.6787334065E-02    4.6558756952E-02
    4.6331269074E-02    4.6104865254E-02    4.5879540344E-02    4.5655289223E-02
    4.5432106795E-02    4.5209987991E-02    4.4988927768E-02    4.4768921109E-02
    4.4549963024E-02    4.4332048546E-02    4.4115172737E-02    4.3899330681E-02
    4.3684517489E-02    4.3470728297E-02    4.3257958267E-02    4.3046202583E-02
    4.2835456456E-02    4.2625715121E-02    4.2416973836E-02    4.2209227885E-02
    4.2002472576E-02    4.1796703240E-02    4.1591915231E-02    4.1388103928E-02
    4.1185264734E-02    4.0983393074E-02    4.0782484396E-02    4.0582534173E-02
    4.0383537899E-02    4.0185491091E-02    3.9988389289E-02    3.9792228057E-02
    3.9597002978E-02    3.9402709660E-02    3.9209343732E-02    3.9016900846E-02
    3.8825376673E-02    3.8634766910E-02    3.8445067272E-02    3.8256273496E-02
    3.8068381341E-02    3.7881386588E-02    3.7695285038E-02    3.7510072512E-02
    3.7325744853E-02    3.7142297924E-02    3.6959727609E-02    3.6778029813E-02
    3.6597200459E-02    3.6417235493E-02    3.6238130879E-02    3.6059882600E-02
    3.5882486662E-02    3.5705939089E-02    3.5530235923E-02    3.5355373227E-02
    3.5181347084E-02    3.5008153594E-02    3.4835788877E-02    3.4664249073E-02
    3.4493530340E-02    3.4323628854E-02    3.4154540810E-02    3.3986262423E-02
    3.3818789923E-02    3.3652119561E-02    3.3486247606E-02    3.3321170343E-02
    3.3156884077E-02    3.2993385131E-02    3.2830669843E-02    3.2668734571E-02
    3.2507575691E-02    3.2347189593E-02    3.2187572688E-02    3.2028721401E-02
    3.1870632177E-02    3.1713301477E-02    3.1556725777E-02    3.1400901572E-02
    3.1245825373E-02    3.1091493707E-02    3.0937903118E-02    3.0785050166E-02
    3.0632931428E-02    3.0481543496E-02    3.0330882979E-02    3.0180946502E-02
    3.0031730705E-02    2.9883232245E-02    2.9735447794E-02    2.9588374039E-02
    2.9442007684E-02    2.9296345447E-02    2.9151384063E-02    2.9007120279E-02
    2.8863550862E-02    2.8720672590E-02    2.8578482258E-02    2.8436976675E-02
    2.8296152665E-02    2.8156007067E-02    2.8016536734E-02    2.7877738536E-02
    2.7739609353E-02    2.7602146084E-02    2.7465345640E-02    2.7329204946E-02
    2.7193720942E-02    2.7058890581E-02    2.6924710832E-02    2.6791178677E-02
    2.6658291111E-02    2.6526045142E-02    2.6394437796E-02    2.6263466107E-02
    2.6133127127E-02    2.6003417919E-02    2.5874335561E-02    2.5745877142E-02
    2.5618039767E-02    2.5490820553E-02    2.5364216629E-02    2.5238225139E-02
    2.5112843238E-02    2.4988068097E-02    2.4863896896E-02    2.4740326831E-02
    2.4617355109E-02    2.4494978949E-02    2.4373195585E-02    2.4252002261E-02
    2.4131396235E-02    2.4011374776E-02    2.3891935168E-02    2.3773074705E-02
    2.3654790692E-02    2.3537080450E-02    2.3419941309E-02    2.3303370611E-02
    2.3187365712E-02    2.3071923979E-02    2.2957042790E-02    2.2842719534E-02
    2.2728951615E-02    2.2615736446E-02    2.2503071453E-02    2.2390954071E-02
    2.2279381749E-02    2.2168351948E-02    2.2057862137E-02    2.1947909800E-02
    2.1838492430E-02    2.1729607532E-02    2.1621252622E-02    2.1513425226E-02
    2.1406122884E-02    2.1299343143E-02    2.1193083564E-02    2.1087341719E-02
    2.0982115187E-02    2.0877401563E-02    2.0773198449E-02    2.0669503460E-02
    2.0566314218E-02    2.0463628361E-02    2.0361443533E-02    2.0259757390E-02
    2.0158567598E-02    2.0057871836E-02    1.9957667789E-02    1.9857953156E-02
    1.9758725643E-02    1.9659982969E-02    1.9561722862E-02    1.9463943060E-02
    1.9366641311E-02    1.9269815373E-02    1.9173463014E-02    1.9077582013E-02
    1.8982170156E-02    1.8887225242E-02    1.8792745079E-02    1.8698727483E-02
    1.8605170281E-02    1.8512071309E-02    1.8419428415E-02    1.8327239452E-02
    1.8235502288E-02    1.8144214795E-02    1.8053374859E-02    1.7962980372E-02
    1.7873029238E-02    1.7783519368E-02    1.7694448684E-02    1.7605815117E-02
    1.7517616605E-02    1.7429851099E-02    1.7342516555E-02    1.7255610942E-02
    1.7169132235E-02    1.7083078418E-02    1.6997447487E-02    1.6912237444E-02
    1.6827446300E-02    1.6743072077E-02    1.6659112804E-02    1.6575566518E-02
    1.6492431266E-02    1.6409705105E-02    1.6327386098E-02    1.6245472318E-02
    1.6163961846E-02    1.6082852773E-02    1.6002143195E-02    1.5921831221E-02
    1.5841914965E-02    1.5762392551E-02    1.5683262111E-02    1.5604521785E-02
    1.5526169722E-02    1.5448204078E-02    1.5370623018E-02    1.5293424716E-02
    1.5216607352E-02    1.5140169116E-02    1.5064108206E-02    1.4988422827E-02
    1.4913111192E-02    1.4838171524E-02    1.4763602050E-02    1.4689401009E-02
    1.4615566646E-02    1.4542097213E-02    1.4468990972E-02    1.4396246191E-02
    1.4323861146E-02    1.4251834122E-02    1.4180163410E-02    1.4108847309E-02
    1.4037884126E-02    1.3967272176E-02    1.3897009781E-02    1.3827095270E-02
    1.3757526981E-02    1.3688303258E-02    1.3619422452E-02    1.3550882924E-02
    1.3482683040E-02    1.3414821173E-02    1.3347295706E-02    1.3280105027E-02
    1.3213247531E-02    1.3146721622E-02    1.3080525710E-02    1.3014658212E-02
    1.2949117552E-02    1.2883902164E-02    1.2819010484E-02    1.2754440958E-02
    1.2690192041E-02    1.2626262190E-02    1.2562649872E-02    1.2499353562E-02
    1.2436371740E-02    1.2373702892E-02    1.2311345513E-02    1.2249298104E-02
    1.2187559173E-02    1.2126127233E-02    1.2065000807E-02    1.2004178422E-02
    1.1943658613E-02    1.1883439920E-02    1.1823520892E-02    1.1763900082E-02
    1.1704576053E-02    1.1645547370E-02    1.1586812609E-02    1.1528370350E-02
    1.1470219179E-02    1.1412357690E-02    1.1354784483E-02    1.1297498164E-02
    1.1240497344E-02    1.1183780643E-02    1.1127346687E-02    1.1071194105E-02
    1.1015321536E-02    1.0959727624E-02    1.0904411019E-02    1.0849370375E-02
    1.0794604357E-02    1.0740111632E-02    1.0685890875E-02    1.0631940766E-02
    1.0578259991E-02    1.0524847244E-02    1.0471701223E-02    1.0418820632E-02
    1.0366204183E-02    1.0313850590E-02    1.0261758578E-02    1.0209926873E-02
    1.0158354209E-02    1.0107039327E-02    1.0055980973E-02    1.0005177896E-02
    9.9546288555E-03    9.9043326132E-03    9.8542879378E-03    9.8044936035E-03
    9.7549483902E-03    9.7056510833E-03    9.6566004740E-03    9.6077953589E-03
    9.5592345402E-03    9.5109168257E-03    9.4628410286E-03    9.4150059678E-03
    9.3674104673E-03    9.3200533569E-03    9.2729334716E-03    9.2260496520E-03
    9.1794007439E-03    9.1329855984E-03    9.0868030722E-03    9.0408520270E-03
    8.9951313300E-03    8.9496398536E-03    8.9043764753E-03    8.8593400781E-03
    8.8145295500E-03    8.7699437842E-03    8.7255816791E-03    8.6814421381E-03
    8.6375240699E-03    8.5938263882E-03    8.5503480118E-03    8.5070878645E-03
    8.4640448750E-03    8.4212179773E-03    8.3786061102E-03    8.3362082174E-03
    8.2940232477E-03    8.2520501547E-03    8.2102878970E-03    8.1687354380E-03
    8.1273917459E-03    8.0862557938E-03    8.0453265597E-03    8.0046030264E-03
    7.9640841812E-03    7.9237690165E-03    7.8836565291E-03    7.8437457209E-03
    7.8040355982E-03    7.7645251721E-03    7.7252134582E-03    7.6860994770E-03
    7.6471822534E-03    7.6084608169E-03    7.5699342017E-03    7.5316014464E-03
    7.4934615944E-03    7.4555136932E-03    7.4177567953E-03    7.3801899571E-03
    7.3428122401E-03    7.3056227096E-03    7.2686204358E-03    7.2318044931E-03
    7.1951739603E-03    7.1587279206E-03    7.1224654614E-03    7.0863856747E-03
    7.0504876565E-03    7.0147705073E-03    6.9792333317E-03    6.9438752389E-03
    6.9086953418E-03    6.8736927579E-03    6.8388666088E-03    6.8042160203E-03
    6.7697401223E-03    6.7354380489E-03    6.7013089381E-03    6.6673519325E-03
    6.6335661782E-03    6.5999508258E-03    6.5665050297E-03    6.5332279485E-03
    6.5001187448E-03    6.4671765851E-03    6.4344006398E-03    6.4017900836E-03
    6.3693440947E-03    6.3370618557E-03    6.3049425527E-03    6.2729853759E-03
    6.2411895194E-03    6.2095541811E-03    6.1780785627E-03    6.1467618697E-03
    6.1156033117E-03    6.0846021016E-03    6.0537574565E-03    6.0230685971E-03
    5.9925347478E-03    5.9621551368E-03    5.9319289960E-03    5.9018555609E-03
    5.8719340708E-03    5.8421637685E-03    5.8125439007E-03    5.7830737175E-03
    5.7537524726E-03    5.7245794236E-03    5.6955538312E-03    5.6666749601E-03
    5.6379420783E-03    5.6093544574E-03    5.5809113725E-03    5.5526121023E-03
    5.5244559287E-03    5.4964421374E-03    5.4685700174E-03    5.4408388612E-03
    5.4132479646E-03    5.3857966269E-03    5.3584841507E-03    5.3313098421E-03
    5.3042730106E-03    5.2773729688E-03    5.2506090328E-03    5.2239805221E-03
    5.1974867592E-03    5.1711270703E-03    5.1449007846E-03    5.1188072345E-03
    5.0928457558E-03    5.0670156874E-03    5.0413163716E-03    5.0157471538E-03
    4.9903073824E-03    4.9649964092E-03    4.9398135892E-03    4.9147582803E-03
    4.8898298436E-03    4.8650276435E-03    4.8403510472E-03    4.8157994252E-03
    4.7913721511E-03    4.7670686013E-03    4.7428881555E-03    4.7188301963E-03
    4.6948941093E-03    4.6710792831E-03    4.6473851094E-03    4.6238109828E-03
    4.6003563008E-03    4.5770204639E-03    4.5538028755E-03    4.5307029420E-03
    4.5077200726E-03    4.4848536794E-03    4.4621031775E-03    4.4394679847E-03
    4.4169475217E-03    4.3945412121E-03    4.3722484824E-03    4.3500687615E-03
    4.3280014817E-03    4.3060460776E-03    4.2842019869E-03    4.2624686497E-03
    4.2408455092E-03    4.2193320112E-03    4.1979276042E-03    4.1766317394E-03
    4.1554438707E-03    4.1343634547E-03    4.1133899507E-03    4.0925228206E-03
    4.0717615290E-03    4.0511055432E-03    4.0305543329E-03    4.0101073706E-03
    3.9897641313E-03    3.9695240926E-03    3.9493867348E-03    3.9293515407E-03
    3.9094179954E-03    3.8895855869E-03    3.8698538056E-03    3.8502221443E-03
    3.8306900984E-03    3.8112571658E-03    3.7919228468E-03    3.7726866443E-03
    3.7535480635E-03    3.7345066122E-03    3.7155618006E-03    3.6967131411E-03
    3.6779601488E-03    3.6593023410E-03    3.6407392376E-03    3.6222703606E-03
    3.6038952347E-03    3.5856133865E-03    3.5674243454E-03    3.5493276429E-03
    3.5313228128E-03    3.5134093913E-03    3.4955869168E-03    3.4778549302E-03
    3.4602129744E-03    3.4426605947E-03    3.4251973386E-03    3.4078227560E-03
    3.3905363989E-03    3.3733378215E-03    3.3562265803E-03    3.3392022340E-03
    3.3222643433E-03    3.3054124714E-03    3.2886461834E-03    3.2719650467E-03
    3.2553686308E-03    3.2388565073E-03    3.2224282501E-03    3.2060834351E-03
    3.1898216402E-03    3.1736424457E-03    3.1575454336E-03    3.1415301882E-03
    3.1255962960E-03    3.1097433453E-03    3.0939709265E-03    3.0782786323E-03
    3.0626660570E-03    3.0471327974E-03    3.0316784518E-03    3.0163026209E-03
    3.0010049073E-03    2.9857849154E-03    2.9706422518E-03    2.9555765250E-03
    2.9405873453E-03    2.9256743252E-03    2.9108370789E-03    2.8960752227E-03
    2.8813883748E-03    2.8667761551E-03    2.8522381856E-03    2.8377740902E-03
    2.8233834946E-03    2.8090660263E-03    2.7948213149E-03    2.7806489916E-03
    2.7665486895E-03    2.7525200437E-03    2.7385626910E-03    2.7246762700E-03
    2.7108604211E-03    2.6971147865E-03    2.6834390103E-03    2.6698327383E-03
    2.6562956181E-03    2.6428272989E-03    2.6294274320E-03    2.6160956701E-03
    2.6028316679E-03    2.5896350816E-03    2.5765055693E-03    2.5634427908E-03
    2.5504464075E-03    2.5375160826E-03    2.5246514809E-03    2.5118522690E-03
    2.4991181151E-03    2.4864486889E-03    2.4738436621E-03    2.4613027079E-03
    2.4488255010E-03    2.4364117179E-03    2.4240610366E-03    2.4117731369E-03
    2.3995477001E-03    2.3873844090E-03    2.3752829481E-03    2.3632430036E-03
    2.3512642630E-03    2.3393464156E-03    2.3274891522E-03    2.3156921651E-03
    2.3039551483E-03    2.2922777971E-03    2.2806598085E-03    2.2691008809E-03
    2.2576007145E-03    2.2461590107E-03    2.2347754726E-03    2.2234498045E-03
    2.2121817126E-03    2.2009709043E-03    2.1898170886E-03    2.1787199758E-03
    2.1676792779E-03    2.1566947082E-03    2.1457659814E-03    2.1348928138E-03
    2.1240749230E-03    2.1133120280E-03    2.1026038494E-03    2.0919501090E-03
    2.0813505302E-03    2.0708048375E-03    2.0603127571E-03    2.0498740165E-03
    2.0394883444E-03    2.0291554711E-03    2.0188751281E-03    2.0086470483E-03
    1.9984709661E-03    1.9883466169E-03    1.9782737378E-03    1.9682520670E-03
    1.9582813441E-03    1.9483613100E-03    1.9384917069E-03    1.9286722783E-03
    1.9189027691E-03    1.9091829253E-03    1.8995124943E-03    1.8898912248E-03
    1.8803188667E-03    1.8707951712E-03    1.8613198908E-03    1.8518927791E-03
    1.8425135911E-03    1.8331820830E-03    1.8238980122E-03    1.8146611373E-03
    1.8054712183E-03    1.7963280161E-03    1.7872312932E-03    1.7781808129E-03
    1.7691763400E-03    1.7602176404E-03    1.7513044810E-03    1.7424366303E-03
    1.7336138575E-03    1.7248359333E-03    1.7161026294E-03    1.7074137187E-03
    1.6987689753E-03    1.6901681743E-03    1.6816110922E-03    1.6730975063E-03
    1.6646271953E-03    1.6561999389E-03    1.6478155179E-03    1.6394737142E-03
    1.6311743110E-03    1.6229170923E-03    1.6147018434E-03    1.6065283507E-03
    1.5983964015E-03    1.5903057843E-03    1.5822562888E-03    1.5742477055E-03
    1.5662798261E-03    1.5583524434E-03    1.5504653512E-03    1.5426183443E-03
    1.5348112186E-03    1.5270437711E-03    1.5193157997E-03    1.5116271033E-03
    1.5039774820E-03    1.4963667368E-03    1.4887946698E-03    1.4812610838E-03
    1.4737657830E-03    1.4663085725E-03    1.4588892581E-03    1.4515076469E-03
    1.4441635469E-03    1.4368567671E-03    1.4295871173E-03    1.4223544084E-03
    1.4151584523E-03    1.4079990619E-03    1.4008760508E-03    1.3937892337E-03
    1.3867384264E-03    1.3797234453E-03    1.3727441081E-03    1.3658002330E-03
    1.3588916396E-03    1.3520181480E-03    1.3451795795E-03    1.3383757562E-03
    1.3316065010E-03    1.3248716380E-03    1.3181709918E-03    1.3115043881E-03
    1.3048716537E-03    1.2982726158E-03    1.2917071029E-03    1.2851749442E-03
    1.2786759697E-03    1.2722100104E-03    1.2657768980E-03    1.2593764653E-03
    1.2530085458E-03    1.2466729738E-03    1.2403695845E-03    1.2340982139E-03
    1.2278586989E-03    1.2216508773E-03    1.2154745875E-03    1.2093296689E-03
    1.2032159617E-03    1.1971333069E-03    1.1910815461E-03    1.1850605221E-03
    1.1790700782E-03    1.1731100587E-03    1.1671803084E-03    1.1612806732E-03
    1.1554109997E-03    1.1495711352E-03    1.1437609277E-03    1.1379802263E-03
    1.1322288805E-03    1.1265067408E-03    1.1208136584E-03    1.1151494852E-03
    1.1095140740E-03    1.1039072781E-03    1.0983289518E-03    1.0927789500E-03
    1.0872571284E-03    1.0817633434E-03    1.0762974522E-03    1.0708593126E-03
    1.0654487832E-03    1.0600657234E-03    1.0547099932E-03    1.0493814533E-03
    1.0440799652E-03    1.0388053910E-03    1.0335575937E-03    1.0283364367E-03
    1.0231417844E-03    1.0179735017E-03    1.0128314543E-03    1.0077155084E-03
    1.0026255311E-03    9.9756139003E-04    9.9252295359E-04    9.8751009081E-04
    9.8252267138E-04    9.7756056566E-04    9.7262364467E-04    9.6771178010E-04
    9.6282484428E-04    9.5796271019E-04    9.5312525148E-04    9.4831234243E-04
    9.4352385794E-04    9.3875967357E-04    9.3401966553E-04    9.2930371063E-04
    9.2461168632E-04    9.1994347069E-04    9.1529894242E-04    9.1067798084E-04
    9.0608046588E-04    9.0150627809E-04    8.9695529861E-04    8.9242740921E-04
    8.8792249226E-04    8.8344043071E-04    8.7898110813E-04    8.7454440867E-04
    8.7013021708E-04    8.6573841870E-04    8.6136889943E-04    8.5702154580E-04
    8.5269624486E-04    8.4839288428E-04    8.4411135230E-04    8.3985153770E-04
    8.3561332986E-04    8.3139661871E-04    8.2720129474E-04    8.2302724901E-04
    8.1887437312E-04    8.1474255923E-04    8.1063170006E-04    8.0654168887E-04
    8.0247241945E-04    7.9842378616E-04    7.9439568389E-04    7.9038800804E-04
    7.8640065459E-04    7.8243352001E-04    7.7848650133E-04    7.7455949607E-04
    7.7065240231E-04    7.6676511863E-04    7.6289754413E-04    7.5904957843E-04
    7.5522112166E-04    7.5141207446E-04    7.4762233796E-04    7.4385181383E-04
    7.4010040422E-04    7.3636801178E-04    7.3265453966E-04    7.2895989150E-04
    7.2528397143E-04    7.2162668410E-04    7.1798793460E-04    7.1436762853E-04
    7.1076567198E-04    7.0718197149E-04    7.0361643411E-04    7.0006896735E-04
    6.9653947919E-04    6.9302787807E-04    6.8953407293E-04    6.8605797314E-04
    6.8259948855E-04    6.7915852947E-04    6.7573500667E-04    6.7232883136E-04
    6.6893991523E-04    6.6556817039E-04    6.6221350942E-04    6.5887584535E-04
    6.5555509163E-04    6.5225116218E-04    6.4896397134E-04    6.4569343389E-04
    6.4243946506E-04    6.3920198049E-04    6.3598089628E-04    6.3277612892E-04
    6.2958759536E-04    6.2641521296E-04    6.2325889950E-04    6.2011857319E-04
    6.1699415265E-04    6.1388555692E-04    6.1079270545E-04    6.0771551809E-04
    6.0465391512E-04    6.0160781723E-04    5.9857714548E-04    5.9556182138E-04
    5.9256176680E-04    5.8957690403E-04    5.8660715576E-04    5.8365244507E-04
    5.8071269542E-04    5.7778783068E-04    5.7487777510E-04    5.7198245332E-04
    5.6910179035E-04    5.6623571161E-04    5.6338414288E-04    5.6054701033E-04
    5.5772424049E-04    5.5491576030E-04    5.5212149703E-04    5.4934137835E-04
    5.4657533230E-04    5.4382328726E-04    5.4108517202E-04    5.3836091569E-04
    5.3565044776E-04    5.3295369810E-04    5.3027059690E-04    5.2760107473E-04
    5.2494506251E-04    5.2230249152E-04    5.1967329338E-04    5.1705740007E-04
    5.1445474390E-04    5.1186525753E-04    5.0928887399E-04    5.0672552662E-04
    5.0417514912E-04    5.0163767551E-04    4.9911304017E-04    4.9660117780E-04
    4.9410202343E-04    4.9161551244E-04    4.8914158052E-04    4.8668016369E-04
    4.8423119833E-04    4.8179462109E-04    4.7937036900E-04    4.7695837936E-04
    4.7455858982E-04    4.7217093835E-04    4.6979536322E-04    4.6743180304E-04
    4.6508019670E-04    4.6274048343E-04
   </PP_CHI.4>
   <PP_CHI.5
       type="real"
       size="1650"
       columns="4"
       index="5"
       occupation=" 0.400"
       pseudo_energy="   -0.2390591450E+00"
       label="3D"
       l="2" >
    6.4124140026E-13    2.1508836726E-06    1.7201428018E-05    5.8023100481E-05
    1.3743104686E-04    2.6815609284E-04    4.6281693987E-04    7.3389261956E-04
    1.0936952699E-03    1.5543432959E-03    2.1277349762E-03    2.8255225763E-03
    3.6590870279E-03    4.6395132313E-03    5.7775660378E-03    7.0836669671E-03
    8.5678717116E-03    1.0239848478E-02    1.2108857217E-02    1.4183729784E-02
    1.6472851079E-02    1.8984141206E-02    2.1725038685E-02    2.4702484768E-02
    2.7922908876E-02    3.1392215195E-02    3.5115770468E-02    3.9098392988E-02
    4.3344342839E-02    4.7857313377E-02    5.2640423996E-02    5.7696214164E-02
    6.3026638761E-02    6.8633064712E-02    7.4516268927E-02    8.0676437540E-02
    8.7113166448E-02    9.3825463154E-02    1.0081174988E-01    1.0806986797E-01
    1.1559708352E-01    1.2339009431E-01    1.3144503786E-01    1.3975750079E-01
    1.4832252923E-01    1.5713464047E-01    1.6618783565E-01    1.7547561354E-01
    1.8499098538E-01    1.9472649064E-01    2.0467421381E-01    2.1482580203E-01
    2.2517248365E-01    2.3570508754E-01    2.4641406319E-01    2.5728950150E-01
    2.6832115628E-01    2.7949846630E-01    2.9081057788E-01    3.0224636808E-01
    3.1379446813E-01    3.2544328747E-01    3.3718103791E-01    3.4899575817E-01
    3.6087533856E-01    3.7280754584E-01    3.8478004816E-01    3.9678043996E-01
    4.0879626696E-01    4.2081505091E-01    4.3282431432E-01    4.4481160488E-01
    4.5676451970E-01    4.6867072919E-01    4.8051800057E-01    4.9229422097E-01
    5.0398742005E-01    5.1558579212E-01    5.2707771767E-01    5.3845178431E-01
    5.4969680699E-01    5.6080184765E-01    5.7175623400E-01    5.8254957762E-01
    5.9317179120E-01    6.0361310499E-01    6.1386408233E-01    6.2391563432E-01
    6.3375903358E-01    6.4338592704E-01    6.5278834777E-01    6.6195872588E-01
    6.7088989835E-01    6.7957511797E-01    6.8800806115E-01    6.9618283480E-01
    7.0409398215E-01    7.1173648759E-01    7.1910578044E-01    7.2619773773E-01
    7.3300868602E-01    7.3953540215E-01    7.4577511305E-01    7.5172549461E-01
    7.5738466952E-01    7.6275120422E-01    7.6782410499E-01    7.7260281307E-01
    7.7708719894E-01    7.8127755581E-01    7.8517459223E-01    7.8877942399E-01
    7.9209356525E-01    7.9511891895E-01    7.9785776655E-01    8.0031275712E-01
    8.0248689588E-01    8.0438353210E-01    8.0600634653E-01    8.0735933831E-01
    8.0844681144E-01    8.0927336090E-01    8.0984385830E-01    8.1016343729E-01
    8.1023747868E-01    8.1007159527E-01    8.0967161656E-01    8.0904357319E-01
    8.0819368140E-01    8.0712832731E-01    8.0585405118E-01    8.0437753173E-01
    8.0270557039E-01    8.0084507576E-01    7.9880304808E-01    7.9658656387E-01
    7.9420276081E-01    7.9165882275E-01    7.8896196503E-01    7.8611942004E-01
    7.8313842312E-01    7.8002619878E-01    7.7678994724E-01    7.7343683142E-01
    7.6997396431E-01    7.6640839676E-01    7.6274710571E-01    7.5899698291E-01
    7.5516482413E-01    7.5125731882E-01    7.4728104032E-01    7.4324243661E-01
    7.3914782152E-01    7.3500336653E-01    7.3081509313E-01    7.2658886569E-01
    7.2233038489E-01    7.1804518172E-01    7.1373861206E-01    7.0941585170E-01
    7.0508189210E-01    7.0074153648E-01    6.9639939663E-01    6.9205989014E-01
    6.8772723823E-01    6.8340546399E-01    6.7909839130E-01    6.7480964403E-01
    6.7054264591E-01    6.6630062071E-01    6.6208659304E-01    6.5790338942E-01
    6.5375363987E-01    6.4963977990E-01    6.4556405287E-01    6.4152851269E-01
    6.3753502696E-01    6.3358528035E-01    6.2968077835E-01    6.2582285132E-01
    6.2201265877E-01    6.1825119397E-01    6.1453928872E-01    6.1087761842E-01
    6.0726670729E-01    6.0370693376E-01    6.0019853610E-01    5.9674161809E-01
    5.9333615490E-01    5.8998199905E-01    5.8667888645E-01    5.8342644252E-01
    5.8022418837E-01    5.7707154702E-01    5.7396784968E-01    5.7091234192E-01
    5.6790419000E-01    5.6494248706E-01    5.6202625930E-01    5.5915447216E-01
    5.5632603639E-01    5.5353981406E-01    5.5079462450E-01    5.4808925015E-01
    5.4542244226E-01    5.4279292657E-01    5.4019940878E-01    5.3764057992E-01
    5.3511512159E-01    5.3262171108E-01    5.3015902626E-01    5.2772575042E-01
    5.2532057686E-01    5.2294221333E-01    5.2058938638E-01    5.1826084539E-01
    5.1595536656E-01    5.1367175661E-01    5.1140885641E-01    5.0916554427E-01
    5.0694073920E-01    5.0473340389E-01    5.0254254747E-01    5.0036722818E-01
    4.9820655576E-01    4.9605969366E-01    4.9392586111E-01    4.9180433489E-01
    4.8969445099E-01    4.8759560609E-01    4.8550725871E-01    4.8342893037E-01
    4.8136020632E-01    4.7930073630E-01    4.7725023499E-01    4.7520848208E-01
    4.7317532266E-01    4.7115066709E-01    4.6913448647E-01    4.6712679659E-01
    4.6512762426E-01    4.6313698167E-01    4.6115487892E-01    4.5918132192E-01
    4.5721631191E-01    4.5525984589E-01    4.5331191664E-01    4.5137251297E-01
    4.4944161980E-01    4.4751921834E-01    4.4560528630E-01    4.4369979801E-01
    4.4180272465E-01    4.3991403444E-01    4.3803369280E-01    4.3616166257E-01
    4.3429790419E-01    4.3244237592E-01    4.3059503398E-01    4.2875583280E-01
    4.2692472516E-01    4.2510166241E-01    4.2328659458E-01    4.2147947062E-01
    4.1968023853E-01    4.1788884548E-01    4.1610523802E-01    4.1432936218E-01
    4.1256116358E-01    4.1080058761E-01    4.0904757949E-01    4.0730208438E-01
    4.0556404752E-01    4.0383341425E-01    4.0211013016E-01    4.0039414111E-01
    3.9868539332E-01    3.9698383343E-01    3.9528940852E-01    3.9360206622E-01
    3.9192175468E-01    3.9024842267E-01    3.8858201953E-01    3.8692249529E-01
    3.8526980060E-01    3.8362388683E-01    3.8198470602E-01    3.8035221090E-01
    3.7872635493E-01    3.7710709229E-01    3.7549437784E-01    3.7388816719E-01
    3.7228841664E-01    3.7069508321E-01    3.6910812462E-01    3.6752749929E-01
    3.6595316632E-01    3.6438508548E-01    3.6282321724E-01    3.6126752271E-01
    3.5971796364E-01    3.5817450244E-01    3.5663710213E-01    3.5510572635E-01
    3.5358033933E-01    3.5206090591E-01    3.5054739150E-01    3.4903976207E-01
    3.4753798414E-01    3.4604202480E-01    3.4455185163E-01    3.4306743275E-01
    3.4158873679E-01    3.4011573287E-01    3.3864839059E-01    3.3718668002E-01
    3.3573057171E-01    3.3428003665E-01    3.3283504627E-01    3.3139557244E-01
    3.2996158745E-01    3.2853306400E-01    3.2710997519E-01    3.2569229454E-01
    3.2427999592E-01    3.2287305361E-01    3.2147144224E-01    3.2007513682E-01
    3.1868411270E-01    3.1729834558E-01    3.1591781151E-01    3.1454248687E-01
    3.1317234834E-01    3.1180737297E-01    3.1044753808E-01    3.0909282133E-01
    3.0774320064E-01    3.0639865427E-01    3.0505916075E-01    3.0372469889E-01
    3.0239524778E-01    3.0107078679E-01    2.9975129556E-01    2.9843675398E-01
    2.9712714222E-01    2.9582244068E-01    2.9452263003E-01    2.9322769117E-01
    2.9193760525E-01    2.9065235365E-01    2.8937191800E-01    2.8809628013E-01
    2.8682542211E-01    2.8555932623E-01    2.8429797499E-01    2.8304135112E-01
    2.8178943754E-01    2.8054221737E-01    2.7929967397E-01    2.7806179085E-01
    2.7682855175E-01    2.7559994059E-01    2.7437594148E-01    2.7315653870E-01
    2.7194171675E-01    2.7073146026E-01    2.6952575408E-01    2.6832458320E-01
    2.6712793281E-01    2.6593578824E-01    2.6474813500E-01    2.6356495875E-01
    2.6238624533E-01    2.6121198071E-01    2.6004215102E-01    2.5887674256E-01
    2.5771574175E-01    2.5655913516E-01    2.5540690952E-01    2.5425905168E-01
    2.5311554863E-01    2.5197638750E-01    2.5084155556E-01    2.4971104018E-01
    2.4858482889E-01    2.4746290931E-01    2.4634526921E-01    2.4523189647E-01
    2.4412277907E-01    2.4301790514E-01    2.4191726287E-01    2.4082084060E-01
    2.3972862677E-01    2.3864060990E-01    2.3755677864E-01    2.3647712173E-01
    2.3540162799E-01    2.3433028635E-01    2.3326308583E-01    2.3220001555E-01
    2.3114106468E-01    2.3008622252E-01    2.2903547842E-01    2.2798882183E-01
    2.2694624226E-01    2.2590772930E-01    2.2487327263E-01    2.2384286197E-01
    2.2281648714E-01    2.2179413801E-01    2.2077580450E-01    2.1976147662E-01
    2.1875114441E-01    2.1774479800E-01    2.1674242754E-01    2.1574402326E-01
    2.1474957543E-01    2.1375907435E-01    2.1277251041E-01    2.1178987400E-01
    2.1081115557E-01    2.0983634561E-01    2.0886543466E-01    2.0789841326E-01
    2.0693527202E-01    2.0597600156E-01    2.0502059254E-01    2.0406903565E-01
    2.0312132160E-01    2.0217744111E-01    2.0123738495E-01    2.0030114388E-01
    1.9936870872E-01    1.9844007026E-01    1.9751521933E-01    1.9659414677E-01
    1.9567684343E-01    1.9476330016E-01    1.9385350784E-01    1.9294745734E-01
    1.9204513954E-01    1.9114654531E-01    1.9025166554E-01    1.8936049112E-01
    1.8847301291E-01    1.8758922182E-01    1.8670910870E-01    1.8583266442E-01
    1.8495987986E-01    1.8409074586E-01    1.8322525327E-01    1.8236339293E-01
    1.8150515566E-01    1.8065053226E-01    1.7979951355E-01    1.7895209029E-01
    1.7810825326E-01    1.7726799321E-01    1.7643130086E-01    1.7559816693E-01
    1.7476858213E-01    1.7394253711E-01    1.7312002253E-01    1.7230102903E-01
    1.7148554720E-01    1.7067356765E-01    1.6986508093E-01    1.6906007758E-01
    1.6825854810E-01    1.6746048300E-01    1.6666587272E-01    1.6587470771E-01
    1.6508697837E-01    1.6430267509E-01    1.6352178822E-01    1.6274430808E-01
    1.6197022498E-01    1.6119952918E-01    1.6043221094E-01    1.5966826045E-01
    1.5890766791E-01    1.5815042348E-01    1.5739651728E-01    1.5664593940E-01
    1.5589867993E-01    1.5515472890E-01    1.5441407632E-01    1.5367671218E-01
    1.5294262644E-01    1.5221180901E-01    1.5148424981E-01    1.5075993869E-01
    1.5003886551E-01    1.4932102007E-01    1.4860639217E-01    1.4789497157E-01
    1.4718674800E-01    1.4648171117E-01    1.4577985075E-01    1.4508115642E-01
    1.4438561780E-01    1.4369322448E-01    1.4300396607E-01    1.4231783211E-01
    1.4163481213E-01    1.4095489566E-01    1.4027807217E-01    1.3960433113E-01
    1.3893366200E-01    1.3826605419E-01    1.3760149711E-01    1.3693998014E-01
    1.3628149265E-01    1.3562602398E-01    1.3497356346E-01    1.3432410041E-01
    1.3367762411E-01    1.3303412385E-01    1.3239358888E-01    1.3175600846E-01
    1.3112137182E-01    1.3048966818E-01    1.2986088674E-01    1.2923501670E-01
    1.2861204725E-01    1.2799196755E-01    1.2737476677E-01    1.2676043407E-01
    1.2614895858E-01    1.2554032944E-01    1.2493453579E-01    1.2433156674E-01
    1.2373141141E-01    1.2313405891E-01    1.2253949835E-01    1.2194771883E-01
    1.2135870945E-01    1.2077245931E-01    1.2018895750E-01    1.1960819312E-01
    1.1903015527E-01    1.1845483303E-01    1.1788221551E-01    1.1731229179E-01
    1.1674505100E-01    1.1618048221E-01    1.1561857455E-01    1.1505931712E-01
    1.1450269905E-01    1.1394870945E-01    1.1339733745E-01    1.1284857220E-01
    1.1230240283E-01    1.1175881850E-01    1.1121780838E-01    1.1067936163E-01
    1.1014346744E-01    1.0961011499E-01    1.0907929351E-01    1.0855099220E-01
    1.0802520030E-01    1.0750190705E-01    1.0698110171E-01    1.0646277356E-01
    1.0594691188E-01    1.0543350597E-01    1.0492254517E-01    1.0441401880E-01
    1.0390791623E-01    1.0340422683E-01    1.0290293998E-01    1.0240404512E-01
    1.0190753165E-01    1.0141338905E-01    1.0092160677E-01    1.0043217432E-01
    9.9945081212E-02    9.9460316983E-02    9.8977871195E-02    9.8497733432E-02
    9.8019893301E-02    9.7544340436E-02    9.7071064492E-02    9.6600055152E-02
    9.6131302122E-02    9.5664795135E-02    9.5200523950E-02    9.4738478354E-02
    9.4278648159E-02    9.3821023206E-02    9.3365593362E-02    9.2912348523E-02
    9.2461278615E-02    9.2012373592E-02    9.1565623435E-02    9.1121018158E-02
    9.0678547804E-02    9.0238202443E-02    8.9799972181E-02    8.9363847151E-02
    8.8929817518E-02    8.8497873478E-02    8.8068005260E-02    8.7640203124E-02
    8.7214457362E-02    8.6790758301E-02    8.6369096296E-02    8.5949461739E-02
    8.5531845055E-02    8.5116236699E-02    8.4702627164E-02    8.4291006975E-02
    8.3881366690E-02    8.3473696902E-02    8.3067988241E-02    8.2664231367E-02
    8.2262416979E-02    8.1862535809E-02    8.1464578625E-02    8.1068536229E-02
    8.0674399459E-02    8.0282159191E-02    7.9891806333E-02    7.9503331831E-02
    7.9116726667E-02    7.8731981859E-02    7.8349088460E-02    7.7968037563E-02
    7.7588820292E-02    7.7211427812E-02    7.6835851323E-02    7.6462082061E-02
    7.6090111301E-02    7.5719930352E-02    7.5351530563E-02    7.4984903317E-02
    7.4620040037E-02    7.4256932180E-02    7.3895571242E-02    7.3535948757E-02
    7.3178056294E-02    7.2821885460E-02    7.2467427901E-02    7.2114675298E-02
    7.1763619370E-02    7.1414251874E-02    7.1066564603E-02    7.0720549388E-02
    7.0376198099E-02    7.0033502639E-02    6.9692454954E-02    6.9353047022E-02
    6.9015270860E-02    6.8679118525E-02    6.8344582106E-02    6.8011653735E-02
    6.7680325575E-02    6.7350589831E-02    6.7022438743E-02    6.6695864587E-02
    6.6370859678E-02    6.6047416367E-02    6.5725527041E-02    6.5405184125E-02
    6.5086380079E-02    6.4769107402E-02    6.4453358628E-02    6.4139126327E-02
    6.3826403107E-02    6.3515181610E-02    6.3205454517E-02    6.2897214542E-02
    6.2590454439E-02    6.2285166993E-02    6.1981345030E-02    6.1678981407E-02
    6.1378069020E-02    6.1078600800E-02    6.0780569712E-02    6.0483968757E-02
    6.0188790972E-02    5.9895029428E-02    5.9602677232E-02    5.9311727525E-02
    5.9022173483E-02    5.8734008318E-02    5.8447225274E-02    5.8161817631E-02
    5.7877778703E-02    5.7595101839E-02    5.7313780420E-02    5.7033807862E-02
    5.6755177616E-02    5.6477883165E-02    5.6201918025E-02    5.5927275748E-02
    5.5653949915E-02    5.5381934145E-02    5.5111222087E-02    5.4841807422E-02
    5.4573683867E-02    5.4306845167E-02    5.4041285105E-02    5.3776997490E-02
    5.3513976168E-02    5.3252215015E-02    5.2991707939E-02    5.2732448879E-02
    5.2474431807E-02    5.2217650724E-02    5.1962099664E-02    5.1707772693E-02
    5.1454663905E-02    5.1202767427E-02    5.0952077416E-02    5.0702588059E-02
    5.0454293574E-02    5.0207188208E-02    4.9961266239E-02    4.9716521975E-02
    4.9472949753E-02    4.9230543939E-02    4.8989298930E-02    4.8749209151E-02
    4.8510269057E-02    4.8272473130E-02    4.8035815882E-02    4.7800291854E-02
    4.7565895616E-02    4.7332621763E-02    4.7100464922E-02    4.6869419746E-02
    4.6639480917E-02    4.6410643141E-02    4.6182901157E-02    4.5956249728E-02
    4.5730683644E-02    4.5506197724E-02    4.5282786811E-02    4.5060445778E-02
    4.4839169522E-02    4.4618952968E-02    4.4399791067E-02    4.4181678795E-02
    4.3964611155E-02    4.3748583175E-02    4.3533589911E-02    4.3319626441E-02
    4.3106687870E-02    4.2894769329E-02    4.2683865974E-02    4.2473972984E-02
    4.2265085564E-02    4.2057198944E-02    4.1850308378E-02    4.1644409144E-02
    4.1439496545E-02    4.1235565907E-02    4.1032612582E-02    4.0830631942E-02
    4.0629619385E-02    4.0429570334E-02    4.0230480232E-02    4.0032344546E-02
    3.9835158769E-02    3.9638918412E-02    3.9443619013E-02    3.9249256130E-02
    3.9055825344E-02    3.8863322259E-02    3.8671742501E-02    3.8481081718E-02
    3.8291335580E-02    3.8102499778E-02    3.7914570024E-02    3.7727542055E-02
    3.7541411626E-02    3.7356174514E-02    3.7171826517E-02    3.6988363456E-02
    3.6805781170E-02    3.6624075521E-02    3.6443242389E-02    3.6263277677E-02
    3.6084177307E-02    3.5905937222E-02    3.5728553385E-02    3.5552021778E-02
    3.5376338404E-02    3.5201499284E-02    3.5027500461E-02    3.4854337996E-02
    3.4682007970E-02    3.4510506482E-02    3.4339829652E-02    3.4169973617E-02
    3.4000934535E-02    3.3832708581E-02    3.3665291949E-02    3.3498680853E-02
    3.3332871523E-02    3.3167860210E-02    3.3003643181E-02    3.2840216722E-02
    3.2677577137E-02    3.2515720747E-02    3.2354643893E-02    3.2194342932E-02
    3.2034814238E-02    3.1876054203E-02    3.1718059238E-02    3.1560825768E-02
    3.1404350239E-02    3.1248629110E-02    3.1093658860E-02    3.0939435984E-02
    3.0785956992E-02    3.0633218414E-02    3.0481216794E-02    3.0329948692E-02
    3.0179410687E-02    3.0029599371E-02    2.9880511356E-02    2.9732143265E-02
    2.9584491742E-02    2.9437553444E-02    2.9291325045E-02    2.9145803233E-02
    2.9000984713E-02    2.8856866205E-02    2.8713444446E-02    2.8570716186E-02
    2.8428678190E-02    2.8287327241E-02    2.8146660135E-02    2.8006673683E-02
    2.7867364711E-02    2.7728730061E-02    2.7590766587E-02    2.7453471161E-02
    2.7316840668E-02    2.7180872006E-02    2.7045562090E-02    2.6910907847E-02
    2.6776906220E-02    2.6643554165E-02    2.6510848654E-02    2.6378786669E-02
    2.6247365211E-02    2.6116581291E-02    2.5986431935E-02    2.5856914183E-02
    2.5728025089E-02    2.5599761719E-02    2.5472121153E-02    2.5345100486E-02
    2.5218696824E-02    2.5092907288E-02    2.4967729011E-02    2.4843159140E-02
    2.4719194834E-02    2.4595833267E-02    2.4473071624E-02    2.4350907102E-02
    2.4229336914E-02    2.4108358283E-02    2.3987968446E-02    2.3868164651E-02
    2.3748944160E-02    2.3630304247E-02    2.3512242198E-02    2.3394755313E-02
    2.3277840901E-02    2.3161496287E-02    2.3045718804E-02    2.2930505802E-02
    2.2815854637E-02    2.2701762683E-02    2.2588227322E-02    2.2475245949E-02
    2.2362815970E-02    2.2250934803E-02    2.2139599880E-02    2.2028808641E-02
    2.1918558540E-02    2.1808847040E-02    2.1699671618E-02    2.1591029762E-02
    2.1482918969E-02    2.1375336751E-02    2.1268280627E-02    2.1161748129E-02
    2.1055736802E-02    2.0950244200E-02    2.0845267887E-02    2.0740805440E-02
    2.0636854446E-02    2.0533412503E-02    2.0430477220E-02    2.0328046215E-02
    2.0226117118E-02    2.0124687572E-02    2.0023755225E-02    1.9923317741E-02
    1.9823372792E-02    1.9723918059E-02    1.9624951236E-02    1.9526470026E-02
    1.9428472143E-02    1.9330955310E-02    1.9233917261E-02    1.9137355740E-02
    1.9041268502E-02    1.8945653310E-02    1.8850507939E-02    1.8755830172E-02
    1.8661617804E-02    1.8567868638E-02    1.8474580488E-02    1.8381751178E-02
    1.8289378540E-02    1.8197460417E-02    1.8105994662E-02    1.8014979137E-02
    1.7924411712E-02    1.7834290270E-02    1.7744612700E-02    1.7655376903E-02
    1.7566580788E-02    1.7478222272E-02    1.7390299285E-02    1.7302809764E-02
    1.7215751654E-02    1.7129122911E-02    1.7042921500E-02    1.6957145395E-02
    1.6871792578E-02    1.6786861041E-02    1.6702348785E-02    1.6618253820E-02
    1.6534574163E-02    1.6451307843E-02    1.6368452896E-02    1.6286007367E-02
    1.6203969309E-02    1.6122336785E-02    1.6041107866E-02    1.5960280632E-02
    1.5879853170E-02    1.5799823579E-02    1.5720189963E-02    1.5640950436E-02
    1.5562103120E-02    1.5483646147E-02    1.5405577654E-02    1.5327895790E-02
    1.5250598711E-02    1.5173684579E-02    1.5097151568E-02    1.5020997858E-02
    1.4945221636E-02    1.4869821101E-02    1.4794794456E-02    1.4720139914E-02
    1.4645855697E-02    1.4571940033E-02    1.4498391158E-02    1.4425207318E-02
    1.4352386764E-02    1.4279927758E-02    1.4207828567E-02    1.4136087467E-02
    1.4064702743E-02    1.3993672686E-02    1.3922995594E-02    1.3852669775E-02
    1.3782693543E-02    1.3713065220E-02    1.3643783136E-02    1.3574845627E-02
    1.3506251039E-02    1.3437997724E-02    1.3370084040E-02    1.3302508355E-02
    1.3235269043E-02    1.3168364487E-02    1.3101793073E-02    1.3035553200E-02
    1.2969643271E-02    1.2904061695E-02    1.2838806891E-02    1.2773877285E-02
    1.2709271307E-02    1.2644987398E-02    1.2581024004E-02    1.2517379578E-02
    1.2454052580E-02    1.2391041479E-02    1.2328344747E-02    1.2265960868E-02
    1.2203888328E-02    1.2142125623E-02    1.2080671254E-02    1.2019523731E-02
    1.1958681568E-02    1.1898143288E-02    1.1837907421E-02    1.1777972500E-02
    1.1718337070E-02    1.1658999679E-02    1.1599958881E-02    1.1541213241E-02
    1.1482761326E-02    1.1424601711E-02    1.1366732979E-02    1.1309153717E-02
    1.1251862520E-02    1.1194857990E-02    1.1138138734E-02    1.1081703366E-02
    1.1025550505E-02    1.0969678780E-02    1.0914086822E-02    1.0858773270E-02
    1.0803736771E-02    1.0748975975E-02    1.0694489541E-02    1.0640276132E-02
    1.0586334419E-02    1.0532663077E-02    1.0479260789E-02    1.0426126244E-02
    1.0373258135E-02    1.0320655163E-02    1.0268316035E-02    1.0216239463E-02
    1.0164424164E-02    1.0112868865E-02    1.0061572293E-02    1.0010533186E-02
    9.9597502857E-03    9.9092223388E-03    9.8589480991E-03    9.8089263259E-03
    9.7591557839E-03    9.7096352440E-03    9.6603634822E-03    9.6113392808E-03
    9.5625614273E-03    9.5140287149E-03    9.4657399426E-03    9.4176939148E-03
    9.3698894415E-03    9.3223253382E-03    9.2750004260E-03    9.2279135313E-03
    9.1810634862E-03    9.1344491280E-03    9.0880692996E-03    9.0419228491E-03
    8.9960086303E-03    8.9503255020E-03    8.9048723285E-03    8.8596479793E-03
    8.8146513292E-03    8.7698812584E-03    8.7253366522E-03    8.6810164012E-03
    8.6369194010E-03    8.5930445525E-03    8.5493907618E-03    8.5059569401E-03
    8.4627420036E-03    8.4197448738E-03    8.3769644768E-03    8.3343997444E-03
    8.2920496128E-03    8.2499130236E-03    8.2079889231E-03    8.1662762629E-03
    8.1247739991E-03    8.0834810931E-03    8.0423965109E-03    8.0015192234E-03
    7.9608482067E-03    7.9203824412E-03    7.8801209125E-03    7.8400626108E-03
    7.8002065312E-03    7.7605516733E-03    7.7210970417E-03    7.6818416456E-03
    7.6427844988E-03    7.6039246199E-03    7.5652610320E-03    7.5267927629E-03
    7.4885188451E-03    7.4504383156E-03    7.4125502158E-03    7.3748535919E-03
    7.3373474945E-03    7.3000309787E-03    7.2629031042E-03    7.2259629350E-03
    7.1892095397E-03    7.1526419911E-03    7.1162593667E-03    7.0800607482E-03
    7.0440452217E-03    7.0082118777E-03    6.9725598110E-03    6.9370881207E-03
    6.9017959102E-03    6.8666822872E-03    6.8317463636E-03    6.7969872556E-03
    6.7624040837E-03    6.7279959723E-03    6.6937620503E-03    6.6597014507E-03
    6.6258133105E-03    6.5920967709E-03    6.5585509773E-03    6.5251750791E-03
    6.4919682298E-03    6.4589295869E-03    6.4260583121E-03    6.3933535709E-03
    6.3608145330E-03    6.3284403719E-03    6.2962302653E-03    6.2641833945E-03
    6.2322989452E-03    6.2005761066E-03    6.1690140720E-03    6.1376120385E-03
    6.1063692072E-03    6.0752847828E-03    6.0443579741E-03    6.0135879936E-03
    5.9829740575E-03    5.9525153858E-03    5.9222112025E-03    5.8920607351E-03
    5.8620632149E-03    5.8322178768E-03    5.8025239596E-03    5.7729807056E-03
    5.7435873610E-03    5.7143431753E-03    5.6852474019E-03    5.6562992977E-03
    5.6274981232E-03    5.5988431426E-03    5.5703336235E-03    5.5419688371E-03
    5.5137480581E-03    5.4856705648E-03    5.4577356391E-03    5.4299425660E-03
    5.4022906344E-03    5.3747791363E-03    5.3474073675E-03    5.3201746269E-03
    5.2930802170E-03    5.2661234436E-03    5.2393036159E-03    5.2126200464E-03
    5.1860720511E-03    5.1596589491E-03    5.1333800632E-03    5.1072347190E-03
    5.0812222457E-03    5.0553419758E-03    5.0295932449E-03    5.0039753919E-03
    4.9784877590E-03    4.9531296914E-03    4.9279005377E-03    4.9027996496E-03
    4.8778263820E-03    4.8529800929E-03    4.8282601436E-03    4.8036658982E-03
    4.7791967243E-03    4.7548519922E-03    4.7306310757E-03    4.7065333513E-03
    4.6825581987E-03    4.6587050007E-03    4.6349731430E-03    4.6113620145E-03
    4.5878710069E-03    4.5644995149E-03    4.5412469363E-03    4.5181126717E-03
    4.4950961248E-03    4.4721967021E-03    4.4494138131E-03    4.4267468702E-03
    4.4041952886E-03    4.3817584864E-03    4.3594358847E-03    4.3372269073E-03
    4.3151309808E-03    4.2931475347E-03    4.2712760014E-03    4.2495158159E-03
    4.2278664162E-03    4.2063272429E-03    4.1848977393E-03    4.1635773517E-03
    4.1423655289E-03    4.1212617226E-03    4.1002653870E-03    4.0793759791E-03
    4.0585929587E-03    4.0379157880E-03    4.0173439321E-03    3.9968768586E-03
    3.9765140379E-03    3.9562549427E-03    3.9360990487E-03    3.9160458338E-03
    3.8960947789E-03    3.8762453670E-03    3.8564970841E-03    3.8368494185E-03
    3.8173018610E-03    3.7978539052E-03    3.7785050468E-03    3.7592547844E-03
    3.7401026187E-03    3.7210480533E-03    3.7020905938E-03    3.6832297487E-03
    3.6644650287E-03    3.6457959468E-03    3.6272220187E-03    3.6087427624E-03
    3.5903576982E-03    3.5720663488E-03    3.5538682395E-03    3.5357628977E-03
    3.5177498532E-03    3.4998286382E-03    3.4819987873E-03    3.4642598371E-03
    3.4466113269E-03    3.4290527980E-03    3.4115837942E-03    3.3942038614E-03
    3.3769125479E-03    3.3597094041E-03    3.3425939827E-03    3.3255658387E-03
    3.3086245293E-03    3.2917696138E-03    3.2750006538E-03    3.2583172131E-03
    3.2417188576E-03    3.2252051553E-03    3.2087756766E-03    3.1924299939E-03
    3.1761676816E-03    3.1599883165E-03    3.1438914773E-03    3.1278767449E-03
    3.1119437023E-03    3.0960919345E-03    3.0803210286E-03    3.0646305739E-03
    3.0490201616E-03    3.0334893850E-03    3.0180378394E-03    3.0026651222E-03
    2.9873708328E-03    2.9721545724E-03    2.9570159446E-03    2.9419545546E-03
    2.9269700098E-03    2.9120619194E-03    2.8972298948E-03    2.8824735492E-03
    2.8677924976E-03    2.8531863572E-03    2.8386547470E-03    2.8241972878E-03
    2.8098136025E-03    2.7955033158E-03    2.7812660542E-03    2.7671014462E-03
    2.7530091221E-03    2.7389887141E-03    2.7250398563E-03    2.7111621844E-03
    2.6973553363E-03    2.6836189513E-03    2.6699526708E-03    2.6563561380E-03
    2.6428289977E-03    2.6293708966E-03    2.6159814834E-03    2.6026604080E-03
    2.5894073227E-03    2.5762218812E-03    2.5631037389E-03    2.5500525531E-03
    2.5370679827E-03    2.5241496885E-03    2.5112973327E-03    2.4985105796E-03
    2.4857890948E-03    2.4731325459E-03    2.4605406019E-03    2.4480129337E-03
    2.4355492137E-03    2.4231491160E-03    2.4108123165E-03    2.3985384924E-03
    2.3863273228E-03    2.3741784883E-03    2.3620916713E-03    2.3500665554E-03
    2.3381028262E-03    2.3262001708E-03    2.3143582776E-03    2.3025768370E-03
    2.2908555406E-03    2.2791940817E-03    2.2675921552E-03    2.2560494576E-03
    2.2445656866E-03    2.2331405419E-03    2.2217737242E-03    2.2104649362E-03
    2.1992138819E-03    2.1880202666E-03    2.1768837973E-03    2.1658041826E-03
    2.1547811324E-03    2.1438143580E-03    2.1329035722E-03    2.1220484895E-03
    2.1112488256E-03    2.1005042975E-03    2.0898146241E-03    2.0791795253E-03
    2.0685987225E-03    2.0580719387E-03    2.0475988981E-03    2.0371793264E-03
    2.0268129506E-03    2.0164994993E-03    2.0062387021E-03    1.9960302904E-03
    1.9858739966E-03    1.9757695547E-03    1.9657166999E-03    1.9557151689E-03
    1.9457646994E-03    1.9358650309E-03    1.9260159039E-03    1.9162170602E-03
    1.9064682431E-03    1.8967691972E-03    1.8871196681E-03    1.8775194030E-03
    1.8679681503E-03    1.8584656597E-03    1.8490116819E-03    1.8396059694E-03
    1.8302482754E-03    1.8209383547E-03    1.8116759632E-03    1.8024608582E-03
    1.7932927980E-03    1.7841715423E-03    1.7750968519E-03    1.7660684889E-03
    1.7570862166E-03    1.7481497995E-03    1.7392590033E-03    1.7304135949E-03
    1.7216133422E-03    1.7128580147E-03    1.7041473826E-03    1.6954812175E-03
    1.6868592923E-03    1.6782813807E-03    1.6697472579E-03    1.6612567001E-03
    1.6528094845E-03    1.6444053896E-03    1.6360441950E-03    1.6277256815E-03
    1.6194496308E-03    1.6112158259E-03    1.6030240508E-03    1.5948740907E-03
    1.5867657318E-03    1.5786987614E-03    1.5706729680E-03    1.5626881409E-03
    1.5547440708E-03    1.5468405493E-03    1.5389773691E-03    1.5311543239E-03
    1.5233712084E-03    1.5156278186E-03    1.5079239513E-03    1.5002594044E-03
    1.4926339768E-03    1.4850474685E-03    1.4774996805E-03    1.4699904147E-03
    1.4625194743E-03    1.4550866631E-03    1.4476917862E-03    1.4403346496E-03
    1.4330150603E-03    1.4257328262E-03    1.4184877564E-03    1.4112796607E-03
    1.4041083500E-03    1.3969736362E-03    1.3898753321E-03    1.3828132515E-03
    1.3757872092E-03    1.3687970207E-03    1.3618425027E-03    1.3549234727E-03
    1.3480397492E-03    1.3411911517E-03    1.3343775004E-03    1.3275986166E-03
    1.3208543224E-03    1.3141444409E-03    1.3074687961E-03    1.3008272128E-03
    1.2942195168E-03    1.2876455347E-03    1.2811050941E-03    1.2745980233E-03
    1.2681241517E-03    1.2616833094E-03    1.2552753275E-03    1.2489000378E-03
    1.2425572731E-03    1.2362468670E-03    1.2299686539E-03    1.2237224691E-03
    1.2175081489E-03    1.2113255300E-03    1.2051744505E-03    1.1990547489E-03
    1.1929662646E-03    1.1869088380E-03    1.1808823101E-03    1.1748865229E-03
    1.1689213191E-03    1.1629865421E-03    1.1570820365E-03    1.1512076471E-03
    1.1453632200E-03    1.1395486019E-03    1.1337636402E-03    1.1280081832E-03
    1.1222820800E-03    1.1165851802E-03    1.1109173347E-03    1.1052783945E-03
    1.0996682120E-03    1.0940866399E-03    1.0885335318E-03    1.0830087421E-03
    1.0775121259E-03    1.0720435390E-03    1.0666028381E-03    1.0611898804E-03
    1.0558045240E-03    1.0504466277E-03    1.0451160509E-03    1.0398126539E-03
    1.0345362976E-03    1.0292868436E-03    1.0240641544E-03    1.0188680928E-03
    1.0136985228E-03    1.0085553087E-03    1.0034383156E-03    9.9834740956E-04
    9.9328245691E-04    9.8824332491E-04    9.8322988144E-04    9.7824199507E-04
    9.7327953502E-04    9.6834237121E-04    9.6343037419E-04    9.5854341520E-04
    9.5368136613E-04    9.4884409952E-04    9.4403148858E-04    9.3924340716E-04
    9.3447972973E-04    9.2974033146E-04    9.2502508810E-04    9.2033387607E-04
    9.1566657242E-04    9.1102305482E-04    9.0640320157E-04    9.0180689160E-04
    8.9723400445E-04    8.9268442028E-04    8.8815801987E-04    8.8365468460E-04
    8.7917429647E-04    8.7471673807E-04    8.7028189261E-04    8.6586964388E-04
    8.6147987627E-04    8.5711247477E-04    8.5276732495E-04    8.4844431297E-04
    8.4414332558E-04    8.3986425011E-04    8.3560697444E-04    8.3137138706E-04
    8.2715737702E-04    8.2296483393E-04    8.1879364796E-04    8.1464370987E-04
    8.1051491096E-04    8.0640714309E-04    8.0232029868E-04    7.9825427068E-04
    7.9420895262E-04    7.9018423855E-04    7.8618002308E-04    7.8219620135E-04
    7.7823266904E-04    7.7428932237E-04    7.7036605808E-04    7.6646277346E-04
    7.6257936630E-04    7.5871573493E-04    7.5487177820E-04    7.5104739548E-04
    7.4724248664E-04    7.4345695209E-04    7.3969069273E-04    7.3594360997E-04
    7.3221560573E-04    7.2850658244E-04    7.2481644302E-04    7.2114509088E-04
    7.1749242995E-04    7.1385836463E-04    7.1024279981E-04    7.0664564089E-04
    7.0306679374E-04    6.9950616470E-04    6.9596366061E-04    6.9243918879E-04
    6.8893265701E-04    6.8544397353E-04    6.8197304710E-04    6.7851978689E-04
    6.7508410259E-04    6.7166590430E-04    6.6826510262E-04    6.6488160860E-04
    6.6151533372E-04    6.5816618996E-04    6.5483408972E-04    6.5151894585E-04
    6.4822067165E-04    6.4493918088E-04    6.4167438772E-04    6.3842620679E-04
    6.3519455318E-04    6.3197934238E-04    6.2878049032E-04    6.2559791338E-04
    6.2243152835E-04    6.1928125245E-04    6.1614700334E-04    6.1302869907E-04
    6.0992625814E-04    6.0683959946E-04    6.0376864235E-04    6.0071330655E-04
    5.9767351221E-04    5.9464917988E-04    5.9164023053E-04    5.8864658553E-04
    5.8566816666E-04    5.8270489609E-04    5.7975669640E-04    5.7682349056E-04
    5.7390520193E-04    5.7100175428E-04    5.6811307175E-04    5.6523907889E-04
    5.6237970062E-04    5.5953486226E-04    5.5670448949E-04    5.5388850840E-04
    5.5108684544E-04    5.4829942744E-04    5.4552618161E-04    5.4276703553E-04
    5.4002191715E-04    5.3729075480E-04    5.3457347716E-04    5.3187001329E-04
    5.2918029260E-04    5.2650424489E-04    5.2384180028E-04    5.2119288928E-04
    5.1855744275E-04    5.1593539189E-04    5.1332666826E-04    5.1073120379E-04
    5.0814893073E-04    5.0557978170E-04    5.0302368965E-04    5.0048058788E-04
    4.9795041004E-04    4.9543309010E-04    4.9292856239E-04    4.9043676156E-04
    4.8795762261E-04    4.8549108087E-04    4.8303707198E-04    4.8059553195E-04
    4.7816639709E-04    4.7574960403E-04    4.7334508975E-04    4.7095279154E-04
    4.6857264701E-04    4.6620459409E-04    4.6384857104E-04    4.6150451642E-04
    4.5917236911E-04    4.5685206831E-04    4.5454355353E-04    4.5224676458E-04
    4.4996164160E-04    4.4768812501E-04
   </PP_CHI.5>
   <PP_CHI.6
       type="real"
       size="1650"
       columns="4"
       index="6"
       occupation=" 2.000"
       pseudo_energy="   -0.3074306378E+00"
       label="4S"
       l="0" >
    6.7536254367E-14   -4.9974778125E-03   -9.9926998365E-03   -1.4983410159E-02
   -1.9967352624E-02   -2.4942270720E-02   -2.9905907477E-02   -3.4856005387E-02
   -3.9790306331E-02   -4.4706551538E-02   -4.9602481571E-02   -5.4475836334E-02
   -5.9324355119E-02   -6.4145776692E-02   -6.8937839408E-02   -7.3698281377E-02
   -7.8424840677E-02   -8.3115255604E-02   -8.7767264984E-02   -9.2378608532E-02
   -9.6947027264E-02   -1.0147026397E-01   -1.0594606376E-01   -1.1037217461E-01
   -1.1474634806E-01   -1.1906633990E-01   -1.2332991096E-01   -1.2753482794E-01
   -1.3167886430E-01   -1.3575980127E-01   -1.3977542884E-01   -1.4372354684E-01
   -1.4760196618E-01   -1.5140850995E-01   -1.5514101480E-01   -1.5879733222E-01
   -1.6237532996E-01   -1.6587289347E-01   -1.6928792742E-01   -1.7261835724E-01
   -1.7586213072E-01   -1.7901721968E-01   -1.8208162168E-01   -1.8505336169E-01
   -1.8793049396E-01   -1.9071110371E-01   -1.9339330908E-01   -1.9597526290E-01
   -1.9845515463E-01   -2.0083121223E-01   -2.0310170409E-01   -2.0526494096E-01
   -2.0731927785E-01   -2.0926311600E-01   -2.1109490479E-01   -2.1281314363E-01
   -2.1441638393E-01   -2.1590323091E-01   -2.1727234552E-01   -2.1852244627E-01
   -2.1965231101E-01   -2.2066077872E-01   -2.2154675124E-01   -2.2230919495E-01
   -2.2294714239E-01   -2.2345969385E-01   -2.2384601890E-01   -2.2410535780E-01
   -2.2423702295E-01   -2.2424040019E-01   -2.2411495000E-01   -2.2386020871E-01
   -2.2347578958E-01   -2.2296138377E-01   -2.2231676127E-01   -2.2154177171E-01
   -2.2063634507E-01   -2.1960049231E-01   -2.1843430592E-01   -2.1713796030E-01
   -2.1571171212E-01   -2.1415590050E-01   -2.1247094714E-01   -2.1065735632E-01
   -2.0871571477E-01   -2.0664669148E-01   -2.0445103737E-01   -2.0212958481E-01
   -1.9968324712E-01   -1.9711301790E-01   -1.9441997025E-01   -1.9160525589E-01
   -1.8867010421E-01   -1.8561582113E-01   -1.8244378794E-01   -1.7915546001E-01
   -1.7575236535E-01   -1.7223610315E-01   -1.6860834219E-01   -1.6487081909E-01
   -1.6102533663E-01   -1.5707376180E-01   -1.5301802388E-01   -1.4886011242E-01
   -1.4460207511E-01   -1.4024601560E-01   -1.3579409126E-01   -1.3124851084E-01
   -1.2661153210E-01   -1.2188545937E-01   -1.1707264105E-01   -1.1217546707E-01
   -1.0719636634E-01   -1.0213780404E-01   -9.7002279070E-02   -9.1792321269E-02
   -8.6510488753E-02   -8.1159365161E-02   -7.5741556907E-02   -7.0259690424E-02
   -6.4716409393E-02   -5.9114371978E-02   -5.3456248063E-02   -4.7744716499E-02
   -4.1982462358E-02   -3.6172174217E-02   -3.0316541453E-02   -2.4418251572E-02
   -1.8479987568E-02   -1.2504425315E-02   -6.4942310038E-03   -4.5205862044E-04
    5.6194525289E-03    1.1717680239E-02    1.7840021770E-02    2.3983896160E-02
    3.0146746461E-02    3.6326041928E-02    4.2519280120E-02    4.8723988948E-02
    5.4937728634E-02    6.1158093602E-02    6.7382714289E-02    7.3609258874E-02
    7.9835434925E-02    8.6058990962E-02    9.2277717934E-02    9.8489450608E-02
    1.0469206888E-01    1.1088349897E-01    1.1706171457E-01    1.2322473786E-01
    1.2937064046E-01    1.3549754429E-01    1.4160362234E-01    1.4768709930E-01
    1.5374625221E-01    1.5977941092E-01    1.6578495850E-01    1.7176133160E-01
    1.7770702063E-01    1.8362056997E-01    1.8950057800E-01    1.9534569714E-01
    2.0115463371E-01    2.0692614780E-01    2.1265905305E-01    2.1835221630E-01
    2.2400455724E-01    2.2961504793E-01    2.3518271233E-01    2.4070662572E-01
    2.4618591402E-01    2.5161975317E-01    2.5700736832E-01    2.6234803308E-01
    2.6764106866E-01    2.7288584298E-01    2.7808176974E-01    2.8322830746E-01
    2.8832495845E-01    2.9337126782E-01    2.9836682234E-01    3.0331124941E-01
    3.0820421590E-01    3.1304542704E-01    3.1783462523E-01    3.2257158888E-01
    3.2725613125E-01    3.3188809920E-01    3.3646737203E-01    3.4099386026E-01
    3.4546750443E-01    3.4988827389E-01    3.5425616557E-01    3.5857120284E-01
    3.6283343427E-01    3.6704293245E-01    3.7119979288E-01    3.7530413273E-01
    3.7935608979E-01    3.8335582129E-01    3.8730350282E-01    3.9119932725E-01
    3.9504350367E-01    3.9883625638E-01    4.0257782383E-01    4.0626845769E-01
    4.0990842185E-01    4.1349799154E-01    4.1703745237E-01    4.2052709950E-01
    4.2396723680E-01    4.2735817600E-01    4.3070023596E-01    4.3399374186E-01
    4.3723902454E-01    4.4043641976E-01    4.4358626756E-01    4.4668891163E-01
    4.4974469873E-01    4.5275397809E-01    4.5571710088E-01    4.5863441971E-01
    4.6150628816E-01    4.6433306029E-01    4.6711509025E-01    4.6985273189E-01
    4.7254633836E-01    4.7519626177E-01    4.7780285291E-01    4.8036646091E-01
    4.8288743300E-01    4.8536611425E-01    4.8780284738E-01    4.9019797250E-01
    4.9255182697E-01    4.9486474525E-01    4.9713705873E-01    4.9936909562E-01
    5.0156118088E-01    5.0371363610E-01    5.0582677946E-01    5.0790092568E-01
    5.0993638592E-01    5.1193346785E-01    5.1389247554E-01    5.1581370957E-01
    5.1769746697E-01    5.1954404128E-01    5.2135372264E-01    5.2312679778E-01
    5.2486355018E-01    5.2656426013E-01    5.2822920484E-01    5.2985865855E-01
    5.3145289261E-01    5.3301217557E-01    5.3453677328E-01    5.3602694905E-01
    5.3748296374E-01    5.3890507589E-01    5.4029354185E-01    5.4164861589E-01
    5.4297055037E-01    5.4425959578E-01    5.4551600095E-01    5.4674001312E-01
    5.4793187803E-01    5.4909184007E-01    5.5022014238E-01    5.5131702691E-01
    5.5238273452E-01    5.5341750510E-01    5.5442157760E-01    5.5539519011E-01
    5.5633857997E-01    5.5725198374E-01    5.5813563735E-01    5.5898977606E-01
    5.5981463457E-01    5.6061044699E-01    5.6137744694E-01    5.6211586751E-01
    5.6282594132E-01    5.6350790052E-01    5.6416197680E-01    5.6478840141E-01
    5.6538740515E-01    5.6595921841E-01    5.6650407110E-01    5.6702219270E-01
    5.6751381226E-01    5.6797915835E-01    5.6841845909E-01    5.6883194209E-01
    5.6921983452E-01    5.6958236301E-01    5.6991975368E-01    5.7023223214E-01
    5.7052002341E-01    5.7078335199E-01    5.7102244176E-01    5.7123751604E-01
    5.7142879750E-01    5.7159650821E-01    5.7174086956E-01    5.7186210229E-01
    5.7196042646E-01    5.7203606142E-01    5.7208922582E-01    5.7212013756E-01
    5.7212901380E-01    5.7211607093E-01    5.7208152457E-01    5.7202558955E-01
    5.7194847989E-01    5.7185040877E-01    5.7173158857E-01    5.7159223080E-01
    5.7143254612E-01    5.7125274431E-01    5.7105303428E-01    5.7083362404E-01
    5.7059472069E-01    5.7033653044E-01    5.7005925856E-01    5.6976310938E-01
    5.6944828631E-01    5.6911499181E-01    5.6876342736E-01    5.6839379350E-01
    5.6800628980E-01    5.6760111485E-01    5.6717846624E-01    5.6673854060E-01
    5.6628153355E-01    5.6580763970E-01    5.6531705269E-01    5.6480996513E-01
    5.6428656861E-01    5.6374705372E-01    5.6319161003E-01    5.6262042609E-01
    5.6203368941E-01    5.6143158649E-01    5.6081430279E-01    5.6018202275E-01
    5.5953492975E-01    5.5887320616E-01    5.5819703331E-01    5.5750659148E-01
    5.5680205993E-01    5.5608361685E-01    5.5535143942E-01    5.5460570377E-01
    5.5384658497E-01    5.5307425708E-01    5.5228889308E-01    5.5149066496E-01
    5.5067974361E-01    5.4985629892E-01    5.4902049974E-01    5.4817251384E-01
    5.4731250801E-01    5.4644064794E-01    5.4555709833E-01    5.4466202282E-01
    5.4375558403E-01    5.4283794353E-01    5.4190926186E-01    5.4096969853E-01
    5.4001941203E-01    5.3905855981E-01    5.3808729829E-01    5.3710578287E-01
    5.3611416792E-01    5.3511260680E-01    5.3410125183E-01    5.3308025433E-01
    5.3204976458E-01    5.3100993186E-01    5.2996090443E-01    5.2890282954E-01
    5.2783585342E-01    5.2676012131E-01    5.2567577740E-01    5.2458296493E-01
    5.2348182610E-01    5.2237250212E-01    5.2125513318E-01    5.2012985850E-01
    5.1899681629E-01    5.1785614376E-01    5.1670797713E-01    5.1555245163E-01
    5.1438970150E-01    5.1321985998E-01    5.1204305935E-01    5.1085943087E-01
    5.0966910485E-01    5.0847221060E-01    5.0726887644E-01    5.0605922975E-01
    5.0484339688E-01    5.0362150326E-01    5.0239367330E-01    5.0116003047E-01
    4.9992069725E-01    4.9867579517E-01    4.9742544477E-01    4.9616976564E-01
    4.9490887641E-01    4.9364289474E-01    4.9237193732E-01    4.9109611989E-01
    4.8981555724E-01    4.8853036319E-01    4.8724065062E-01    4.8594653145E-01
    4.8464811663E-01    4.8334551618E-01    4.8203883918E-01    4.8072819374E-01
    4.7941368704E-01    4.7809542530E-01    4.7677351383E-01    4.7544805695E-01
    4.7411915809E-01    4.7278691972E-01    4.7145144336E-01    4.7011282962E-01
    4.6877117816E-01    4.6742658773E-01    4.6607915614E-01    4.6472898025E-01
    4.6337615603E-01    4.6202077852E-01    4.6066294181E-01    4.5930273910E-01
    4.5794026267E-01    4.5657560386E-01    4.5520885312E-01    4.5384009999E-01
    4.5246943307E-01    4.5109694010E-01    4.4972270787E-01    4.4834682229E-01
    4.4696936837E-01    4.4559043021E-01    4.4421009103E-01    4.4282843315E-01
    4.4144553798E-01    4.4006148609E-01    4.3867635711E-01    4.3729022982E-01
    4.3590318212E-01    4.3451529102E-01    4.3312663266E-01    4.3173728232E-01
    4.3034731441E-01    4.2895680245E-01    4.2756581913E-01    4.2617443628E-01
    4.2478272485E-01    4.2339075496E-01    4.2199859588E-01    4.2060631604E-01
    4.1921398300E-01    4.1782166353E-01    4.1642942353E-01    4.1503732809E-01
    4.1364544145E-01    4.1225382707E-01    4.1086254756E-01    4.0947166472E-01
    4.0808123955E-01    4.0669133224E-01    4.0530200218E-01    4.0391330797E-01
    4.0252530740E-01    4.0113805750E-01    3.9975161449E-01    3.9836603383E-01
    3.9698137019E-01    3.9559767749E-01    3.9421500887E-01    3.9283341672E-01
    3.9145295267E-01    3.9007366760E-01    3.8869561165E-01    3.8731883421E-01
    3.8594338395E-01    3.8456930879E-01    3.8319665595E-01    3.8182547191E-01
    3.8045580245E-01    3.7908769263E-01    3.7772118681E-01    3.7635632865E-01
    3.7499316113E-01    3.7363172652E-01    3.7227206643E-01    3.7091422177E-01
    3.6955823281E-01    3.6820413912E-01    3.6685197963E-01    3.6550179262E-01
    3.6415361570E-01    3.6280748585E-01    3.6146343942E-01    3.6012151211E-01
    3.5878173900E-01    3.5744415456E-01    3.5610879264E-01    3.5477568646E-01
    3.5344486866E-01    3.5211637129E-01    3.5079022577E-01    3.4946646297E-01
    3.4814511316E-01    3.4682620604E-01    3.4550977075E-01    3.4419583585E-01
    3.4288442935E-01    3.4157557871E-01    3.4026931083E-01    3.3896565210E-01
    3.3766462834E-01    3.3636626486E-01    3.3507058644E-01    3.3377761735E-01
    3.3248738134E-01    3.3119990165E-01    3.2991520103E-01    3.2863330173E-01
    3.2735422552E-01    3.2607799365E-01    3.2480462694E-01    3.2353414570E-01
    3.2226656980E-01    3.2100191863E-01    3.1974021112E-01    3.1848146576E-01
    3.1722570060E-01    3.1597293324E-01    3.1472318085E-01    3.1347646015E-01
    3.1223278747E-01    3.1099217871E-01    3.0975464934E-01    3.0852021443E-01
    3.0728888867E-01    3.0606068631E-01    3.0483562125E-01    3.0361370697E-01
    3.0239495659E-01    3.0117938283E-01    2.9996699806E-01    2.9875781428E-01
    2.9755184311E-01    2.9634909582E-01    2.9514958335E-01    2.9395331625E-01
    2.9276030477E-01    2.9157055880E-01    2.9038408789E-01    2.8920090127E-01
    2.8802100786E-01    2.8684441623E-01    2.8567113466E-01    2.8450117111E-01
    2.8333453324E-01    2.8217122840E-01    2.8101126365E-01    2.7985464576E-01
    2.7870138119E-01    2.7755147615E-01    2.7640493655E-01    2.7526176802E-01
    2.7412197593E-01    2.7298556538E-01    2.7185254121E-01    2.7072290799E-01
    2.6959667005E-01    2.6847383146E-01    2.6735439604E-01    2.6623836738E-01
    2.6512574882E-01    2.6401654345E-01    2.6291075417E-01    2.6180838361E-01
    2.6070943420E-01    2.5961390815E-01    2.5852180742E-01    2.5743313381E-01
    2.5634788886E-01    2.5526607394E-01    2.5418769020E-01    2.5311273859E-01
    2.5204121986E-01    2.5097313458E-01    2.4990848313E-01    2.4884726569E-01
    2.4778948227E-01    2.4673513269E-01    2.4568421661E-01    2.4463673348E-01
    2.4359268263E-01    2.4255206318E-01    2.4151487410E-01    2.4048111421E-01
    2.3945078216E-01    2.3842387643E-01    2.3740039538E-01    2.3638033719E-01
    2.3536369991E-01    2.3435048144E-01    2.3334067953E-01    2.3233429180E-01
    2.3133131573E-01    2.3033174866E-01    2.2933558782E-01    2.2834283028E-01
    2.2735347301E-01    2.2636751283E-01    2.2538494646E-01    2.2440577049E-01
    2.2342998139E-01    2.2245757553E-01    2.2148854915E-01    2.2052289839E-01
    2.1956061927E-01    2.1860170772E-01    2.1764615956E-01    2.1669397050E-01
    2.1574513616E-01    2.1479965206E-01    2.1385751362E-01    2.1291871616E-01
    2.1198325494E-01    2.1105112509E-01    2.1012232167E-01    2.0919683967E-01
    2.0827467396E-01    2.0735581935E-01    2.0644027058E-01    2.0552802228E-01
    2.0461906903E-01    2.0371340533E-01    2.0281102559E-01    2.0191192416E-01
    2.0101609533E-01    2.0012353329E-01    1.9923423220E-01    1.9834818612E-01
    1.9746538908E-01    1.9658583501E-01    1.9570951781E-01    1.9483643131E-01
    1.9396656926E-01    1.9309992540E-01    1.9223649336E-01    1.9137626676E-01
    1.9051923915E-01    1.8966540401E-01    1.8881475480E-01    1.8796728491E-01
    1.8712298770E-01    1.8628185647E-01    1.8544388447E-01    1.8460906491E-01
    1.8377739098E-01    1.8294885578E-01    1.8212345242E-01    1.8130117394E-01
    1.8048201334E-01    1.7966596359E-01    1.7885301764E-01    1.7804316837E-01
    1.7723640866E-01    1.7643273132E-01    1.7563212916E-01    1.7483459495E-01
    1.7404012140E-01    1.7324870124E-01    1.7246032713E-01    1.7167499173E-01
    1.7089268764E-01    1.7011340747E-01    1.6933714378E-01    1.6856388912E-01
    1.6779363600E-01    1.6702637692E-01    1.6626210435E-01    1.6550081074E-01
    1.6474248853E-01    1.6398713012E-01    1.6323472791E-01    1.6248527426E-01
    1.6173876153E-01    1.6099518206E-01    1.6025452817E-01    1.5951679215E-01
    1.5878196630E-01    1.5805004289E-01    1.5732101419E-01    1.5659487242E-01
    1.5587160983E-01    1.5515121864E-01    1.5443369105E-01    1.5371901925E-01
    1.5300719545E-01    1.5229821180E-01    1.5159206048E-01    1.5088873364E-01
    1.5018822342E-01    1.4949052198E-01    1.4879562143E-01    1.4810351391E-01
    1.4741419152E-01    1.4672764639E-01    1.4604387060E-01    1.4536285628E-01
    1.4468459550E-01    1.4400908035E-01    1.4333630293E-01    1.4266625532E-01
    1.4199892958E-01    1.4133431780E-01    1.4067241205E-01    1.4001320439E-01
    1.3935668690E-01    1.3870285164E-01    1.3805169067E-01    1.3740319606E-01
    1.3675735988E-01    1.3611417418E-01    1.3547363103E-01    1.3483572249E-01
    1.3420044063E-01    1.3356777751E-01    1.3293772519E-01    1.3231027575E-01
    1.3168542125E-01    1.3106315377E-01    1.3044346538E-01    1.2982634815E-01
    1.2921179417E-01    1.2859979553E-01    1.2799034430E-01    1.2738343257E-01
    1.2677905245E-01    1.2617719602E-01    1.2557785539E-01    1.2498102268E-01
    1.2438668998E-01    1.2379484942E-01    1.2320549312E-01    1.2261861321E-01
    1.2203420181E-01    1.2145225108E-01    1.2087275316E-01    1.2029570019E-01
    1.1972108434E-01    1.1914889777E-01    1.1857913265E-01    1.1801178116E-01
    1.1744683550E-01    1.1688428784E-01    1.1632413039E-01    1.1576635537E-01
    1.1521095498E-01    1.1465792146E-01    1.1410724703E-01    1.1355892394E-01
    1.1301294443E-01    1.1246930077E-01    1.1192798521E-01    1.1138899005E-01
    1.1085230755E-01    1.1031793002E-01    1.0978584977E-01    1.0925605909E-01
    1.0872855033E-01    1.0820331580E-01    1.0768034785E-01    1.0715963883E-01
    1.0664118111E-01    1.0612496706E-01    1.0561098906E-01    1.0509923951E-01
    1.0458971080E-01    1.0408239536E-01    1.0357728561E-01    1.0307437399E-01
    1.0257365294E-01    1.0207511492E-01    1.0157875241E-01    1.0108455788E-01
    1.0059252382E-01    1.0010264275E-01    9.9614907171E-02    9.9129309618E-02
    9.8645842629E-02    9.8164498755E-02    9.7685270558E-02    9.7208150615E-02
    9.6733131514E-02    9.6260205852E-02    9.5789366244E-02    9.5320605313E-02
    9.4853915696E-02    9.4389290043E-02    9.3926721016E-02    9.3466201290E-02
    9.3007723553E-02    9.2551280506E-02    9.2096864863E-02    9.1644469350E-02
    9.1194086707E-02    9.0745709687E-02    9.0299331057E-02    8.9854943595E-02
    8.9412540097E-02    8.8972113366E-02    8.8533656225E-02    8.8097161507E-02
    8.7662622058E-02    8.7230030740E-02    8.6799380428E-02    8.6370664010E-02
    8.5943874390E-02    8.5519004484E-02    8.5096047222E-02    8.4674995549E-02
    8.4255842425E-02    8.3838580821E-02    8.3423203727E-02    8.3009704143E-02
    8.2598075086E-02    8.2188309585E-02    8.1780400687E-02    8.1374341451E-02
    8.0970124950E-02    8.0567744274E-02    8.0167192526E-02    7.9768462825E-02
    7.9371548304E-02    7.8976442109E-02    7.8583137405E-02    7.8191627369E-02
    7.7801905193E-02    7.7413964085E-02    7.7027797269E-02    7.6643397981E-02
    7.6260759476E-02    7.5879875021E-02    7.5500737900E-02    7.5123341411E-02
    7.4747678870E-02    7.4373743604E-02    7.4001528960E-02    7.3631028298E-02
    7.3262234993E-02    7.2895142437E-02    7.2529744037E-02    7.2166033215E-02
    7.1804003410E-02    7.1443648075E-02    7.1084960681E-02    7.0727934711E-02
    7.0372563669E-02    7.0018841069E-02    6.9666760446E-02    6.9316315348E-02
    6.8967499338E-02    6.8620305999E-02    6.8274728926E-02    6.7930761731E-02
    6.7588398043E-02    6.7247631507E-02    6.6908455784E-02    6.6570864549E-02
    6.6234851496E-02    6.5900410334E-02    6.5567534788E-02    6.5236218600E-02
    6.4906455527E-02    6.4578239343E-02    6.4251563839E-02    6.3926422820E-02
    6.3602810111E-02    6.3280719549E-02    6.2960144992E-02    6.2641080311E-02
    6.2323519394E-02    6.2007456146E-02    6.1692884489E-02    6.1379798361E-02
    6.1068191716E-02    6.0758058525E-02    6.0449392775E-02    6.0142188471E-02
    5.9836439633E-02    5.9532140298E-02    5.9229284521E-02    5.8927866370E-02
    5.8627879934E-02    5.8329319317E-02    5.8032178638E-02    5.7736452035E-02
    5.7442133661E-02    5.7149217687E-02    5.6857698300E-02    5.6567569703E-02
    5.6278826119E-02    5.5991461783E-02    5.5705470950E-02    5.5420847890E-02
    5.5137586893E-02    5.4855682261E-02    5.4575128317E-02    5.4295919397E-02
    5.4018049858E-02    5.3741514070E-02    5.3466306423E-02    5.3192421321E-02
    5.2919853186E-02    5.2648596458E-02    5.2378645593E-02    5.2109995062E-02
    5.1842639355E-02    5.1576572980E-02    5.1311790458E-02    5.1048286329E-02
    5.0786055152E-02    5.0525091498E-02    5.0265389960E-02    5.0006945144E-02
    4.9749751674E-02    4.9493804192E-02    4.9239097356E-02    4.8985625840E-02
    4.8733384336E-02    4.8482367552E-02    4.8232570215E-02    4.7983987065E-02
    4.7736612862E-02    4.7490442381E-02    4.7245470416E-02    4.7001691775E-02
    4.6759101286E-02    4.6517693790E-02    4.6277464148E-02    4.6038407236E-02
    4.5800517948E-02    4.5563791194E-02    4.5328221900E-02    4.5093805012E-02
    4.4860535488E-02    4.4628408306E-02    4.4397418459E-02    4.4167560960E-02
    4.3938830834E-02    4.3711223126E-02    4.3484732896E-02    4.3259355222E-02
    4.3035085198E-02    4.2811917934E-02    4.2589848558E-02    4.2368872214E-02
    4.2148984061E-02    4.1930179277E-02    4.1712453056E-02    4.1495800608E-02
    4.1280217160E-02    4.1065697955E-02    4.0852238252E-02    4.0639833328E-02
    4.0428478476E-02    4.0218169005E-02    4.0008900240E-02    3.9800667524E-02
    3.9593466216E-02    3.9387291689E-02    3.9182139335E-02    3.8978004563E-02
    3.8774882795E-02    3.8572769472E-02    3.8371660051E-02    3.8171550004E-02
    3.7972434820E-02    3.7774310005E-02    3.7577171080E-02    3.7381013583E-02
    3.7185833067E-02    3.6991625103E-02    3.6798385277E-02    3.6606109190E-02
    3.6414792461E-02    3.6224430725E-02    3.6035019631E-02    3.5846554846E-02
    3.5659032052E-02    3.5472446947E-02    3.5286795246E-02    3.5102072679E-02
    3.4918274991E-02    3.4735397944E-02    3.4553437316E-02    3.4372388900E-02
    3.4192248506E-02    3.4013011957E-02    3.3834675096E-02    3.3657233778E-02
    3.3480683874E-02    3.3305021274E-02    3.3130241879E-02    3.2956341608E-02
    3.2783316397E-02    3.2611162194E-02    3.2439874965E-02    3.2269450690E-02
    3.2099885367E-02    3.1931175005E-02    3.1763315633E-02    3.1596303293E-02
    3.1430134042E-02    3.1264803952E-02    3.1100309113E-02    3.0936645627E-02
    3.0773809614E-02    3.0611797205E-02    3.0450604551E-02    3.0290227816E-02
    3.0130663177E-02    2.9971906829E-02    2.9813954981E-02    2.9656803857E-02
    2.9500449696E-02    2.9344888751E-02    2.9190117291E-02    2.9036131598E-02
    2.8882927973E-02    2.8730502726E-02    2.8578852187E-02    2.8427972696E-02
    2.8277860612E-02    2.8128512306E-02    2.7979924163E-02    2.7832092586E-02
    2.7685013988E-02    2.7538684801E-02    2.7393101467E-02    2.7248260446E-02
    2.7104158210E-02    2.6960791247E-02    2.6818156059E-02    2.6676249161E-02
    2.6535067083E-02    2.6394606370E-02    2.6254863581E-02    2.6115835287E-02
    2.5977518076E-02    2.5839908548E-02    2.5703003318E-02    2.5566799015E-02
    2.5431292282E-02    2.5296479774E-02    2.5162358163E-02    2.5028924132E-02
    2.4896174381E-02    2.4764105619E-02    2.4632714574E-02    2.4501997985E-02
    2.4371952603E-02    2.4242575197E-02    2.4113862544E-02    2.3985811441E-02
    2.3858418692E-02    2.3731681119E-02    2.3605595556E-02    2.3480158850E-02
    2.3355367861E-02    2.3231219464E-02    2.3107710546E-02    2.2984838007E-02
    2.2862598761E-02    2.2740989734E-02    2.2620007866E-02    2.2499650110E-02
    2.2379913433E-02    2.2260794813E-02    2.2142291242E-02    2.2024399724E-02
    2.1907117278E-02    2.1790440934E-02    2.1674367735E-02    2.1558894737E-02
    2.1444019010E-02    2.1329737634E-02    2.1216047703E-02    2.1102946325E-02
    2.0990430619E-02    2.0878497715E-02    2.0767144759E-02    2.0656368908E-02
    2.0546167330E-02    2.0436537206E-02    2.0327475731E-02    2.0218980111E-02
    2.0111047564E-02    2.0003675320E-02    1.9896860622E-02    1.9790600726E-02
    1.9684892897E-02    1.9579734415E-02    1.9475122570E-02    1.9371054667E-02
    1.9267528019E-02    1.9164539953E-02    1.9062087808E-02    1.8960168934E-02
    1.8858780694E-02    1.8757920461E-02    1.8657585620E-02    1.8557773570E-02
    1.8458481719E-02    1.8359707488E-02    1.8261448307E-02    1.8163701622E-02
    1.8066464886E-02    1.7969735567E-02    1.7873511141E-02    1.7777789098E-02
    1.7682566938E-02    1.7587842173E-02    1.7493612325E-02    1.7399874929E-02
    1.7306627530E-02    1.7213867684E-02    1.7121592957E-02    1.7029800930E-02
    1.6938489190E-02    1.6847655338E-02    1.6757296985E-02    1.6667411754E-02
    1.6577997277E-02    1.6489051197E-02    1.6400571169E-02    1.6312554858E-02
    1.6224999941E-02    1.6137904102E-02    1.6051265040E-02    1.5965080462E-02
    1.5879348085E-02    1.5794065639E-02    1.5709230862E-02    1.5624841503E-02
    1.5540895323E-02    1.5457390092E-02    1.5374323589E-02    1.5291693606E-02
    1.5209497942E-02    1.5127734410E-02    1.5046400830E-02    1.4965495034E-02
    1.4885014862E-02    1.4804958165E-02    1.4725322806E-02    1.4646106655E-02
    1.4567307594E-02    1.4488923512E-02    1.4410952312E-02    1.4333391903E-02
    1.4256240206E-02    1.4179495151E-02    1.4103154678E-02    1.4027216735E-02
    1.3951679283E-02    1.3876540289E-02    1.3801797731E-02    1.3727449597E-02
    1.3653493884E-02    1.3579928599E-02    1.3506751756E-02    1.3433961382E-02
    1.3361555511E-02    1.3289532186E-02    1.3217889460E-02    1.3146625395E-02
    1.3075738064E-02    1.3005225545E-02    1.2935085929E-02    1.2865317314E-02
    1.2795917808E-02    1.2726885527E-02    1.2658218597E-02    1.2589915152E-02
    1.2521973336E-02    1.2454391300E-02    1.2387167205E-02    1.2320299221E-02
    1.2253785527E-02    1.2187624309E-02    1.2121813763E-02    1.2056352094E-02
    1.1991237515E-02    1.1926468246E-02    1.1862042519E-02    1.1797958571E-02
    1.1734214649E-02    1.1670809010E-02    1.1607739916E-02    1.1545005639E-02
    1.1482604460E-02    1.1420534668E-02    1.1358794560E-02    1.1297382440E-02
    1.1236296622E-02    1.1175535427E-02    1.1115097185E-02    1.1054980233E-02
    1.0995182918E-02    1.0935703592E-02    1.0876540616E-02    1.0817692362E-02
    1.0759157206E-02    1.0700933533E-02    1.0643019736E-02    1.0585414216E-02
    1.0528115383E-02    1.0471121652E-02    1.0414431448E-02    1.0358043202E-02
    1.0301955353E-02    1.0246166350E-02    1.0190674645E-02    1.0135478702E-02
    1.0080576991E-02    1.0025967987E-02    9.9716501763E-03    9.9176220502E-03
    9.8638821081E-03    9.8104288568E-03    9.7572608102E-03    9.7043764897E-03
    9.6517744236E-03    9.5994531479E-03    9.5474112053E-03    9.4956471461E-03
    9.4441595274E-03    9.3929469136E-03    9.3420078759E-03    9.2913409929E-03
    9.2409448500E-03    9.1908180394E-03    9.1409591606E-03    9.0913668197E-03
    9.0420396300E-03    8.9929762112E-03    8.9441751903E-03    8.8956352007E-03
    8.8473548828E-03    8.7993328836E-03    8.7515678570E-03    8.7040584632E-03
    8.6568033694E-03    8.6098012493E-03    8.5630507830E-03    8.5165506574E-03
    8.4702995658E-03    8.4242962080E-03    8.3785392904E-03    8.3330275255E-03
    8.2877596325E-03    8.2427343369E-03    8.1979503706E-03    8.1534064717E-03
    8.1091013847E-03    8.0650338602E-03    8.0212026553E-03    7.9776065331E-03
    7.9342442628E-03    7.8911146201E-03    7.8482163865E-03    7.8055483497E-03
    7.7631093035E-03    7.7208980476E-03    7.6789133880E-03    7.6371541364E-03
    7.5956191105E-03    7.5543071341E-03    7.5132170368E-03    7.4723476540E-03
    7.4316978271E-03    7.3912664031E-03    7.3510522351E-03    7.3110541817E-03
    7.2712711074E-03    7.2317018823E-03    7.1923453823E-03    7.1532004889E-03
    7.1142660893E-03    7.0755410763E-03    7.0370243481E-03    6.9987148087E-03
    6.9606113676E-03    6.9227129397E-03    6.8850184453E-03    6.8475268105E-03
    6.8102369666E-03    6.7731478502E-03    6.7362584035E-03    6.6995675740E-03
    6.6630743144E-03    6.6267775829E-03    6.5906763428E-03    6.5547695628E-03
    6.5190562167E-03    6.4835352837E-03    6.4482057480E-03    6.4130665991E-03
    6.3781168314E-03    6.3433554448E-03    6.3087814438E-03    6.2743938384E-03
    6.2401916435E-03    6.2061738788E-03    6.1723395692E-03    6.1386877447E-03
    6.1052174399E-03    6.0719276946E-03    6.0388175533E-03    6.0058860656E-03
    5.9731322858E-03    5.9405552729E-03    5.9081540911E-03    5.8759278089E-03
    5.8438755000E-03    5.8119962425E-03    5.7802891194E-03    5.7487532183E-03
    5.7173876317E-03    5.6861914563E-03    5.6551637939E-03    5.6243037506E-03
    5.5936104371E-03    5.5630829689E-03    5.5327204657E-03    5.5025220520E-03
    5.4724868567E-03    5.4426140131E-03    5.4129026589E-03    5.3833519366E-03
    5.3539609925E-03    5.3247289779E-03    5.2956550481E-03    5.2667383629E-03
    5.2379780863E-03    5.2093733866E-03    5.1809234366E-03    5.1526274131E-03
    5.1244844973E-03    5.0964938746E-03    5.0686547345E-03    5.0409662708E-03
    5.0134276814E-03    4.9860381684E-03    4.9587969379E-03    4.9317032003E-03
    4.9047561698E-03    4.8779550649E-03    4.8512991080E-03    4.8247875256E-03
    4.7984195481E-03    4.7721944101E-03    4.7461113499E-03    4.7201696099E-03
    4.6943684364E-03    4.6687070795E-03    4.6431847934E-03    4.6178008359E-03
    4.5925544688E-03    4.5674449578E-03    4.5424715723E-03    4.5176335855E-03
    4.4929302743E-03    4.4683609195E-03    4.4439248056E-03    4.4196212207E-03
    4.3954494567E-03    4.3714088093E-03    4.3474985776E-03    4.3237180645E-03
    4.3000665765E-03    4.2765434237E-03    4.2531479198E-03    4.2298793821E-03
    4.2067371314E-03    4.1837204920E-03    4.1608287919E-03    4.1380613624E-03
    4.1154175384E-03    4.0928966583E-03    4.0704980637E-03    4.0482211000E-03
    4.0260651158E-03    4.0040294631E-03    3.9821134973E-03    3.9603165773E-03
    3.9386380652E-03    3.9170773264E-03    3.8956337297E-03    3.8743066472E-03
    3.8530954543E-03    3.8319995296E-03    3.8110182550E-03    3.7901510156E-03
    3.7693971997E-03    3.7487561990E-03    3.7282274081E-03    3.7078102249E-03
    3.6875040504E-03    3.6673082889E-03    3.6472223477E-03    3.6272456372E-03
    3.6073775708E-03    3.5876175653E-03    3.5679650401E-03    3.5484194181E-03
    3.5289801250E-03    3.5096465894E-03    3.4904182431E-03    3.4712945209E-03
    3.4522748604E-03    3.4333587023E-03    3.4145454902E-03    3.3958346706E-03
    3.3772256928E-03    3.3587180092E-03    3.3403110751E-03    3.3220043485E-03
    3.3037972902E-03    3.2856893641E-03    3.2676800367E-03    3.2497687774E-03
    3.2319550585E-03    3.2142383547E-03    3.1966181440E-03    3.1790939067E-03
    3.1616651261E-03    3.1443312882E-03    3.1270918815E-03    3.1099463975E-03
    3.0928943302E-03    3.0759351762E-03    3.0590684350E-03    3.0422936086E-03
    3.0256102015E-03    3.0090177211E-03    2.9925156772E-03    2.9761035822E-03
    2.9597809512E-03    2.9435473018E-03    2.9274021540E-03    2.9113450306E-03
    2.8953754568E-03    2.8794929602E-03    2.8636970711E-03    2.8479873222E-03
    2.8323632486E-03    2.8168243880E-03    2.8013702804E-03    2.7860004684E-03
    2.7707144969E-03    2.7555119131E-03    2.7403922670E-03    2.7253551106E-03
    2.7103999984E-03    2.6955264872E-03    2.6807341364E-03    2.6660225074E-03
    2.6513911641E-03    2.6368396728E-03    2.6223676018E-03    2.6079745221E-03
    2.5936600066E-03    2.5794236308E-03    2.5652649721E-03    2.5511836104E-03
    2.5371791278E-03    2.5232511086E-03    2.5093991392E-03    2.4956228084E-03
    2.4819217069E-03    2.4682954279E-03    2.4547435667E-03    2.4412657204E-03
    2.4278614887E-03    2.4145304732E-03    2.4012722777E-03    2.3880865080E-03
    2.3749727721E-03    2.3619306800E-03    2.3489598439E-03    2.3360598780E-03
    2.3232303984E-03    2.3104710236E-03    2.2977813739E-03    2.2851610715E-03
    2.2726097410E-03    2.2601270085E-03    2.2477125025E-03    2.2353658534E-03
    2.2230866934E-03    2.2108746568E-03    2.1987293798E-03    2.1866505007E-03
    2.1746376594E-03    2.1626904981E-03    2.1508086606E-03    2.1389917928E-03
    2.1272395425E-03    2.1155515591E-03    2.1039274941E-03    2.0923670010E-03
    2.0808697349E-03    2.0694353528E-03    2.0580635136E-03    2.0467538780E-03
    2.0355061085E-03    2.0243198693E-03    2.0131948267E-03    2.0021306484E-03
    1.9911270041E-03    1.9801835653E-03    1.9693000052E-03    1.9584759987E-03
    1.9477112224E-03    1.9370053548E-03    1.9263580760E-03    1.9157690678E-03
    1.9052380139E-03    1.8947645994E-03    1.8843485112E-03    1.8739894380E-03
    1.8636870700E-03    1.8534410993E-03    1.8432512192E-03    1.8331171252E-03
    1.8230385139E-03    1.8130150840E-03    1.8030465356E-03    1.7931325702E-03
    1.7832728913E-03    1.7734672038E-03    1.7637152140E-03    1.7540166302E-03
    1.7443711619E-03    1.7347785203E-03    1.7252384181E-03    1.7157505697E-03
    1.7063146908E-03    1.6969304987E-03    1.6875977124E-03    1.6783160521E-03
    1.6690852398E-03    1.6599049989E-03    1.6507750541E-03    1.6416951318E-03
    1.6326649597E-03    1.6236842673E-03    1.6147527851E-03    1.6058702453E-03
    1.5970363816E-03    1.5882509290E-03    1.5795136239E-03    1.5708242042E-03
    1.5621824092E-03    1.5535879797E-03    1.5450406576E-03    1.5365401865E-03
    1.5280863112E-03    1.5196787780E-03    1.5113173345E-03    1.5030017295E-03
    1.4947317135E-03    1.4865070380E-03    1.4783274561E-03    1.4701927220E-03
    1.4621025915E-03    1.4540568215E-03    1.4460551702E-03    1.4380973972E-03
    1.4301832634E-03    1.4223125310E-03    1.4144849633E-03    1.4067003251E-03
    1.3989583825E-03    1.3912589025E-03    1.3836016538E-03    1.3759864060E-03
    1.3684129302E-03    1.3608809986E-03    1.3533903847E-03    1.3459408631E-03
    1.3385322096E-03    1.3311642015E-03    1.3238366171E-03    1.3165492357E-03
    1.3093018382E-03    1.3020942063E-03    1.2949261232E-03    1.2877973731E-03
    1.2807077414E-03    1.2736570145E-03    1.2666449803E-03    1.2596714276E-03
    1.2527361463E-03    1.2458389276E-03    1.2389795638E-03    1.2321578481E-03
    1.2253735752E-03    1.2186265406E-03    1.2119165410E-03    1.2052433743E-03
    1.1986068393E-03    1.1920067360E-03    1.1854428655E-03    1.1789150300E-03
    1.1724230326E-03    1.1659666777E-03    1.1595457706E-03    1.1531601176E-03
    1.1468095263E-03    1.1404938051E-03    1.1342127635E-03    1.1279662120E-03
    1.1217539624E-03    1.1155758270E-03    1.1094316197E-03    1.1033211549E-03
    1.0972442483E-03    1.0912007165E-03    1.0851903772E-03    1.0792130489E-03
    1.0732685513E-03    1.0673567049E-03
   </PP_CHI.6>
 </PP_PSWFC>
 <PP_NLCC type="real"  size="1650" columns="4">
    4.8428947966E+00    4.8399673283E+00    4.8311948609E+00    4.8166071620E+00
    4.7962536667E+00    4.7702032174E+00    4.7385436983E+00    4.7013815720E+00
    4.6588413185E+00    4.6110647818E+00    4.5582104291E+00    4.5004525256E+00
    4.4379802339E+00    4.3709966401E+00    4.2997177174E+00    4.2243712306E+00
    4.1451955912E+00    4.0624386700E+00    3.9763565745E+00    3.8872124000E+00
    3.7952749617E+00    3.7008175167E+00    3.6041164829E+00    3.5054501641E+00
    3.4050974878E+00    3.3033367642E+00    3.2004444731E+00    3.0966940867E+00
    2.9923549329E+00    2.8876911082E+00    2.7829604424E+00    2.6784135242E+00
    2.5742927888E+00    2.4708316742E+00    2.3682538486E+00    2.2667725118E+00
    2.1665897738E+00    2.0678961117E+00    1.9708699060E+00    1.8756770576E+00
    1.7824706845E+00    1.6913908986E+00    1.6025646606E+00    1.5161057122E+00
    1.4321145827E+00    1.3506786673E+00    1.2718723758E+00    1.1957573448E+00
    1.1223827137E+00    1.0517854571E+00    9.8399077076E-01    9.1901250661E-01
    8.5685365126E-01    7.9750684367E-01    7.4095492678E-01    6.8717152803E-01
    6.3612166382E-01    5.8776236275E-01    5.4204330277E-01    4.9890745750E-01
    4.5829174682E-01    4.2012768741E-01    3.8434203893E-01    3.5085744169E-01
    3.1959304208E-01    2.9046510224E-01    2.6338759074E-01    2.3827275128E-01
    2.1503164697E-01    1.9357467770E-01    1.7381206882E-01    1.5565432942E-01
    1.3901267890E-01    1.2379944085E-01    1.0992840364E-01    9.7315147173E-02
    8.5877335825E-02    7.5534977755E-02    6.6210650912E-02    5.7829696486E-02
    5.0320380634E-02    4.3614025564E-02    3.7645111223E-02    3.2351348980E-02
    2.7673728827E-02    2.3556541750E-02    1.9947378975E-02    1.6797109893E-02
    1.4059840496E-02    1.1692854188E-02    9.6565368440E-03    7.9142879782E-03
    6.4324198596E-03    5.1800463717E-03    4.1289633579E-03    3.2535221285E-03
    2.5304977296E-03    1.9389534851E-03    1.4601032320E-03    1.0771725689E-03
    7.7526032985E-04    5.4120139299E-04    3.6343181846E-04    2.3185720262E-04
    1.3772502417E-04    7.3501649597E-05    3.2754559537E-05    1.0040255300E-05
    7.9820679229E-07    1.2511101774E-06    8.3116363474E-06    1.9495769926E-05
    3.2842763998E-05    4.6841667527E-05    6.0364321597E-05    7.2604666295E-05
    8.3024153151E-05    9.1303017651E-05    9.7297133026E-05    1.0100013934E-04
    1.0251052126E-04    1.0200329280E-04    9.9705938022E-05    9.5878252101E-05
    9.0795727584E-05    8.4736134849E-05    7.7968953993E-05    7.0747326620E-05
    6.3302210020E-05    5.5838432557E-05    4.8532367300E-05    4.1530960412E-05
    3.4951871421E-05    2.8884503702E-05    2.3391724954E-05    1.8512098795E-05
    1.4262469781E-05    1.0640764564E-05    7.6288916412E-06    5.1956407509E-06
    3.2995006229E-06    1.8913300239E-06    9.1683198898E-07    3.1879469830E-07
    3.9074514033E-08    2.0307430751E-08    2.0734438887E-07    5.4841378205E-07
    9.9602101893E-07    1.5076002740E-06    2.0459376455E-06    2.5793879535E-06
    3.0819094169E-06    3.5329415743E-06    3.9171521613E-06    4.2240783197E-06
    4.4476866160E-06    4.5858749697E-06    4.6399378491E-06    4.6140140659E-06
    4.5145342803E-06    4.3496829937E-06    4.1288874162E-06    3.8623432341E-06
    3.5605849985E-06    3.2341066723E-06    2.8930358356E-06    2.5468631941E-06
    2.2042273782E-06    1.8727535781E-06    1.5589433407E-06    1.2681118549E-06
    1.0043682742E-06    7.7063405682E-07    5.6869393379E-07    3.9927392940E-07
    2.6214083540E-07    1.5621766605E-07    7.9709869128E-08    3.0237423479E-08
    4.9683852726E-09    7.4994898118E-10    1.4233626348E-08    4.1991712741E-08
    8.0622782271E-08    1.2684451706E-07    1.7757271882E-07    2.2998586100E-07
    2.8157500834E-07    3.3017934986E-07    3.7400795752E-07    4.1164868998E-07
    4.4206540915E-07    4.6458487140E-07    4.7887478451E-07    4.8491460241E-07
    4.8296065754E-07    4.7350721411E-07    4.5724496509E-07    4.3501840780E-07
    4.0778340850E-07    3.7656612314E-07    3.4242428336E-07    3.0641168591E-07
    2.6954654673E-07    2.3278421056E-07    1.9699453453E-07    1.6294409970E-07
    1.3128326055E-07    1.0253790547E-07    7.7105682605E-08    5.5256352940E-08
    3.7135846714E-08    2.2773508559E-08    1.2096161541E-08    4.8870129087E-09
    1.0800243807E-09   -3.0759538169E-11   -3.1198474423E-11    2.6385332270E-11
   -5.2285467211E-12    0.0000000000E+00    0.0000000000E+00    0.0000000000E+00
    0.0000000000E+00    0.0000000000E+00    0.0000000000E+00    0.0000000000E+00
    0.0000000000E+00    0.0000000000E+00    0.0000000000E+00    0.0000000000E+00
    0.0000000000E+00    0.0000000000E+00    0.0000000000E+00    0.0000000000E+00
    0.0000000000E+00    0.0000000000E+00    0.0000000000E+00    0.0000000000E+00
    0.0000000000E+00    0.0000000000E+00    0.0000000000E+00    0.0000000000E+00
    0.0000000000E+00    0.0000000000E+00    0.0000000000E+00    0.0000000000E+00
    0.0000000000E+00    0.0000000000E+00    0.0000000000E+00    0.0000000000E+00
    0.0000000000E+00    0.0000000000E+00    0.0000000000E+00    0.0000000000E+00
    0.0000000000E+00    0.0000000000E+00    0.0000000000E+00    0.0000000000E+00
    0.0000000000E+00    0.0000000000E+00    0.0000000000E+00    0.0000000000E+00
    0.0000000000E+00    0.0000000000E+00    0.0000000000E+00    0.0000000000E+00
    0.0000000000E+00    0.0000000000E+00    0.0000000000E+00    0.0000000000E+00
    0.0000000000E+00    0.0000000000E+00    0.0000000000E+00    0.0000000000E+00
    0.0000000000E+00    0.0000000000E+00    0.0000000000E+00    0.0000000000E+00
    0.0000000000E+00    0.0000000000E+00    0.0000000000E+00    0.0000000000E+00
    0.0000000000E+00    0.0000000000E+00    0.0000000000E+00    0.0000000000E+00
    0.0000000000E+00    0.0000000000E+00    0.0000000000E+00    0.0000000000E+00
    0.0000000000E+00    0.0000000000E+00    0.0000000000E+00    0.0000000000E+00
    0.0000000000E+00    0.0000000000E+00    0.0000000000E+00    0.0000000000E+00
    0.0000000000E+00    0.0000000000E+00    0.0000000000E+00    0.0000000000E+00
    0.0000000000E+00    0.0000000000E+00    0.0000000000E+00    0.0000000000E+00
    0.0000000000E+00    0.0000000000E+00    0.0000000000E+00    0.0000000000E+00
    0.0000000000E+00    0.0000000000E+00    0.0000000000E+00    0.0000000000E+00
    0.0000000000E+00    0.0000000000E+00    0.0000000000E+00    0.0000000000E+00
    0.0000000000E+00    0.0000000000E+00    0.0000000000E+00    0.0000000000E+00
    0.0000000000E+00    0.0000000000E+00    0.0000000000E+00    0.0000000000E+00
    0.0000000000E+00    0.0000000000E+00    0.0000000000E+00    0.0000000000E+00
    0.0000000000E+00    0.0000000000E+00    0.0000000000E+00    0.0000000000E+00
    0.0000000000E+00    0.0000000000E+00    0.0000000000E+00    0.0000000000E+00
    0.0000000000E+00    0.0000000000E+00    0.0000000000E+00    0.0000000000E+00
    0.0000000000E+00    0.0000000000E+00    0.0000000000E+00    0.0000000000E+00
    0.0000000000E+00    0.0000000000E+00    0.0000000000E+00    0.0000000000E+00
    0.0000000000E+00    0.0000000000E+00    0.0000000000E+00    0.0000000000E+00
    0.0000000000E+00    0.0000000000E+00    0.0000000000E+00    0.0000000000E+00
    0.0000000000E+00    0.0000000000E+00    0.0000000000E+00    0.0000000000E+00
    0.0000000000E+00    0.0000000000E+00    0.0000000000E+00    0.0000000000E+00
    0.0000000000E+00    0.0000000000E+00    0.0000000000E+00    0.0000000000E+00
    0.0000000000E+00    0.0000000000E+00    0.0000000000E+00    0.0000000000E+00
    0.0000000000E+00    0.0000000000E+00    0.0000000000E+00    0.0000000000E+00
    0.0000000000E+00    0.0000000000E+00    0.0000000000E+00    0.0000000000E+00
    0.0000000000E+00    0.0000000000E+00    0.0000000000E+00    0.0000000000E+00
    0.0000000000E+00    0.0000000000E+00    0.0000000000E+00    0.0000000000E+00
    0.0000000000E+00    0.0000000000E+00    0.0000000000E+00    0.0000000000E+00
    0.0000000000E+00    0.0000000000E+00    0.0000000000E+00    0.0000000000E+00
    0.0000000000E+00    0.0000000000E+00    0.0000000000E+00    0.0000000000E+00
    0.0000000000E+00    0.0000000000E+00    0.0000000000E+00    0.0000000000E+00
    0.0000000000E+00    0.0000000000E+00    0.0000000000E+00    0.0000000000E+00
    0.0000000000E+00    0.0000000000E+00    0.0000000000E+00    0.0000000000E+00
    0.0000000000E+00    0.0000000000E+00    0.0000000000E+00    0.0000000000E+00
    0.0000000000E+00    0.0000000000E+00    0.0000000000E+00    0.0000000000E+00
    0.0000000000E+00    0.0000000000E+00    0.0000000000E+00    0.0000000000E+00
    0.0000000000E+00    0.0000000000E+00    0.0000000000E+00    0.0000000000E+00
    0.0000000000E+00    0.0000000000E+00    0.0000000000E+00    0.0000000000E+00
    0.0000000000E+00    0.0000000000E+00    0.0000000000E+00    0.0000000000E+00
    0.0000000000E+00    0.0000000000E+00    0.0000000000E+00    0.0000000000E+00
    0.0000000000E+00    0.0000000000E+00    0.0000000000E+00    0.0000000000E+00
    0.0000000000E+00    0.0000000000E+00    0.0000000000E+00    0.0000000000E+00
    0.0000000000E+00    0.0000000000E+00    0.0000000000E+00    0.0000000000E+00
    0.0000000000E+00    0.0000000000E+00    0.0000000000E+00    0.0000000000E+00
    0.0000000000E+00    0.0000000000E+00    0.0000000000E+00    0.0000000000E+00
    0.0000000000E+00    0.0000000000E+00    0.0000000000E+00    0.0000000000E+00
    0.0000000000E+00    0.0000000000E+00    0.0000000000E+00    0.0000000000E+00
    0.0000000000E+00    0.0000000000E+00    0.0000000000E+00    0.0000000000E+00
    0.0000000000E+00    0.0000000000E+00    0.0000000000E+00    0.0000000000E+00
    0.0000000000E+00    0.0000000000E+00    0.0000000000E+00    0.0000000000E+00
    0.0000000000E+00    0.0000000000E+00    0.0000000000E+00    0.0000000000E+00
    0.0000000000E+00    0.0000000000E+00    0.0000000000E+00    0.0000000000E+00
    0.0000000000E+00    0.0000000000E+00    0.0000000000E+00    0.0000000000E+00
    0.0000000000E+00    0.0000000000E+00    0.0000000000E+00    0.0000000000E+00
    0.0000000000E+00    0.0000000000E+00    0.0000000000E+00    0.0000000000E+00
    0.0000000000E+00    0.0000000000E+00    0.0000000000E+00    0.0000000000E+00
    0.0000000000E+00    0.0000000000E+00    0.0000000000E+00    0.0000000000E+00
    0.0000000000E+00    0.0000000000E+00    0.0000000000E+00    0.0000000000E+00
    0.0000000000E+00    0.0000000000E+00    0.0000000000E+00    0.0000000000E+00
    0.0000000000E+00    0.0000000000E+00    0.0000000000E+00    0.0000000000E+00
    0.0000000000E+00    0.0000000000E+00    0.0000000000E+00    0.0000000000E+00
    0.0000000000E+00    0.0000000000E+00    0.0000000000E+00    0.0000000000E+00
    0.0000000000E+00    0.0000000000E+00    0.0000000000E+00    0.0000000000E+00
    0.0000000000E+00    0.0000000000E+00    0.0000000000E+00    0.0000000000E+00
    0.0000000000E+00    0.0000000000E+00    0.0000000000E+00    0.0000000000E+00
    0.0000000000E+00    0.0000000000E+00    0.0000000000E+00    0.0000000000E+00
    0.0000000000E+00    0.0000000000E+00    0.0000000000E+00    0.0000000000E+00
    0.0000000000E+00    0.0000000000E+00    0.0000000000E+00    0.0000000000E+00
    0.0000000000E+00    0.0000000000E+00    0.0000000000E+00    0.0000000000E+00
    0.0000000000E+00    0.0000000000E+00    0.0000000000E+00    0.0000000000E+00
    0.0000000000E+00    0.0000000000E+00    0.0000000000E+00    0.0000000000E+00
    0.0000000000E+00    0.0000000000E+00    0.0000000000E+00    0.0000000000E+00
    0.0000000000E+00    0.0000000000E+00    0.0000000000E+00    0.0000000000E+00
    0.0000000000E+00    0.0000000000E+00    0.0000000000E+00    0.0000000000E+00
    0.0000000000E+00    0.0000000000E+00    0.0000000000E+00    0.0000000000E+00
    0.0000000000E+00    0.0000000000E+00    0.0000000000E+00    0.0000000000E+00
    0.0000000000E+00    0.0000000000E+00    0.0000000000E+00    0.0000000000E+00
    0.0000000000E+00    0.0000000000E+00    0.0000000000E+00    0.0000000000E+00
    0.0000000000E+00    0.0000000000E+00    0.0000000000E+00    0.0000000000E+00
    0.0000000000E+00    0.0000000000E+00    0.0000000000E+00    0.0000000000E+00
    0.0000000000E+00    0.0000000000E+00    0.0000000000E+00    0.0000000000E+00
    0.0000000000E+00    0.0000000000E+00    0.0000000000E+00    0.0000000000E+00
    0.0000000000E+00    0.0000000000E+00    0.0000000000E+00    0.0000000000E+00
    0.0000000000E+00    0.0000000000E+00    0.0000000000E+00    0.0000000000E+00
    0.0000000000E+00    0.0000000000E+00    0.0000000000E+00    0.0000000000E+00
    0.0000000000E+00    0.0000000000E+00    0.0000000000E+00    0.0000000000E+00
    0.0000000000E+00    0.0000000000E+00    0.0000000000E+00    0.0000000000E+00
    0.0000000000E+00    0.0000000000E+00    0.0000000000E+00    0.0000000000E+00
    0.0000000000E+00    0.0000000000E+00    0.0000000000E+00    0.0000000000E+00
    0.0000000000E+00    0.0000000000E+00    0.0000000000E+00    0.0000000000E+00
    0.0000000000E+00    0.0000000000E+00    0.0000000000E+00    0.0000000000E+00
    0.0000000000E+00    0.0000000000E+00    0.0000000000E+00    0.0000000000E+00
    0.0000000000E+00    0.0000000000E+00    0.0000000000E+00    0.0000000000E+00
    0.0000000000E+00    0.0000000000E+00    0.0000000000E+00    0.0000000000E+00
    0.0000000000E+00    0.0000000000E+00    0.0000000000E+00    0.0000000000E+00
    0.0000000000E+00    0.0000000000E+00    0.0000000000E+00    0.0000000000E+00
    0.0000000000E+00    0.0000000000E+00    0.0000000000E+00    0.0000000000E+00
    0.0000000000E+00    0.0000000000E+00    0.0000000000E+00    0.0000000000E+00
    0.0000000000E+00    0.0000000000E+00    0.0000000000E+00    0.0000000000E+00
    0.0000000000E+00    0.0000000000E+00    0.0000000000E+00    0.0000000000E+00
    0.0000000000E+00    0.0000000000E+00    0.0000000000E+00    0.0000000000E+00
    0.0000000000E+00    0.0000000000E+00    0.0000000000E+00    0.0000000000E+00
    0.0000000000E+00    0.0000000000E+00    0.0000000000E+00    0.0000000000E+00
    0.0000000000E+00    0.0000000000E+00    0.0000000000E+00    0.0000000000E+00
    0.0000000000E+00    0.0000000000E+00    0.0000000000E+00    0.0000000000E+00
    0.0000000000E+00    0.0000000000E+00    0.0000000000E+00    0.0000000000E+00
    0.0000000000E+00    0.0000000000E+00    0.0000000000E+00    0.0000000000E+00
    0.0000000000E+00    0.0000000000E+00    0.0000000000E+00    0.0000000000E+00
    0.0000000000E+00    0.0000000000E+00    0.0000000000E+00    0.0000000000E+00
    0.0000000000E+00    0.0000000000E+00    0.0000000000E+00    0.0000000000E+00
    0.0000000000E+00    0.0000000000E+00    0.0000000000E+00    0.0000000000E+00
    0.0000000000E+00    0.0000000000E+00    0.0000000000E+00    0.0000000000E+00
    0.0000000000E+00    0.0000000000E+00    0.0000000000E+00    0.0000000000E+00
    0.0000000000E+00    0.0000000000E+00    0.0000000000E+00    0.0000000000E+00
    0.0000000000E+00    0.0000000000E+00    0.0000000000E+00    0.0000000000E+00
    0.0000000000E+00    0.0000000000E+00    0.0000000000E+00    0.0000000000E+00
    0.0000000000E+00    0.0000000000E+00    0.0000000000E+00    0.0000000000E+00
    0.0000000000E+00    0.0000000000E+00    0.0000000000E+00    0.0000000000E+00
    0.0000000000E+00    0.0000000000E+00    0.0000000000E+00    0.0000000000E+00
    0.0000000000E+00    0.0000000000E+00    0.0000000000E+00    0.0000000000E+00
    0.0000000000E+00    0.0000000000E+00    0.0000000000E+00    0.0000000000E+00
    0.0000000000E+00    0.0000000000E+00    0.0000000000E+00    0.0000000000E+00
    0.0000000000E+00    0.0000000000E+00    0.0000000000E+00    0.0000000000E+00
    0.0000000000E+00    0.0000000000E+00    0.0000000000E+00    0.0000000000E+00
    0.0000000000E+00    0.0000000000E+00    0.0000000000E+00    0.0000000000E+00
    0.0000000000E+00    0.0000000000E+00    0.0000000000E+00    0.0000000000E+00
    0.0000000000E+00    0.0000000000E+00    0.0000000000E+00    0.0000000000E+00
    0.0000000000E+00    0.0000000000E+00    0.0000000000E+00    0.0000000000E+00
    0.0000000000E+00    0.0000000000E+00    0.0000000000E+00    0.0000000000E+00
    0.0000000000E+00    0.0000000000E+00    0.0000000000E+00    0.0000000000E+00
    0.0000000000E+00    0.0000000000E+00    0.0000000000E+00    0.0000000000E+00
    0.0000000000E+00    0.0000000000E+00    0.0000000000E+00    0.0000000000E+00
    0.0000000000E+00    0.0000000000E+00    0.0000000000E+00    0.0000000000E+00
    0.0000000000E+00    0.0000000000E+00    0.0000000000E+00    0.0000000000E+00
    0.0000000000E+00    0.0000000000E+00    0.0000000000E+00    0.0000000000E+00
    0.0000000000E+00    0.0000000000E+00    0.0000000000E+00    0.0000000000E+00
    0.0000000000E+00    0.0000000000E+00    0.0000000000E+00    0.0000000000E+00
    0.0000000000E+00    0.0000000000E+00    0.0000000000E+00    0.0000000000E+00
    0.0000000000E+00    0.0000000000E+00    0.0000000000E+00    0.0000000000E+00
    0.0000000000E+00    0.0000000000E+00    0.0000000000E+00    0.0000000000E+00
    0.0000000000E+00    0.0000000000E+00    0.0000000000E+00    0.0000000000E+00
    0.0000000000E+00    0.0000000000E+00    0.0000000000E+00    0.0000000000E+00
    0.0000000000E+00    0.0000000000E+00    0.0000000000E+00    0.0000000000E+00
    0.0000000000E+00    0.0000000000E+00    0.0000000000E+00    0.0000000000E+00
    0.0000000000E+00    0.0000000000E+00    0.0000000000E+00    0.0000000000E+00
    0.0000000000E+00    0.0000000000E+00    0.0000000000E+00    0.0000000000E+00
    0.0000000000E+00    0.0000000000E+00    0.0000000000E+00    0.0000000000E+00
    0.0000000000E+00    0.0000000000E+00    0.0000000000E+00    0.0000000000E+00
    0.0000000000E+00    0.0000000000E+00    0.0000000000E+00    0.0000000000E+00
    0.0000000000E+00    0.0000000000E+00    0.0000000000E+00    0.0000000000E+00
    0.0000000000E+00    0.0000000000E+00    0.0000000000E+00    0.0000000000E+00
    0.0000000000E+00    0.0000000000E+00    0.0000000000E+00    0.0000000000E+00
    0.0000000000E+00    0.0000000000E+00    0.0000000000E+00    0.0000000000E+00
    0.0000000000E+00    0.0000000000E+00    0.0000000000E+00    0.0000000000E+00
    0.0000000000E+00    0.0000000000E+00    0.0000000000E+00    0.0000000000E+00
    0.0000000000E+00    0.0000000000E+00    0.0000000000E+00    0.0000000000E+00
    0.0000000000E+00    0.0000000000E+00    0.0000000000E+00    0.0000000000E+00
    0.0000000000E+00    0.0000000000E+00    0.0000000000E+00    0.0000000000E+00
    0.0000000000E+00    0.0000000000E+00    0.0000000000E+00    0.0000000000E+00
    0.0000000000E+00    0.0000000000E+00    0.0000000000E+00    0.0000000000E+00
    0.0000000000E+00    0.0000000000E+00    0.0000000000E+00    0.0000000000E+00
    0.0000000000E+00    0.0000000000E+00    0.0000000000E+00    0.0000000000E+00
    0.0000000000E+00    0.0000000000E+00    0.0000000000E+00    0.0000000000E+00
    0.0000000000E+00    0.0000000000E+00    0.0000000000E+00    0.0000000000E+00
    0.0000000000E+00    0.0000000000E+00    0.0000000000E+00    0.0000000000E+00
    0.0000000000E+00    0.0000000000E+00    0.0000000000E+00    0.0000000000E+00
    0.0000000000E+00    0.0000000000E+00    0.0000000000E+00    0.0000000000E+00
    0.0000000000E+00    0.0000000000E+00    0.0000000000E+00    0.0000000000E+00
    0.0000000000E+00    0.0000000000E+00    0.0000000000E+00    0.0000000000E+00
    0.0000000000E+00    0.0000000000E+00    0.0000000000E+00    0.0000000000E+00
    0.0000000000E+00    0.0000000000E+00    0.0000000000E+00    0.0000000000E+00
    0.0000000000E+00    0.0000000000E+00    0.0000000000E+00    0.0000000000E+00
    0.0000000000E+00    0.0000000000E+00    0.0000000000E+00    0.0000000000E+00
    0.0000000000E+00    0.0000000000E+00    0.0000000000E+00    0.0000000000E+00
    0.0000000000E+00    0.0000000000E+00    0.0000000000E+00    0.0000000000E+00
    0.0000000000E+00    0.0000000000E+00    0.0000000000E+00    0.0000000000E+00
    0.0000000000E+00    0.0000000000E+00    0.0000000000E+00    0.0000000000E+00
    0.0000000000E+00    0.0000000000E+00    0.0000000000E+00    0.0000000000E+00
    0.0000000000E+00    0.0000000000E+00    0.0000000000E+00    0.0000000000E+00
    0.0000000000E+00    0.0000000000E+00    0.0000000000E+00    0.0000000000E+00
    0.0000000000E+00    0.0000000000E+00    0.0000000000E+00    0.0000000000E+00
    0.0000000000E+00    0.0000000000E+00    0.0000000000E+00    0.0000000000E+00
    0.0000000000E+00    0.0000000000E+00    0.0000000000E+00    0.0000000000E+00
    0.0000000000E+00    0.0000000000E+00    0.0000000000E+00    0.0000000000E+00
    0.0000000000E+00    0.0000000000E+00    0.0000000000E+00    0.0000000000E+00
    0.0000000000E+00    0.0000000000E+00    0.0000000000E+00    0.0000000000E+00
    0.0000000000E+00    0.0000000000E+00    0.0000000000E+00    0.0000000000E+00
    0.0000000000E+00    0.0000000000E+00    0.0000000000E+00    0.0000000000E+00
    0.0000000000E+00    0.0000000000E+00    0.0000000000E+00    0.0000000000E+00
    0.0000000000E+00    0.0000000000E+00    0.0000000000E+00    0.0000000000E+00
    0.0000000000E+00    0.0000000000E+00    0.0000000000E+00    0.0000000000E+00
    0.0000000000E+00    0.0000000000E+00    0.0000000000E+00    0.0000000000E+00
    0.0000000000E+00    0.0000000000E+00    0.0000000000E+00    0.0000000000E+00
    0.0000000000E+00    0.0000000000E+00    0.0000000000E+00    0.0000000000E+00
    0.0000000000E+00    0.0000000000E+00    0.0000000000E+00    0.0000000000E+00
    0.0000000000E+00    0.0000000000E+00    0.0000000000E+00    0.0000000000E+00
    0.0000000000E+00    0.0000000000E+00    0.0000000000E+00    0.0000000000E+00
    0.0000000000E+00    0.0000000000E+00    0.0000000000E+00    0.0000000000E+00
    0.0000000000E+00    0.0000000000E+00    0.0000000000E+00    0.0000000000E+00
    0.0000000000E+00    0.0000000000E+00    0.0000000000E+00    0.0000000000E+00
    0.0000000000E+00    0.0000000000E+00    0.0000000000E+00    0.0000000000E+00
    0.0000000000E+00    0.0000000000E+00    0.0000000000E+00    0.0000000000E+00
    0.0000000000E+00    0.0000000000E+00    0.0000000000E+00    0.0000000000E+00
    0.0000000000E+00    0.0000000000E+00    0.0000000000E+00    0.0000000000E+00
    0.0000000000E+00    0.0000000000E+00    0.0000000000E+00    0.0000000000E+00
    0.0000000000E+00    0.0000000000E+00    0.0000000000E+00    0.0000000000E+00
    0.0000000000E+00    0.0000000000E+00    0.0000000000E+00    0.0000000000E+00
    0.0000000000E+00    0.0000000000E+00    0.0000000000E+00    0.0000000000E+00
    0.0000000000E+00    0.0000000000E+00    0.0000000000E+00    0.0000000000E+00
    0.0000000000E+00    0.0000000000E+00    0.0000000000E+00    0.0000000000E+00
    0.0000000000E+00    0.0000000000E+00    0.0000000000E+00    0.0000000000E+00
    0.0000000000E+00    0.0000000000E+00    0.0000000000E+00    0.0000000000E+00
    0.0000000000E+00    0.0000000000E+00    0.0000000000E+00    0.0000000000E+00
    0.0000000000E+00    0.0000000000E+00    0.0000000000E+00    0.0000000000E+00
    0.0000000000E+00    0.0000000000E+00    0.0000000000E+00    0.0000000000E+00
    0.0000000000E+00    0.0000000000E+00    0.0000000000E+00    0.0000000000E+00
    0.0000000000E+00    0.0000000000E+00    0.0000000000E+00    0.0000000000E+00
    0.0000000000E+00    0.0000000000E+00    0.0000000000E+00    0.0000000000E+00
    0.0000000000E+00    0.0000000000E+00    0.0000000000E+00    0.0000000000E+00
    0.0000000000E+00    0.0000000000E+00    0.0000000000E+00    0.0000000000E+00
    0.0000000000E+00    0.0000000000E+00    0.0000000000E+00    0.0000000000E+00
    0.0000000000E+00    0.0000000000E+00    0.0000000000E+00    0.0000000000E+00
    0.0000000000E+00    0.0000000000E+00    0.0000000000E+00    0.0000000000E+00
    0.0000000000E+00    0.0000000000E+00    0.0000000000E+00    0.0000000000E+00
    0.0000000000E+00    0.0000000000E+00    0.0000000000E+00    0.0000000000E+00
    0.0000000000E+00    0.0000000000E+00    0.0000000000E+00    0.0000000000E+00
    0.0000000000E+00    0.0000000000E+00    0.0000000000E+00    0.0000000000E+00
    0.0000000000E+00    0.0000000000E+00    0.0000000000E+00    0.0000000000E+00
    0.0000000000E+00    0.0000000000E+00    0.0000000000E+00    0.0000000000E+00
    0.0000000000E+00    0.0000000000E+00    0.0000000000E+00    0.0000000000E+00
    0.0000000000E+00    0.0000000000E+00    0.0000000000E+00    0.0000000000E+00
    0.0000000000E+00    0.0000000000E+00    0.0000000000E+00    0.0000000000E+00
    0.0000000000E+00    0.0000000000E+00    0.0000000000E+00    0.0000000000E+00
    0.0000000000E+00    0.0000000000E+00    0.0000000000E+00    0.0000000000E+00
    0.0000000000E+00    0.0000000000E+00    0.0000000000E+00    0.0000000000E+00
    0.0000000000E+00    0.0000000000E+00    0.0000000000E+00    0.0000000000E+00
    0.0000000000E+00    0.0000000000E+00    0.0000000000E+00    0.0000000000E+00
    0.0000000000E+00    0.0000000000E+00    0.0000000000E+00    0.0000000000E+00
    0.0000000000E+00    0.0000000000E+00    0.0000000000E+00    0.0000000000E+00
    0.0000000000E+00    0.0000000000E+00    0.0000000000E+00    0.0000000000E+00
    0.0000000000E+00    0.0000000000E+00    0.0000000000E+00    0.0000000000E+00
    0.0000000000E+00    0.0000000000E+00    0.0000000000E+00    0.0000000000E+00
    0.0000000000E+00    0.0000000000E+00    0.0000000000E+00    0.0000000000E+00
    0.0000000000E+00    0.0000000000E+00    0.0000000000E+00    0.0000000000E+00
    0.0000000000E+00    0.0000000000E+00    0.0000000000E+00    0.0000000000E+00
    0.0000000000E+00    0.0000000000E+00    0.0000000000E+00    0.0000000000E+00
    0.0000000000E+00    0.0000000000E+00    0.0000000000E+00    0.0000000000E+00
    0.0000000000E+00    0.0000000000E+00    0.0000000000E+00    0.0000000000E+00
    0.0000000000E+00    0.0000000000E+00    0.0000000000E+00    0.0000000000E+00
    0.0000000000E+00    0.0000000000E+00    0.0000000000E+00    0.0000000000E+00
    0.0000000000E+00    0.0000000000E+00    0.0000000000E+00    0.0000000000E+00
    0.0000000000E+00    0.0000000000E+00    0.0000000000E+00    0.0000000000E+00
    0.0000000000E+00    0.0000000000E+00    0.0000000000E+00    0.0000000000E+00
    0.0000000000E+00    0.0000000000E+00    0.0000000000E+00    0.0000000000E+00
    0.0000000000E+00    0.0000000000E+00    0.0000000000E+00    0.0000000000E+00
    0.0000000000E+00    0.0000000000E+00    0.0000000000E+00    0.0000000000E+00
    0.0000000000E+00    0.0000000000E+00    0.0000000000E+00    0.0000000000E+00
    0.0000000000E+00    0.0000000000E+00    0.0000000000E+00    0.0000000000E+00
    0.0000000000E+00    0.0000000000E+00    0.0000000000E+00    0.0000000000E+00
    0.0000000000E+00    0.0000000000E+00    0.0000000000E+00    0.0000000000E+00
    0.0000000000E+00    0.0000000000E+00    0.0000000000E+00    0.0000000000E+00
    0.0000000000E+00    0.0000000000E+00    0.0000000000E+00    0.0000000000E+00
    0.0000000000E+00    0.0000000000E+00    0.0000000000E+00    0.0000000000E+00
    0.0000000000E+00    0.0000000000E+00    0.0000000000E+00    0.0000000000E+00
    0.0000000000E+00    0.0000000000E+00    0.0000000000E+00    0.0000000000E+00
    0.0000000000E+00    0.0000000000E+00    0.0000000000E+00    0.0000000000E+00
    0.0000000000E+00    0.0000000000E+00    0.0000000000E+00    0.0000000000E+00
    0.0000000000E+00    0.0000000000E+00    0.0000000000E+00    0.0000000000E+00
    0.0000000000E+00    0.0000000000E+00    0.0000000000E+00    0.0000000000E+00
    0.0000000000E+00    0.0000000000E+00    0.0000000000E+00    0.0000000000E+00
    0.0000000000E+00    0.0000000000E+00    0.0000000000E+00    0.0000000000E+00
    0.0000000000E+00    0.0000000000E+00    0.0000000000E+00    0.0000000000E+00
    0.0000000000E+00    0.0000000000E+00    0.0000000000E+00    0.0000000000E+00
    0.0000000000E+00    0.0000000000E+00    0.0000000000E+00    0.0000000000E+00
    0.0000000000E+00    0.0000000000E+00    0.0000000000E+00    0.0000000000E+00
    0.0000000000E+00    0.0000000000E+00    0.0000000000E+00    0.0000000000E+00
    0.0000000000E+00    0.0000000000E+00    0.0000000000E+00    0.0000000000E+00
    0.0000000000E+00    0.0000000000E+00    0.0000000000E+00    0.0000000000E+00
    0.0000000000E+00    0.0000000000E+00    0.0000000000E+00    0.0000000000E+00
    0.0000000000E+00    0.0000000000E+00    0.0000000000E+00    0.0000000000E+00
    0.0000000000E+00    0.0000000000E+00    0.0000000000E+00    0.0000000000E+00
    0.0000000000E+00    0.0000000000E+00    0.0000000000E+00    0.0000000000E+00
    0.0000000000E+00    0.0000000000E+00    0.0000000000E+00    0.0000000000E+00
    0.0000000000E+00    0.0000000000E+00    0.0000000000E+00    0.0000000000E+00
    0.0000000000E+00    0.0000000000E+00    0.0000000000E+00    0.0000000000E+00
    0.0000000000E+00    0.0000000000E+00    0.0000000000E+00    0.0000000000E+00
    0.0000000000E+00    0.0000000000E+00    0.0000000000E+00    0.0000000000E+00
    0.0000000000E+00    0.0000000000E+00    0.0000000000E+00    0.0000000000E+00
    0.0000000000E+00    0.0000000000E+00    0.0000000000E+00    0.0000000000E+00
    0.0000000000E+00    0.0000000000E+00    0.0000000000E+00    0.0000000000E+00
    0.0000000000E+00    0.0000000000E+00    0.0000000000E+00    0.0000000000E+00
    0.0000000000E+00    0.0000000000E+00    0.0000000000E+00    0.0000000000E+00
    0.0000000000E+00    0.0000000000E+00    0.0000000000E+00    0.0000000000E+00
    0.0000000000E+00    0.0000000000E+00    0.0000000000E+00    0.0000000000E+00
    0.0000000000E+00    0.0000000000E+00    0.0000000000E+00    0.0000000000E+00
    0.0000000000E+00    0.0000000000E+00    0.0000000000E+00    0.0000000000E+00
    0.0000000000E+00    0.0000000000E+00    0.0000000000E+00    0.0000000000E+00
    0.0000000000E+00    0.0000000000E+00    0.0000000000E+00    0.0000000000E+00
    0.0000000000E+00    0.0000000000E+00    0.0000000000E+00    0.0000000000E+00
    0.0000000000E+00    0.0000000000E+00    0.0000000000E+00    0.0000000000E+00
    0.0000000000E+00    0.0000000000E+00    0.0000000000E+00    0.0000000000E+00
    0.0000000000E+00    0.0000000000E+00    0.0000000000E+00    0.0000000000E+00
    0.0000000000E+00    0.0000000000E+00    0.0000000000E+00    0.0000000000E+00
    0.0000000000E+00    0.0000000000E+00    0.0000000000E+00    0.0000000000E+00
    0.0000000000E+00    0.0000000000E+00    0.0000000000E+00    0.0000000000E+00
    0.0000000000E+00    0.0000000000E+00    0.0000000000E+00    0.0000000000E+00
    0.0000000000E+00    0.0000000000E+00    0.0000000000E+00    0.0000000000E+00
    0.0000000000E+00    0.0000000000E+00    0.0000000000E+00    0.0000000000E+00
    0.0000000000E+00    0.0000000000E+00    0.0000000000E+00    0.0000000000E+00
    0.0000000000E+00    0.0000000000E+00    0.0000000000E+00    0.0000000000E+00
    0.0000000000E+00    0.0000000000E+00    0.0000000000E+00    0.0000000000E+00
    0.0000000000E+00    0.0000000000E+00    0.0000000000E+00    0.0000000000E+00
    0.0000000000E+00    0.0000000000E+00    0.0000000000E+00    0.0000000000E+00
    0.0000000000E+00    0.0000000000E+00    0.0000000000E+00    0.0000000000E+00
    0.0000000000E+00    0.0000000000E+00    0.0000000000E+00    0.0000000000E+00
    0.0000000000E+00    0.0000000000E+00    0.0000000000E+00    0.0000000000E+00
    0.0000000000E+00    0.0000000000E+00    0.0000000000E+00    0.0000000000E+00
    0.0000000000E+00    0.0000000000E+00    0.0000000000E+00    0.0000000000E+00
    0.0000000000E+00    0.0000000000E+00    0.0000000000E+00    0.0000000000E+00
    0.0000000000E+00    0.0000000000E+00    0.0000000000E+00    0.0000000000E+00
    0.0000000000E+00    0.0000000000E+00    0.0000000000E+00    0.0000000000E+00
    0.0000000000E+00    0.0000000000E+00    0.0000000000E+00    0.0000000000E+00
    0.0000000000E+00    0.0000000000E+00    0.0000000000E+00    0.0000000000E+00
    0.0000000000E+00    0.0000000000E+00    0.0000000000E+00    0.0000000000E+00
    0.0000000000E+00    0.0000000000E+00    0.0000000000E+00    0.0000000000E+00
    0.0000000000E+00    0.0000000000E+00    0.0000000000E+00    0.0000000000E+00
    0.0000000000E+00    0.0000000000E+00    0.0000000000E+00    0.0000000000E+00
    0.0000000000E+00    0.0000000000E+00    0.0000000000E+00    0.0000000000E+00
    0.0000000000E+00    0.0000000000E+00    0.0000000000E+00    0.0000000000E+00
    0.0000000000E+00    0.0000000000E+00    0.0000000000E+00    0.0000000000E+00
    0.0000000000E+00    0.0000000000E+00    0.0000000000E+00    0.0000000000E+00
    0.0000000000E+00    0.0000000000E+00    0.0000000000E+00    0.0000000000E+00
    0.0000000000E+00    0.0000000000E+00    0.0000000000E+00    0.0000000000E+00
    0.0000000000E+00    0.0000000000E+00    0.0000000000E+00    0.0000000000E+00
    0.0000000000E+00    0.0000000000E+00    0.0000000000E+00    0.0000000000E+00
    0.0000000000E+00    0.0000000000E+00    0.0000000000E+00    0.0000000000E+00
    0.0000000000E+00    0.0000000000E+00    0.0000000000E+00    0.0000000000E+00
    0.0000000000E+00    0.0000000000E+00    0.0000000000E+00    0.0000000000E+00
    0.0000000000E+00    0.0000000000E+00    0.0000000000E+00    0.0000000000E+00
    0.0000000000E+00    0.0000000000E+00    0.0000000000E+00    0.0000000000E+00
    0.0000000000E+00    0.0000000000E+00    0.0000000000E+00    0.0000000000E+00
    0.0000000000E+00    0.0000000000E+00
 </PP_NLCC>
 <PP_RHOATOM type="real"  size="1650" columns="4">
    0.0000000000E+00    6.4327574722E-04    2.5775333154E-03    5.8160330141E-03
    1.0380773308E-02    1.6302338376E-02    2.3619685952E-02    3.2379876716E-02
    4.2637746817E-02    5.4455525473E-02    6.7902399909E-02    8.3054030186E-02
    9.9992016792E-02    1.1880332412E-01    1.3957966326E-01    1.6241683761E-01
    1.8741405536E-01    2.1467321268E-01    2.4429815184E-01    2.7639389870E-01
    3.1106588390E-01    3.4841915233E-01    3.8855756546E-01    4.3158300111E-01
    4.7759455539E-01    5.2668775123E-01    5.7895375826E-01    6.3447862831E-01
    6.9334255101E-01    7.5561913371E-01    8.2137470973E-01    8.9066767894E-01
    9.6354788434E-01    1.0400560280E+00    1.1202231301E+00    1.2040700329E+00
    1.2916069540E+00    1.3828330901E+00    1.4777362737E+00    1.5762926847E+00
    1.6784666184E+00    1.7842103109E+00    1.8934638232E+00    2.0061549843E+00
    2.1221993927E+00    2.2415004781E+00    2.3639496211E+00    2.4894263304E+00
    2.6177984781E+00    2.7489225892E+00    2.8826441854E+00    3.0187981810E+00
    3.1572093287E+00    3.2976927117E+00    3.4400542820E+00    3.5840914391E+00
    3.7295936484E+00    3.8763430949E+00    4.0241153683E+00    4.1726801784E+00
    4.3218020935E+00    4.4712413019E+00    4.6207543900E+00    4.7700951342E+00
    4.9190153028E+00    5.0672654645E+00    5.2145957983E+00    5.3607569023E+00
    5.5055005978E+00    5.6485807231E+00    5.7897539170E+00    5.9287803846E+00
    6.0654246452E+00    6.1994562576E+00    6.3306505205E+00    6.4587891444E+00
    6.5836608940E+00    6.7050621965E+00    6.8227977157E+00    6.9366808884E+00
    7.0465344222E+00    7.1521907529E+00    7.2534924604E+00    7.3502926409E+00
    7.4424552368E+00    7.5298553214E+00    7.6123793391E+00    7.6899253011E+00
    7.7624029364E+00    7.8297337974E+00    7.8918513229E+00    7.9487008568E+00
    8.0002396241E+00    8.0464366668E+00    8.0872727378E+00    8.1227401572E+00
    8.1528426312E+00    8.1775950344E+00    8.1970231593E+00    8.2111634329E+00
    8.2200626040E+00    8.2237774018E+00    8.2223741693E+00    8.2159284727E+00
    8.2045246895E+00    8.1882555772E+00    8.1672218259E+00    8.1415315951E+00
    8.1113000397E+00    8.0766488247E+00    8.0377056327E+00    7.9946036663E+00
    7.9474811456E+00    7.8964808064E+00    7.8417493974E+00    7.7834371805E+00
    7.7216974364E+00    7.6566859755E+00    7.5885606569E+00    7.5174809178E+00
    7.4436073128E+00    7.3671010665E+00    7.2881236391E+00    7.2068363078E+00
    7.1233997626E+00    7.0379737205E+00    6.9507165563E+00    6.8617849521E+00
    6.7713335655E+00    6.6795147177E+00    6.5864781006E+00    6.4923705048E+00
    6.3973355672E+00    6.3015135391E+00    6.2050410747E+00    6.1080510397E+00
    6.0106723396E+00    5.9130297680E+00    5.8152438743E+00    5.7174308501E+00
    5.6197024343E+00    5.5221658358E+00    5.4249236742E+00    5.3280739363E+00
    5.2317099498E+00    5.1359203713E+00    5.0407891895E+00    4.9463957424E+00
    4.8528147469E+00    4.7601163414E+00    4.6683661398E+00    4.5776252957E+00
    4.4879505769E+00    4.3993944488E+00    4.3120051666E+00    4.2258268736E+00
    4.1408997081E+00    4.0572599148E+00    3.9749399617E+00    3.8939686622E+00
    3.8143713001E+00    3.7361697581E+00    3.6593826491E+00    3.5840254489E+00
    3.5101106300E+00    3.4376477975E+00    3.3666438231E+00    3.2971029809E+00
    3.2290270811E+00    3.1624156033E+00    3.0972658280E+00    3.0335729661E+00
    2.9713302866E+00    2.9105292417E+00    2.8511595884E+00    2.7932095085E+00
    2.7366657242E+00    2.6815136107E+00    2.6277373058E+00    2.5753198147E+00
    2.5242431122E+00    2.4744882407E+00    2.4260354035E+00    2.3788640556E+00
    2.3329529894E+00    2.2882804169E+00    2.2448240480E+00    2.2025611645E+00
    2.1614686907E+00    2.1215232602E+00    2.0827012781E+00    2.0449789807E+00
    2.0083324907E+00    1.9727378695E+00    1.9381711654E+00    1.9046084594E+00
    1.8720259069E+00    1.8403997768E+00    1.8097064877E+00    1.7799226407E+00
    1.7510250503E+00    1.7229907717E+00    1.6957971265E+00    1.6694217254E+00
    1.6438424887E+00    1.6190376650E+00    1.5949858476E+00    1.5716659887E+00
    1.5490574123E+00    1.5271398252E+00    1.5058933263E+00    1.4852984141E+00
    1.4653359935E+00    1.4459873807E+00    1.4272343070E+00    1.4090589216E+00
    1.3914437930E+00    1.3743719100E+00    1.3578266811E+00    1.3417919333E+00
    1.3262519107E+00    1.3111912714E+00    1.2965950843E+00    1.2824488256E+00
    1.2687383740E+00    1.2554500060E+00    1.2425703905E+00    1.2300865834E+00
    1.2179860210E+00    1.2062565139E+00    1.1948862404E+00    1.1838637394E+00
    1.1731779035E+00    1.1628179712E+00    1.1527735200E+00    1.1430344583E+00
    1.1335910180E+00    1.1244337465E+00    1.1155534953E+00    1.1069413966E+00
    1.0985888264E+00    1.0904873735E+00    1.0826288468E+00    1.0750052666E+00
    1.0676088591E+00    1.0604320513E+00    1.0534674659E+00    1.0467079165E+00
    1.0401464027E+00    1.0337761055E+00    1.0275903830E+00    1.0215827656E+00
    1.0157469508E+00    1.0100767978E+00    1.0045663216E+00    9.9920969152E-01
    9.9400122849E-01    9.8893540245E-01    9.8400682957E-01    9.7921026976E-01
    9.7454062412E-01    9.6999293234E-01    9.6556237025E-01    9.6124424724E-01
    9.5703400383E-01    9.5292720914E-01    9.4891955845E-01    9.4500687076E-01
    9.4118508630E-01    9.3745026420E-01    9.3379857998E-01    9.3022632322E-01
    9.2672989519E-01    9.2330580644E-01    9.1995067451E-01    9.1666122157E-01
    9.1343427217E-01    9.1026675089E-01    9.0715568014E-01    9.0409817792E-01
    9.0109145558E-01    8.9813281567E-01    8.9521964977E-01    8.9234943638E-01
    8.8951973879E-01    8.8672820305E-01    8.8397255591E-01    8.8125060281E-01
    8.7856022593E-01    8.7589938224E-01    8.7326610157E-01    8.7065848476E-01
    8.6807470181E-01    8.6551299008E-01    8.6297165250E-01    8.6044905585E-01
    8.5794362905E-01    8.5545386148E-01    8.5297830133E-01    8.5051555406E-01
    8.4806428074E-01    8.4562319659E-01    8.4319106944E-01    8.4076671828E-01
    8.3834901180E-01    8.3593686698E-01    8.3352924778E-01    8.3112516371E-01
    8.2872366858E-01    8.2632385920E-01    8.2392487412E-01    8.2152589244E-01
    8.1912613259E-01    8.1672485115E-01    8.1432134177E-01    8.1191493402E-01
    8.0950499232E-01    8.0709091487E-01    8.0467213267E-01    8.0224810844E-01
    7.9981833573E-01    7.9738233787E-01    7.9493966714E-01    7.9248990378E-01
    7.9003265515E-01    7.8756755485E-01    7.8509426189E-01    7.8261245988E-01
    7.8012185621E-01    7.7762218128E-01    7.7511318776E-01    7.7259464982E-01
    7.7006636244E-01    7.6752814072E-01    7.6497981913E-01    7.6242125094E-01
    7.5985230751E-01    7.5727287767E-01    7.5468286712E-01    7.5208219783E-01
    7.4947080745E-01    7.4684864876E-01    7.4421568910E-01    7.4157190984E-01
    7.3891730586E-01    7.3625188506E-01    7.3357566782E-01    7.3088868658E-01
    7.2819098531E-01    7.2548261910E-01    7.2276365369E-01    7.2003416505E-01
    7.1729423899E-01    7.1454397068E-01    7.1178346432E-01    7.0901283273E-01
    7.0623219697E-01    7.0344168598E-01    7.0064143623E-01    6.9783159137E-01
    6.9501230191E-01    6.9218372487E-01    6.8934602346E-01    6.8649936683E-01
    6.8364392968E-01    6.8077989205E-01    6.7790743900E-01    6.7502676035E-01
    6.7213805040E-01    6.6924150766E-01    6.6633733466E-01    6.6342573763E-01
    6.6050692631E-01    6.5758111371E-01    6.5464851589E-01    6.5170935172E-01
    6.4876384273E-01    6.4581221281E-01    6.4285468813E-01    6.3989149684E-01
    6.3692286896E-01    6.3394903617E-01    6.3097023162E-01    6.2798668980E-01
    6.2499864635E-01    6.2200633790E-01    6.1901000193E-01    6.1600987660E-01
    6.1300620066E-01    6.0999921322E-01    6.0698915369E-01    6.0397626163E-01
    6.0096077662E-01    5.9794293811E-01    5.9492298537E-01    5.9190115730E-01
    5.8887769236E-01    5.8585282848E-01    5.8282680290E-01    5.7979985214E-01
    5.7677221184E-01    5.7374411672E-01    5.7071580045E-01    5.6768749560E-01
    5.6465943352E-01    5.6163184429E-01    5.5860495665E-01    5.5557899787E-01
    5.5255419376E-01    5.4953076853E-01    5.4650894478E-01    5.4348894339E-01
    5.4047098350E-01    5.3745528243E-01    5.3444205563E-01    5.3143151662E-01
    5.2842387696E-01    5.2541934618E-01    5.2241813176E-01    5.1942043905E-01
    5.1642647125E-01    5.1343642938E-01    5.1045051223E-01    5.0746891631E-01
    5.0449183587E-01    5.0151946278E-01    4.9855198660E-01    4.9558959448E-01
    4.9263247116E-01    4.8968079894E-01    4.8673475766E-01    4.8379452470E-01
    4.8086027492E-01    4.7793218066E-01    4.7501041173E-01    4.7209513540E-01
    4.6918651637E-01    4.6628471676E-01    4.6338989610E-01    4.6050221135E-01
    4.5762181684E-01    4.5474886431E-01    4.5188350285E-01    4.4902587898E-01
    4.4617613656E-01    4.4333441683E-01    4.4050085841E-01    4.3767559730E-01
    4.3485876685E-01    4.3205049783E-01    4.2925091834E-01    4.2646015390E-01
    4.2367832741E-01    4.2090555917E-01    4.1814196686E-01    4.1538766561E-01
    4.1264276793E-01    4.0990738379E-01    4.0718162058E-01    4.0446558314E-01
    4.0175937379E-01    3.9906309230E-01    3.9637683595E-01    3.9370069950E-01
    3.9103477524E-01    3.8837915299E-01    3.8573392012E-01    3.8309916154E-01
    3.8047495978E-01    3.7786139492E-01    3.7525854470E-01    3.7266648447E-01
    3.7008528722E-01    3.6751502365E-01    3.6495576211E-01    3.6240756869E-01
    3.5987050720E-01    3.5734463921E-01    3.5483002405E-01    3.5232671887E-01
    3.4983477861E-01    3.4735425608E-01    3.4488520192E-01    3.4242766469E-01
    3.3998169084E-01    3.3754732474E-01    3.3512460875E-01    3.3271358317E-01
    3.3031428634E-01    3.2792675459E-01    3.2555102233E-01    3.2318712204E-01
    3.2083508430E-01    3.1849493780E-01    3.1616670940E-01    3.1385042412E-01
    3.1154610520E-01    3.0925377408E-01    3.0697345046E-01    3.0470515231E-01
    3.0244889591E-01    3.0020469586E-01    2.9797256511E-01    2.9575251497E-01
    2.9354455518E-01    2.9134869387E-01    2.8916493765E-01    2.8699329159E-01
    2.8483375926E-01    2.8268634276E-01    2.8055104273E-01    2.7842785839E-01
    2.7631678756E-01    2.7421782669E-01    2.7213097086E-01    2.7005621383E-01
    2.6799354806E-01    2.6594296473E-01    2.6390445375E-01    2.6187800381E-01
    2.5986360240E-01    2.5786123580E-01    2.5587088914E-01    2.5389254642E-01
    2.5192619051E-01    2.4997180319E-01    2.4802936517E-01    2.4609885612E-01
    2.4418025468E-01    2.4227353846E-01    2.4037868413E-01    2.3849566737E-01
    2.3662446293E-01    2.3476504465E-01    2.3291738544E-01    2.3108145739E-01
    2.2925723168E-01    2.2744467868E-01    2.2564376795E-01    2.2385446823E-01
    2.2207674752E-01    2.2031057304E-01    2.1855591127E-01    2.1681272798E-01
    2.1508098825E-01    2.1336065646E-01    2.1165169635E-01    2.0995407101E-01
    2.0826774288E-01    2.0659267382E-01    2.0492882509E-01    2.0327615738E-01
    2.0163463081E-01    2.0000420498E-01    1.9838483895E-01    1.9677649128E-01
    1.9517912004E-01    1.9359268281E-01    1.9201713674E-01    1.9045243850E-01
    1.8889854435E-01    1.8735541015E-01    1.8582299132E-01    1.8430124294E-01
    1.8279011967E-01    1.8128957587E-01    1.7979956550E-01    1.7832004222E-01
    1.7685095938E-01    1.7539227001E-01    1.7394392684E-01    1.7250588235E-01
    1.7107808874E-01    1.6966049794E-01    1.6825306167E-01    1.6685573139E-01
    1.6546845837E-01    1.6409119365E-01    1.6272388808E-01    1.6136649234E-01
    1.6001895691E-01    1.5868123212E-01    1.5735326816E-01    1.5603501505E-01
    1.5472642270E-01    1.5342744088E-01    1.5213801926E-01    1.5085810739E-01
    1.4958765474E-01    1.4832661068E-01    1.4707492451E-01    1.4583254547E-01
    1.4459942272E-01    1.4337550539E-01    1.4216074254E-01    1.4095508321E-01
    1.3975847642E-01    1.3857087115E-01    1.3739221638E-01    1.3622246108E-01
    1.3506155421E-01    1.3390944477E-01    1.3276608174E-01    1.3163141413E-01
    1.3050539100E-01    1.2938796142E-01    1.2827907450E-01    1.2717867942E-01
    1.2608672539E-01    1.2500316168E-01    1.2392793763E-01    1.2286100266E-01
    1.2180230624E-01    1.2075179794E-01    1.1970942740E-01    1.1867514437E-01
    1.1764889867E-01    1.1663064024E-01    1.1562031910E-01    1.1461788542E-01
    1.1362328943E-01    1.1263648152E-01    1.1165741217E-01    1.1068603201E-01
    1.0972229178E-01    1.0876614236E-01    1.0781753477E-01    1.0687642017E-01
    1.0594274984E-01    1.0501647524E-01    1.0409754796E-01    1.0318591975E-01
    1.0228154250E-01    1.0138436829E-01    1.0049434934E-01    9.9611438019E-02
    9.8735586898E-02    9.7866748696E-02    9.7004876308E-02    9.6149922805E-02
    9.5301841432E-02    9.4460585615E-02    9.3626108960E-02    9.2798365257E-02
    9.1977308480E-02    9.1162892791E-02    9.0355072540E-02    8.9553802268E-02
    8.8759036708E-02    8.7970730788E-02    8.7188839630E-02    8.6413318553E-02
    8.5644123076E-02    8.4881208916E-02    8.4124531992E-02    8.3374048425E-02
    8.2629714540E-02    8.1891486865E-02    8.1159322135E-02    8.0433177292E-02
    7.9713009484E-02    7.8998776068E-02    7.8290434612E-02    7.7587942891E-02
    7.6891258893E-02    7.6200340817E-02    7.5515147074E-02    7.4835636288E-02
    7.4161767296E-02    7.3493499148E-02    7.2830791110E-02    7.2173602662E-02
    7.1521893498E-02    7.0875623528E-02    7.0234752877E-02    6.9599241888E-02
    6.8969051117E-02    6.8344141339E-02    6.7724473544E-02    6.7110008938E-02
    6.6500708946E-02    6.5896535206E-02    6.5297449576E-02    6.4703414128E-02
    6.4114391152E-02    6.3530343155E-02    6.2951232859E-02    6.2377023202E-02
    6.1807677339E-02    6.1243158641E-02    6.0683430693E-02    6.0128457297E-02
    5.9578202469E-02    5.9032630440E-02    5.8491705657E-02    5.7955392777E-02
    5.7423656676E-02    5.6896462439E-02    5.6373775365E-02    5.5855560967E-02
    5.5341784969E-02    5.4832413307E-02    5.4327412126E-02    5.3826747783E-02
    5.3330386847E-02    5.2838296093E-02    5.2350442508E-02    5.1866793284E-02
    5.1387315823E-02    5.0911977735E-02    5.0440746834E-02    4.9973591142E-02
    4.9510478884E-02    4.9051378492E-02    4.8596258602E-02    4.8145088050E-02
    4.7697835878E-02    4.7254471328E-02    4.6814963844E-02    4.6379283070E-02
    4.5947398849E-02    4.5519281225E-02    4.5094900439E-02    4.4674226927E-02
    4.4257231326E-02    4.3843884466E-02    4.3434157373E-02    4.3028021267E-02
    4.2625447561E-02    4.2226407862E-02    4.1830873967E-02    4.1438817866E-02
    4.1050211738E-02    4.0665027952E-02    4.0283239064E-02    3.9904817820E-02
    3.9529737151E-02    3.9157970175E-02    3.8789490194E-02    3.8424270697E-02
    3.8062285352E-02    3.7703508014E-02    3.7347912716E-02    3.6995473675E-02
    3.6646165286E-02    3.6299962123E-02    3.5956838938E-02    3.5616770663E-02
    3.5279732402E-02    3.4945699438E-02    3.4614647227E-02    3.4286551398E-02
    3.3961387756E-02    3.3639132275E-02    3.3319761100E-02    3.3003250549E-02
    3.2689577105E-02    3.2378717423E-02    3.2070648323E-02    3.1765346794E-02
    3.1462789988E-02    3.1162955224E-02    3.0865819984E-02    3.0571361913E-02
    3.0279558816E-02    2.9990388664E-02    2.9703829583E-02    2.9419859863E-02
    2.9138457948E-02    2.8859602444E-02    2.8583272111E-02    2.8309445864E-02
    2.8038102776E-02    2.7769222073E-02    2.7502783131E-02    2.7238765483E-02
    2.6977148811E-02    2.6717912947E-02    2.6461037873E-02    2.6206503722E-02
    2.5954290771E-02    2.5704379447E-02    2.5456750321E-02    2.5211384112E-02
    2.4968261681E-02    2.4727364033E-02    2.4488672316E-02    2.4252167820E-02
    2.4017831975E-02    2.3785646353E-02    2.3555592663E-02    2.3327652753E-02
    2.3101808610E-02    2.2878042356E-02    2.2656336249E-02    2.2436672684E-02
    2.2219034186E-02    2.2003403418E-02    2.1789763173E-02    2.1578096375E-02
    2.1368386081E-02    2.1160615477E-02    2.0954767877E-02    2.0750826725E-02
    2.0548775593E-02    2.0348598178E-02    2.0150278303E-02    1.9953799919E-02
    1.9759147097E-02    1.9566304035E-02    1.9375255053E-02    1.9185984591E-02
    1.8998477213E-02    1.8812717601E-02    1.8628690558E-02    1.8446381006E-02
    1.8265773984E-02    1.8086854649E-02    1.7909608273E-02    1.7734020247E-02
    1.7560076074E-02    1.7387761372E-02    1.7217061873E-02    1.7047963420E-02
    1.6880451972E-02    1.6714513594E-02    1.6550134465E-02    1.6387300872E-02
    1.6225999213E-02    1.6066215991E-02    1.5907937821E-02    1.5751151420E-02
    1.5595843614E-02    1.5442001334E-02    1.5289611615E-02    1.5138661596E-02
    1.4989138521E-02    1.4841029734E-02    1.4694322681E-02    1.4549004911E-02
    1.4405064073E-02    1.4262487914E-02    1.4121264282E-02    1.3981381122E-02
    1.3842826477E-02    1.3705588488E-02    1.3569655391E-02    1.3435015519E-02
    1.3301657299E-02    1.3169569253E-02    1.3038739995E-02    1.2909158234E-02
    1.2780812770E-02    1.2653692497E-02    1.2527786397E-02    1.2403083545E-02
    1.2279573104E-02    1.2157244326E-02    1.2036086554E-02    1.1916089215E-02
    1.1797241828E-02    1.1679533994E-02    1.1562955404E-02    1.1447495831E-02
    1.1333145135E-02    1.1219893259E-02    1.1107730231E-02    1.0996646160E-02
    1.0886631239E-02    1.0777675742E-02    1.0669770025E-02    1.0562904523E-02
    1.0457069752E-02    1.0352256308E-02    1.0248454865E-02    1.0145656176E-02
    1.0043851071E-02    9.9430304565E-03    9.8431853174E-03    9.7443067132E-03
    9.6463857795E-03    9.5494137262E-03    9.4533818382E-03    9.3582814736E-03
    9.2641040640E-03    9.1708411137E-03    9.0784841991E-03    8.9870249681E-03
    8.8964551400E-03    8.8067665042E-03    8.7179509204E-03    8.6300003178E-03
    8.5429066943E-03    8.4566621166E-03    8.3712587192E-03    8.2866887038E-03
    8.2029443393E-03    8.1200179609E-03    8.0379019697E-03    7.9565888321E-03
    7.8760710796E-03    7.7963413080E-03    7.7173921769E-03    7.6392164095E-03
    7.5618067920E-03    7.4851561728E-03    7.4092574624E-03    7.3341036329E-03
    7.2596877173E-03    7.1860028092E-03    7.1130420624E-03    7.0407986902E-03
    6.9692659650E-03    6.8984372180E-03    6.8283058387E-03    6.7588652744E-03
    6.6901090295E-03    6.6220306657E-03    6.5546238007E-03    6.4878821087E-03
    6.4217993190E-03    6.3563692164E-03    6.2915856402E-03    6.2274424841E-03
    6.1639336954E-03    6.1010532752E-03    6.0387952772E-03    5.9771538080E-03
    5.9161230262E-03    5.8556971422E-03    5.7958704176E-03    5.7366371651E-03
    5.6779917479E-03    5.6199285792E-03    5.5624421220E-03    5.5055268887E-03
    5.4491774404E-03    5.3933883869E-03    5.3381543861E-03    5.2834701437E-03
    5.2293304126E-03    5.1757299928E-03    5.1226637311E-03    5.0701265201E-03
    5.0181132986E-03    4.9666190508E-03    4.9156388058E-03    4.8651676378E-03
    4.8152006651E-03    4.7657330502E-03    4.7167599991E-03    4.6682767611E-03
    4.6202786287E-03    4.5727609367E-03    4.5257190622E-03    4.4791484244E-03
    4.4330444837E-03    4.3874027421E-03    4.3422187422E-03    4.2974880672E-03
    4.2532063405E-03    4.2093692253E-03    4.1659724245E-03    4.1230116800E-03
    4.0804827728E-03    4.0383815222E-03    3.9967037858E-03    3.9554454593E-03
    3.9146024759E-03    3.8741708059E-03    3.8341464567E-03    3.7945254724E-03
    3.7553039335E-03    3.7164779563E-03    3.6780436931E-03    3.6399973315E-03
    3.6023350943E-03    3.5650532391E-03    3.5281480580E-03    3.4916158775E-03
    3.4554530579E-03    3.4196559933E-03    3.3842211111E-03    3.3491448719E-03
    3.3144237690E-03    3.2800543284E-03    3.2460331082E-03    3.2123566986E-03
    3.1790217215E-03    3.1460248302E-03    3.1133627092E-03    3.0810320739E-03
    3.0490296703E-03    3.0173522749E-03    2.9859966941E-03    2.9549597644E-03
    2.9242383517E-03    2.8938293514E-03    2.8637296878E-03    2.8339363142E-03
    2.8044462124E-03    2.7752563926E-03    2.7463638929E-03    2.7177657796E-03
    2.6894591462E-03    2.6614411139E-03    2.6337088308E-03    2.6062594719E-03
    2.5790902389E-03    2.5521983601E-03    2.5255810896E-03    2.4992357077E-03
    2.4731595205E-03    2.4473498593E-03    2.4218040811E-03    2.3965195674E-03
    2.3714937251E-03    2.3467239853E-03    2.3222078038E-03    2.2979426602E-03
    2.2739260585E-03    2.2501555261E-03    2.2266286141E-03    2.2033428969E-03
    2.1802959722E-03    2.1574854602E-03    2.1349090042E-03    2.1125642699E-03
    2.0904489452E-03    2.0685607402E-03    2.0468973869E-03    2.0254566392E-03
    2.0042362721E-03    1.9832340822E-03    1.9624478874E-03    1.9418755261E-03
    1.9215148580E-03    1.9013637628E-03    1.8814201410E-03    1.8616819131E-03
    1.8421470199E-03    1.8228134215E-03    1.8036790982E-03    1.7847420496E-03
    1.7660002944E-03    1.7474518707E-03    1.7290948355E-03    1.7109272644E-03
    1.6929472518E-03    1.6751529105E-03    1.6575423716E-03    1.6401137842E-03
    1.6228653154E-03    1.6057951502E-03    1.5889014910E-03    1.5721825579E-03
    1.5556365879E-03    1.5392618357E-03    1.5230565724E-03    1.5070190863E-03
    1.4911476823E-03    1.4754406817E-03    1.4598964223E-03    1.4445132580E-03
    1.4292895588E-03    1.4142237106E-03    1.3993141152E-03    1.3845591899E-03
    1.3699573673E-03    1.3555070957E-03    1.3412068384E-03    1.3270550737E-03
    1.3130502950E-03    1.2991910101E-03    1.2854757419E-03    1.2719030275E-03
    1.2584714184E-03    1.2451794804E-03    1.2320257934E-03    1.2190089512E-03
    1.2061275615E-03    1.1933802456E-03    1.1807656386E-03    1.1682823887E-03
    1.1559291577E-03    1.1437046206E-03    1.1316074654E-03    1.1196363929E-03
    1.1077901170E-03    1.0960673642E-03    1.0844668735E-03    1.0729873966E-03
    1.0616276972E-03    1.0503865516E-03    1.0392627481E-03    1.0282550868E-03
    1.0173623801E-03    1.0065834517E-03    9.9591713744E-04    9.8536228441E-04
    9.7491775125E-04    9.6458240794E-04    9.5435513570E-04    9.4423482686E-04
    9.3422038478E-04    9.2431072373E-04    9.1450476881E-04    9.0480145582E-04
    8.9519973115E-04    8.8569855174E-04    8.7629688488E-04    8.6699370822E-04
    8.5778800959E-04    8.4867878693E-04    8.3966504821E-04    8.3074581131E-04
    8.2192010393E-04    8.1318696350E-04    8.0454543709E-04    7.9599458131E-04
    7.8753346223E-04    7.7916115527E-04    7.7087674512E-04    7.6267932567E-04
    7.5456799988E-04    7.4654187973E-04    7.3860008612E-04    7.3074174876E-04
    7.2296600615E-04    7.1527200541E-04    7.0765890227E-04    7.0012586094E-04
    6.9267205405E-04    6.8529666255E-04    6.7799887568E-04    6.7077789080E-04
    6.6363291340E-04    6.5656315698E-04    6.4956784296E-04    6.4264620063E-04
    6.3579746707E-04    6.2902088705E-04    6.2231571298E-04    6.1568120485E-04
    6.0911663009E-04    6.0262126358E-04    5.9619438752E-04    5.8983529139E-04
    5.8354327185E-04    5.7731763270E-04    5.7115768479E-04    5.6506274597E-04
    5.5903214098E-04    5.5306520145E-04    5.4716126576E-04    5.4131967903E-04
    5.3553979303E-04    5.2982096610E-04    5.2416256312E-04    5.1856395542E-04
    5.1302452073E-04    5.0754364311E-04    5.0212071288E-04    4.9675512658E-04
    4.9144628689E-04    4.8619360259E-04    4.8099648845E-04    4.7585436525E-04
    4.7076665965E-04    4.6573280417E-04    4.6075223712E-04    4.5582440255E-04
    4.5094875017E-04    4.4612473533E-04    4.4135181894E-04    4.3662946741E-04
    4.3195715264E-04    4.2733435188E-04    4.2276054778E-04    4.1823522826E-04
    4.1375788647E-04    4.0932802078E-04    4.0494513469E-04    4.0060873677E-04
    3.9631834066E-04    3.9207346495E-04    3.8787363321E-04    3.8371837386E-04
    3.7960722018E-04    3.7553971025E-04    3.7151538687E-04    3.6753379755E-04
    3.6359449446E-04    3.5969703436E-04    3.5584097857E-04    3.5202589291E-04
    3.4825134770E-04    3.4451691765E-04    3.4082218186E-04    3.3716672377E-04
    3.3355013110E-04    3.2997199583E-04    3.2643191413E-04    3.2292948634E-04
    3.1946431692E-04    3.1603601442E-04    3.1264419142E-04    3.0928846450E-04
    3.0596845419E-04    3.0268378495E-04    2.9943408512E-04    2.9621898686E-04
    2.9303812617E-04    2.8989114277E-04    2.8677768013E-04    2.8369738541E-04
    2.8064990940E-04    2.7763490653E-04    2.7465203478E-04    2.7170095569E-04
    2.6878133431E-04    2.6589283914E-04    2.6303514213E-04    2.6020791862E-04
    2.5741084732E-04    2.5464361028E-04    2.5190589284E-04    2.4919738361E-04
    2.4651777441E-04    2.4386676030E-04    2.4124403946E-04    2.3864931324E-04
    2.3608228608E-04    2.3354266549E-04    2.3103016201E-04    2.2854448922E-04
    2.2608536364E-04    2.2365250476E-04    2.2124563499E-04    2.1886447963E-04
    2.1650876682E-04    2.1417822755E-04    2.1187259559E-04    2.0959160752E-04
    2.0733500263E-04    2.0510252294E-04    2.0289391315E-04    2.0070892064E-04
    1.9854729540E-04    1.9640879005E-04    1.9429315979E-04    1.9220016235E-04
    1.9012955801E-04    1.8808110955E-04    1.8605458222E-04    1.8404974372E-04
    1.8206636420E-04    1.8010421619E-04    1.7816307459E-04    1.7624271667E-04
    1.7434292203E-04    1.7246347256E-04    1.7060415244E-04    1.6876474812E-04
    1.6694504826E-04    1.6514484375E-04    1.6336392766E-04    1.6160209524E-04
    1.5985914386E-04    1.5813487304E-04    1.5642908438E-04    1.5474158158E-04
    1.5307217038E-04    1.5142065855E-04    1.4978685590E-04    1.4817057422E-04
    1.4657162728E-04    1.4498983079E-04    1.4342500242E-04    1.4187696173E-04
    1.4034553019E-04    1.3883053112E-04    1.3733178974E-04    1.3584913306E-04
    1.3438238993E-04    1.3293139101E-04    1.3149596871E-04    1.3007595723E-04
    1.2867119249E-04    1.2728151216E-04    1.2590675559E-04    1.2454676385E-04
    1.2320137965E-04    1.2187044739E-04    1.2055381308E-04    1.1925132437E-04
    1.1796283050E-04    1.1668818231E-04    1.1542723220E-04    1.1417983414E-04
    1.1294584361E-04    1.1172511766E-04    1.1051751480E-04    1.0932289506E-04
    1.0814111994E-04    1.0697205240E-04    1.0581555684E-04    1.0467149909E-04
    1.0353974642E-04    1.0242016746E-04    1.0131263227E-04    1.0021701225E-04
    9.9133180180E-05    9.8061010161E-05    9.7000377641E-05    9.5951159380E-05
    9.4913233439E-05    9.3886479171E-05    9.2870777200E-05    9.1866009414E-05
    9.0872058952E-05    8.9888810185E-05    8.8916148710E-05    8.7953961334E-05
    8.7002136061E-05    8.6060562081E-05    8.5129129758E-05    8.4207730613E-05
    8.3296257319E-05    8.2394603684E-05    8.1502664642E-05    8.0620336238E-05
    7.9747515621E-05    7.8884101028E-05    7.8029991775E-05    7.7185088245E-05
    7.6349291878E-05    7.5522505158E-05    7.4704631602E-05    7.3895575754E-05
    7.3095243167E-05    7.2303540398E-05    7.1520374995E-05    7.0745655487E-05
    6.9979291374E-05    6.9221193116E-05    6.8471272125E-05    6.7729440752E-05
    6.6995612281E-05    6.6269700916E-05    6.5551621771E-05    6.4841290865E-05
    6.4138625106E-05    6.3443542288E-05    6.2755961077E-05    6.2075801004E-05
    6.1402982455E-05    6.0737426666E-05    6.0079055705E-05    5.9427792474E-05
    5.8783560692E-05    5.8146284891E-05    5.7515890405E-05    5.6892303364E-05
    5.6275450684E-05    5.5665260058E-05    5.5061659950E-05    5.4464579584E-05
    5.3873948940E-05    5.3289698743E-05    5.2711760453E-05    5.2140066265E-05
    5.1574549094E-05    5.1015142569E-05    5.0461781029E-05    4.9914399510E-05
    4.9372933743E-05    4.8837320142E-05    4.8307495800E-05    4.7783398481E-05
    4.7264966614E-05    4.6752139282E-05    4.6244856220E-05    4.5743057805E-05
    4.5246685052E-05    4.4755679602E-05    4.4269983722E-05    4.3789540295E-05
    4.3314292812E-05    4.2844185368E-05    4.2379162657E-05    4.1919169962E-05
    4.1464153149E-05    4.1014058665E-05    4.0568833527E-05    4.0128425320E-05
    3.9692782187E-05    3.9261852827E-05    3.8835586487E-05    3.8413932956E-05
    3.7996842560E-05    3.7584266155E-05    3.7176155126E-05    3.6772461373E-05
    3.6373137315E-05    3.5978135877E-05    3.5587410488E-05    3.5200915077E-05
    3.4818604065E-05    3.4440432359E-05    3.4066355352E-05    3.3696328911E-05
    3.3330309378E-05    3.2968253562E-05    3.2610118733E-05    3.2255862620E-05
    3.1905443404E-05    3.1558819714E-05    3.1215950623E-05    3.0876795642E-05
    3.0541314714E-05    3.0209468213E-05    2.9881216938E-05    2.9556522108E-05
    2.9235345357E-05    2.8917648729E-05    2.8603394678E-05    2.8292546058E-05
    2.7985066122E-05    2.7680918518E-05    2.7380067282E-05    2.7082476837E-05
    2.6788111989E-05    2.6496937918E-05    2.6208920181E-05    2.5924024703E-05
    2.5642217773E-05    2.5363466046E-05    2.5087736531E-05    2.4814996593E-05
    2.4545213947E-05    2.4278356654E-05    2.4014393120E-05    2.3753292087E-05
    2.3495022635E-05    2.3239554175E-05    2.2986856447E-05    2.2736899517E-05
    2.2489653771E-05    2.2245089914E-05    2.2003178966E-05    2.1763892257E-05
    2.1527201426E-05    2.1293078418E-05    2.1061495477E-05    2.0832425148E-05
    2.0605840269E-05    2.0381713972E-05    2.0160019676E-05    1.9940731087E-05
    1.9723822193E-05    1.9509267263E-05    1.9297040842E-05    1.9087117747E-05
    1.8879473070E-05    1.8674082168E-05    1.8470920663E-05    1.8269964440E-05
    1.8071189645E-05    1.7874572679E-05    1.7680090196E-05    1.7487719104E-05
    1.7297436558E-05    1.7109219958E-05    1.6923046950E-05    1.6738895418E-05
    1.6556743487E-05    1.6376569514E-05    1.6198352091E-05    1.6022070042E-05
    1.5847702417E-05    1.5675228492E-05    1.5504627767E-05    1.5335879962E-05
    1.5168965016E-05    1.5003863085E-05    1.4840554537E-05    1.4679019952E-05
    1.4519240122E-05    1.4361196042E-05    1.4204868915E-05    1.4050240144E-05
    1.3897291335E-05    1.3746004291E-05    1.3596361012E-05    1.3448343691E-05
    1.3301934713E-05    1.3157116654E-05    1.3013872278E-05    1.2872184534E-05
    1.2732036556E-05    1.2593411658E-05    1.2456293336E-05    1.2320665264E-05
    1.2186511290E-05    1.2053815440E-05    1.1922561909E-05    1.1792735063E-05
    1.1664319439E-05    1.1537299739E-05    1.1411660831E-05    1.1287387745E-05
    1.1164465675E-05    1.1042879972E-05    1.0922616147E-05    1.0803659868E-05
    1.0685996956E-05    1.0569613386E-05    1.0454495285E-05    1.0340628928E-05
    1.0228000742E-05    1.0116597296E-05    1.0006405306E-05    9.8974116341E-06
    9.7896032803E-06    9.6829673872E-06    9.5774912359E-06    9.4731622450E-06
    9.3699679692E-06    9.2678960976E-06    9.1669344523E-06    9.0670709870E-06
    8.9682937858E-06    8.8705910615E-06    8.7739511542E-06    8.6783625302E-06
    8.5838137806E-06    8.4902936198E-06    8.3977908842E-06    8.3062945310E-06
    8.2157936367E-06    8.1262773961E-06    8.0377351207E-06    7.9501562378E-06
    7.8635302888E-06    7.7778469284E-06    7.6930959234E-06    7.6092671512E-06
    7.5263505985E-06    7.4443363607E-06    7.3632146401E-06    7.2829757453E-06
    7.2036100894E-06    7.1251081894E-06    7.0474606652E-06    6.9706582379E-06
    6.8946917294E-06    6.8195520606E-06    6.7452302509E-06    6.6717174168E-06
    6.5990047710E-06    6.5270836215E-06    6.4559453701E-06    6.3855815120E-06
    6.3159836344E-06    6.2471434156E-06    6.1790526241E-06    6.1117031174E-06
    6.0450868414E-06    5.9791958291E-06    5.9140221998E-06    5.8495581581E-06
    5.7857959932E-06    5.7227280778E-06    5.6603468673E-06    5.5986448987E-06
    5.5376147900E-06    5.4772492391E-06    5.4175410231E-06    5.3584829973E-06
    5.3000680945E-06    5.2422893240E-06    5.1851397709E-06    5.1286125955E-06
    5.0727010318E-06    5.0173983876E-06    4.9626980428E-06    4.9085934496E-06
    4.8550781306E-06    4.8021456791E-06    4.7497897576E-06    4.6980040973E-06
    4.6467824976E-06    4.5961188250E-06    4.5460070125E-06    4.4964410591E-06
    4.4474150285E-06    4.3989230492E-06    4.3509593130E-06    4.3035180751E-06
    4.2565936525E-06    4.2101804244E-06    4.1642728306E-06    4.1188653715E-06
    4.0739526070E-06    4.0295291560E-06    3.9855896958E-06    3.9421289616E-06
    3.8991417456E-06    3.8566228964E-06    3.8145673187E-06    3.7729699724E-06
    3.7318258722E-06    3.6911300869E-06    3.6508777387E-06    3.6110640027E-06
    3.5716841067E-06    3.5327333299E-06    3.4942070031E-06    3.4561005074E-06
    3.4184092744E-06    3.3811287850E-06    3.3442545696E-06    3.3077822067E-06
    3.2717073229E-06    3.2360255926E-06    3.2007327367E-06    3.1658245229E-06
    3.1312967647E-06    3.0971453211E-06    3.0633660961E-06    3.0299550382E-06
    2.9969081399E-06    2.9642214372E-06    2.9318910092E-06    2.8999129776E-06
    2.8682835061E-06    2.8369988002E-06    2.8060551066E-06    2.7754487127E-06
    2.7451759463E-06    2.7152331752E-06    2.6856168064E-06    2.6563232863E-06
    2.6273490996E-06    2.5986907693E-06    2.5703448563E-06    2.5423079587E-06
    2.5145767116E-06    2.4871477867E-06
 </PP_RHOATOM>
 <PP_SPIN_ORB>
   <PP_RELBETA.1  index="1"  lll="0" jjj="0.5"/>
   <PP_RELBETA.2  index="2"  lll="0" jjj="0.5"/>
   <PP_RELBETA.3  index="3"  lll="1" jjj="0.5"/>
   <PP_RELBETA.4  index="4"  lll="1" jjj="1.5"/>
   <PP_RELBETA.5  index="5"  lll="1" jjj="0.5"/>
   <PP_RELBETA.6  index="6"  lll="1" jjj="1.5"/>
   <PP_RELBETA.7  index="7"  lll="2" jjj="1.5"/>
   <PP_RELBETA.8  index="8"  lll="2" jjj="2.5"/>
   <PP_RELBETA.9  index="9"  lll="2" jjj="1.5"/>
   <PP_RELBETA.10 index="10" lll="2" jjj="2.5"/>
   <PP_RELWFC.1  index="1"  lchi="0" jchi="0.5" nn="1"/>
   <PP_RELWFC.2  index="2"  lchi="1" jchi="1.5" nn="2"/>
   <PP_RELWFC.3  index="3"  lchi="1" jchi="0.5" nn="2"/>
   <PP_RELWFC.4  index="4"  lchi="2" jchi="2.5" nn="3"/>
   <PP_RELWFC.5  index="5"  lchi="2" jchi="1.5" nn="3"/>
   <PP_RELWFC.6  index="6"  lchi="0" jchi="0.5" nn="4"/>
 </PP_SPIN_ORB>
</UPF>

