<UPF version="2.0.1">
  <PP_INFO>

 This pseudopotential file has been produced using the code
 ONCVPSP  (Optimized Norm-Conservinng Vanderbilt PSeudopotential)
 fully-relativistic version 4.0.1 06/20/2107 by D. R. Hamann
 The code is available through a link at URL www.mat-simresearch.com.
 Documentation with the package provides a full discription of the
 input data below.


 While it is not required under the terms of the GNU GPL, it is
 suggested that you cite D. R. Hamann, Phys. Rev. B 88, 085117 (2013)
 in any publication using these pseudopotentials.

    <PP_INPUTFILE>
# ATOM AND REFERENCE CONFIGURATION
# atsym  z   nc   nv     iexc    psfile
  Se 34.00    5    3       4      upf
#
#   n    l    f        energy (Ha)
    1    0    2.00
    2    0    2.00
    2    1    6.00
    3    0    2.00
    3    1    6.00
    3    2   10.00
    4    0    2.00
    4    1    4.00
#
# PSEUDOPOTENTIAL AND OPTIMIZATION
# lmax
    2
#
#   l,   rc,     ep,   ncon, nbas, qcut
    0   2.10000  -0.63530    4    7   3.79818
    1   1.87167  -0.23929    4    8   8.10244
    2   2.10000  -1.95230    4    9   7.80331
#
# LOCAL POTENTIAL
# lloc, lpopt,  rc(5),   dvloc0
    4    5   1.77134      0.00000
#
# VANDERBILT-KLEINMAN-BYLANDER PROJECTORs
# l, nproj, debl
    0    2   4.50000
    1    2   4.50000
    2    2   2.00000
#
# MODEL CORE CHARGE
# icmod, fcfact, rcfact
    3   5.00000   1.40000
#
# LOG DERIVATIVE ANALYSIS
# epsh1, epsh2, depsh
  -12.00   12.00    0.02
#
# OUTPUT GRID
# rlmax, drl
    6.00    0.01
#
# TEST CONFIGURATIONS
# ncnf
    0
# nvcnf
#   n    l    f
    </PP_INPUTFILE>
  </PP_INFO>
  <!--                               -->
  <!-- END OF HUMAN READABLE SECTION -->
  <!--                               -->
    <PP_HEADER
       generated="Generated using ONCVPSP code by D. R. Hamann"
       author="anonymous"
       date="260612"
       comment=""
       element="Se"
       pseudo_type="NC"
       relativistic="full"
       is_ultrasoft="F"
       is_paw="F"
       is_coulomb="F"
       has_so="T"
       has_wfc="F"
       has_gipaw="F"
       core_correction="T"
       functional="PBE"
       z_valence="   16.00"
       total_psenergy="  -2.13087713528E+02"
       rho_cutoff="   1.21900000000E+01"
       l_max="2"
       l_local="-1"
       mesh_size="  1220"
       number_of_wfc="5"
       number_of_proj="10"/>
 <PP_MESH>
   <PP_R type="real"  size="1220" columns="8">
    0.0000    0.0100    0.0200    0.0300    0.0400    0.0500    0.0600    0.0700
    0.0800    0.0900    0.1000    0.1100    0.1200    0.1300    0.1400    0.1500
    0.1600    0.1700    0.1800    0.1900    0.2000    0.2100    0.2200    0.2300
    0.2400    0.2500    0.2600    0.2700    0.2800    0.2900    0.3000    0.3100
    0.3200    0.3300    0.3400    0.3500    0.3600    0.3700    0.3800    0.3900
    0.4000    0.4100    0.4200    0.4300    0.4400    0.4500    0.4600    0.4700
    0.4800    0.4900    0.5000    0.5100    0.5200    0.5300    0.5400    0.5500
    0.5600    0.5700    0.5800    0.5900    0.6000    0.6100    0.6200    0.6300
    0.6400    0.6500    0.6600    0.6700    0.6800    0.6900    0.7000    0.7100
    0.7200    0.7300    0.7400    0.7500    0.7600    0.7700    0.7800    0.7900
    0.8000    0.8100    0.8200    0.8300    0.8400    0.8500    0.8600    0.8700
    0.8800    0.8900    0.9000    0.9100    0.9200    0.9300    0.9400    0.9500
    0.9600    0.9700    0.9800    0.9900    1.0000    1.0100    1.0200    1.0300
    1.0400    1.0500    1.0600    1.0700    1.0800    1.0900    1.1000    1.1100
    1.1200    1.1300    1.1400    1.1500    1.1600    1.1700    1.1800    1.1900
    1.2000    1.2100    1.2200    1.2300    1.2400    1.2500    1.2600    1.2700
    1.2800    1.2900    1.3000    1.3100    1.3200    1.3300    1.3400    1.3500
    1.3600    1.3700    1.3800    1.3900    1.4000    1.4100    1.4200    1.4300
    1.4400    1.4500    1.4600    1.4700    1.4800    1.4900    1.5000    1.5100
    1.5200    1.5300    1.5400    1.5500    1.5600    1.5700    1.5800    1.5900
    1.6000    1.6100    1.6200    1.6300    1.6400    1.6500    1.6600    1.6700
    1.6800    1.6900    1.7000    1.7100    1.7200    1.7300    1.7400    1.7500
    1.7600    1.7700    1.7800    1.7900    1.8000    1.8100    1.8200    1.8300
    1.8400    1.8500    1.8600    1.8700    1.8800    1.8900    1.9000    1.9100
    1.9200    1.9300    1.9400    1.9500    1.9600    1.9700    1.9800    1.9900
    2.0000    2.0100    2.0200    2.0300    2.0400    2.0500    2.0600    2.0700
    2.0800    2.0900    2.1000    2.1100    2.1200    2.1300    2.1400    2.1500
    2.1600    2.1700    2.1800    2.1900    2.2000    2.2100    2.2200    2.2300
    2.2400    2.2500    2.2600    2.2700    2.2800    2.2900    2.3000    2.3100
    2.3200    2.3300    2.3400    2.3500    2.3600    2.3700    2.3800    2.3900
    2.4000    2.4100    2.4200    2.4300    2.4400    2.4500    2.4600    2.4700
    2.4800    2.4900    2.5000    2.5100    2.5200    2.5300    2.5400    2.5500
    2.5600    2.5700    2.5800    2.5900    2.6000    2.6100    2.6200    2.6300
    2.6400    2.6500    2.6600    2.6700    2.6800    2.6900    2.7000    2.7100
    2.7200    2.7300    2.7400    2.7500    2.7600    2.7700    2.7800    2.7900
    2.8000    2.8100    2.8200    2.8300    2.8400    2.8500    2.8600    2.8700
    2.8800    2.8900    2.9000    2.9100    2.9200    2.9300    2.9400    2.9500
    2.9600    2.9700    2.9800    2.9900    3.0000    3.0100    3.0200    3.0300
    3.0400    3.0500    3.0600    3.0700    3.0800    3.0900    3.1000    3.1100
    3.1200    3.1300    3.1400    3.1500    3.1600    3.1700    3.1800    3.1900
    3.2000    3.2100    3.2200    3.2300    3.2400    3.2500    3.2600    3.2700
    3.2800    3.2900    3.3000    3.3100    3.3200    3.3300    3.3400    3.3500
    3.3600    3.3700    3.3800    3.3900    3.4000    3.4100    3.4200    3.4300
    3.4400    3.4500    3.4600    3.4700    3.4800    3.4900    3.5000    3.5100
    3.5200    3.5300    3.5400    3.5500    3.5600    3.5700    3.5800    3.5900
    3.6000    3.6100    3.6200    3.6300    3.6400    3.6500    3.6600    3.6700
    3.6800    3.6900    3.7000    3.7100    3.7200    3.7300    3.7400    3.7500
    3.7600    3.7700    3.7800    3.7900    3.8000    3.8100    3.8200    3.8300
    3.8400    3.8500    3.8600    3.8700    3.8800    3.8900    3.9000    3.9100
    3.9200    3.9300    3.9400    3.9500    3.9600    3.9700    3.9800    3.9900
    4.0000    4.0100    4.0200    4.0300    4.0400    4.0500    4.0600    4.0700
    4.0800    4.0900    4.1000    4.1100    4.1200    4.1300    4.1400    4.1500
    4.1600    4.1700    4.1800    4.1900    4.2000    4.2100    4.2200    4.2300
    4.2400    4.2500    4.2600    4.2700    4.2800    4.2900    4.3000    4.3100
    4.3200    4.3300    4.3400    4.3500    4.3600    4.3700    4.3800    4.3900
    4.4000    4.4100    4.4200    4.4300    4.4400    4.4500    4.4600    4.4700
    4.4800    4.4900    4.5000    4.5100    4.5200    4.5300    4.5400    4.5500
    4.5600    4.5700    4.5800    4.5900    4.6000    4.6100    4.6200    4.6300
    4.6400    4.6500    4.6600    4.6700    4.6800    4.6900    4.7000    4.7100
    4.7200    4.7300    4.7400    4.7500    4.7600    4.7700    4.7800    4.7900
    4.8000    4.8100    4.8200    4.8300    4.8400    4.8500    4.8600    4.8700
    4.8800    4.8900    4.9000    4.9100    4.9200    4.9300    4.9400    4.9500
    4.9600    4.9700    4.9800    4.9900    5.0000    5.0100    5.0200    5.0300
    5.0400    5.0500    5.0600    5.0700    5.0800    5.0900    5.1000    5.1100
    5.1200    5.1300    5.1400    5.1500    5.1600    5.1700    5.1800    5.1900
    5.2000    5.2100    5.2200    5.2300    5.2400    5.2500    5.2600    5.2700
    5.2800    5.2900    5.3000    5.3100    5.3200    5.3300    5.3400    5.3500
    5.3600    5.3700    5.3800    5.3900    5.4000    5.4100    5.4200    5.4300
    5.4400    5.4500    5.4600    5.4700    5.4800    5.4900    5.5000    5.5100
    5.5200    5.5300    5.5400    5.5500    5.5600    5.5700    5.5800    5.5900
    5.6000    5.6100    5.6200    5.6300    5.6400    5.6500    5.6600    5.6700
    5.6800    5.6900    5.7000    5.7100    5.7200    5.7300    5.7400    5.7500
    5.7600    5.7700    5.7800    5.7900    5.8000    5.8100    5.8200    5.8300
    5.8400    5.8500    5.8600    5.8700    5.8800    5.8900    5.9000    5.9100
    5.9200    5.9300    5.9400    5.9500    5.9600    5.9700    5.9800    5.9900
    6.0000    6.0100    6.0200    6.0300    6.0400    6.0500    6.0600    6.0700
    6.0800    6.0900    6.1000    6.1100    6.1200    6.1300    6.1400    6.1500
    6.1600    6.1700    6.1800    6.1900    6.2000    6.2100    6.2200    6.2300
    6.2400    6.2500    6.2600    6.2700    6.2800    6.2900    6.3000    6.3100
    6.3200    6.3300    6.3400    6.3500    6.3600    6.3700    6.3800    6.3900
    6.4000    6.4100    6.4200    6.4300    6.4400    6.4500    6.4600    6.4700
    6.4800    6.4900    6.5000    6.5100    6.5200    6.5300    6.5400    6.5500
    6.5600    6.5700    6.5800    6.5900    6.6000    6.6100    6.6200    6.6300
    6.6400    6.6500    6.6600    6.6700    6.6800    6.6900    6.7000    6.7100
    6.7200    6.7300    6.7400    6.7500    6.7600    6.7700    6.7800    6.7900
    6.8000    6.8100    6.8200    6.8300    6.8400    6.8500    6.8600    6.8700
    6.8800    6.8900    6.9000    6.9100    6.9200    6.9300    6.9400    6.9500
    6.9600    6.9700    6.9800    6.9900    7.0000    7.0100    7.0200    7.0300
    7.0400    7.0500    7.0600    7.0700    7.0800    7.0900    7.1000    7.1100
    7.1200    7.1300    7.1400    7.1500    7.1600    7.1700    7.1800    7.1900
    7.2000    7.2100    7.2200    7.2300    7.2400    7.2500    7.2600    7.2700
    7.2800    7.2900    7.3000    7.3100    7.3200    7.3300    7.3400    7.3500
    7.3600    7.3700    7.3800    7.3900    7.4000    7.4100    7.4200    7.4300
    7.4400    7.4500    7.4600    7.4700    7.4800    7.4900    7.5000    7.5100
    7.5200    7.5300    7.5400    7.5500    7.5600    7.5700    7.5800    7.5900
    7.6000    7.6100    7.6200    7.6300    7.6400    7.6500    7.6600    7.6700
    7.6800    7.6900    7.7000    7.7100    7.7200    7.7300    7.7400    7.7500
    7.7600    7.7700    7.7800    7.7900    7.8000    7.8100    7.8200    7.8300
    7.8400    7.8500    7.8600    7.8700    7.8800    7.8900    7.9000    7.9100
    7.9200    7.9300    7.9400    7.9500    7.9600    7.9700    7.9800    7.9900
    8.0000    8.0100    8.0200    8.0300    8.0400    8.0500    8.0600    8.0700
    8.0800    8.0900    8.1000    8.1100    8.1200    8.1300    8.1400    8.1500
    8.1600    8.1700    8.1800    8.1900    8.2000    8.2100    8.2200    8.2300
    8.2400    8.2500    8.2600    8.2700    8.2800    8.2900    8.3000    8.3100
    8.3200    8.3300    8.3400    8.3500    8.3600    8.3700    8.3800    8.3900
    8.4000    8.4100    8.4200    8.4300    8.4400    8.4500    8.4600    8.4700
    8.4800    8.4900    8.5000    8.5100    8.5200    8.5300    8.5400    8.5500
    8.5600    8.5700    8.5800    8.5900    8.6000    8.6100    8.6200    8.6300
    8.6400    8.6500    8.6600    8.6700    8.6800    8.6900    8.7000    8.7100
    8.7200    8.7300    8.7400    8.7500    8.7600    8.7700    8.7800    8.7900
    8.8000    8.8100    8.8200    8.8300    8.8400    8.8500    8.8600    8.8700
    8.8800    8.8900    8.9000    8.9100    8.9200    8.9300    8.9400    8.9500
    8.9600    8.9700    8.9800    8.9900    9.0000    9.0100    9.0200    9.0300
    9.0400    9.0500    9.0600    9.0700    9.0800    9.0900    9.1000    9.1100
    9.1200    9.1300    9.1400    9.1500    9.1600    9.1700    9.1800    9.1900
    9.2000    9.2100    9.2200    9.2300    9.2400    9.2500    9.2600    9.2700
    9.2800    9.2900    9.3000    9.3100    9.3200    9.3300    9.3400    9.3500
    9.3600    9.3700    9.3800    9.3900    9.4000    9.4100    9.4200    9.4300
    9.4400    9.4500    9.4600    9.4700    9.4800    9.4900    9.5000    9.5100
    9.5200    9.5300    9.5400    9.5500    9.5600    9.5700    9.5800    9.5900
    9.6000    9.6100    9.6200    9.6300    9.6400    9.6500    9.6600    9.6700
    9.6800    9.6900    9.7000    9.7100    9.7200    9.7300    9.7400    9.7500
    9.7600    9.7700    9.7800    9.7900    9.8000    9.8100    9.8200    9.8300
    9.8400    9.8500    9.8600    9.8700    9.8800    9.8900    9.9000    9.9100
    9.9200    9.9300    9.9400    9.9500    9.9600    9.9700    9.9800    9.9900
   10.0000   10.0100   10.0200   10.0300   10.0400   10.0500   10.0600   10.0700
   10.0800   10.0900   10.1000   10.1100   10.1200   10.1300   10.1400   10.1500
   10.1600   10.1700   10.1800   10.1900   10.2000   10.2100   10.2200   10.2300
   10.2400   10.2500   10.2600   10.2700   10.2800   10.2900   10.3000   10.3100
   10.3200   10.3300   10.3400   10.3500   10.3600   10.3700   10.3800   10.3900
   10.4000   10.4100   10.4200   10.4300   10.4400   10.4500   10.4600   10.4700
   10.4800   10.4900   10.5000   10.5100   10.5200   10.5300   10.5400   10.5500
   10.5600   10.5700   10.5800   10.5900   10.6000   10.6100   10.6200   10.6300
   10.6400   10.6500   10.6600   10.6700   10.6800   10.6900   10.7000   10.7100
   10.7200   10.7300   10.7400   10.7500   10.7600   10.7700   10.7800   10.7900
   10.8000   10.8100   10.8200   10.8300   10.8400   10.8500   10.8600   10.8700
   10.8800   10.8900   10.9000   10.9100   10.9200   10.9300   10.9400   10.9500
   10.9600   10.9700   10.9800   10.9900   11.0000   11.0100   11.0200   11.0300
   11.0400   11.0500   11.0600   11.0700   11.0800   11.0900   11.1000   11.1100
   11.1200   11.1300   11.1400   11.1500   11.1600   11.1700   11.1800   11.1900
   11.2000   11.2100   11.2200   11.2300   11.2400   11.2500   11.2600   11.2700
   11.2800   11.2900   11.3000   11.3100   11.3200   11.3300   11.3400   11.3500
   11.3600   11.3700   11.3800   11.3900   11.4000   11.4100   11.4200   11.4300
   11.4400   11.4500   11.4600   11.4700   11.4800   11.4900   11.5000   11.5100
   11.5200   11.5300   11.5400   11.5500   11.5600   11.5700   11.5800   11.5900
   11.6000   11.6100   11.6200   11.6300   11.6400   11.6500   11.6600   11.6700
   11.6800   11.6900   11.7000   11.7100   11.7200   11.7300   11.7400   11.7500
   11.7600   11.7700   11.7800   11.7900   11.8000   11.8100   11.8200   11.8300
   11.8400   11.8500   11.8600   11.8700   11.8800   11.8900   11.9000   11.9100
   11.9200   11.9300   11.9400   11.9500   11.9600   11.9700   11.9800   11.9900
   12.0000   12.0100   12.0200   12.0300   12.0400   12.0500   12.0600   12.0700
   12.0800   12.0900   12.1000   12.1100   12.1200   12.1300   12.1400   12.1500
   12.1600   12.1700   12.1800   12.1900
   </PP_R>
   <PP_RAB type="real"  size="1220" columns="8">
    0.0100    0.0100    0.0100    0.0100    0.0100    0.0100    0.0100    0.0100
    0.0100    0.0100    0.0100    0.0100    0.0100    0.0100    0.0100    0.0100
    0.0100    0.0100    0.0100    0.0100    0.0100    0.0100    0.0100    0.0100
    0.0100    0.0100    0.0100    0.0100    0.0100    0.0100    0.0100    0.0100
    0.0100    0.0100    0.0100    0.0100    0.0100    0.0100    0.0100    0.0100
    0.0100    0.0100    0.0100    0.0100    0.0100    0.0100    0.0100    0.0100
    0.0100    0.0100    0.0100    0.0100    0.0100    0.0100    0.0100    0.0100
    0.0100    0.0100    0.0100    0.0100    0.0100    0.0100    0.0100    0.0100
    0.0100    0.0100    0.0100    0.0100    0.0100    0.0100    0.0100    0.0100
    0.0100    0.0100    0.0100    0.0100    0.0100    0.0100    0.0100    0.0100
    0.0100    0.0100    0.0100    0.0100    0.0100    0.0100    0.0100    0.0100
    0.0100    0.0100    0.0100    0.0100    0.0100    0.0100    0.0100    0.0100
    0.0100    0.0100    0.0100    0.0100    0.0100    0.0100    0.0100    0.0100
    0.0100    0.0100    0.0100    0.0100    0.0100    0.0100    0.0100    0.0100
    0.0100    0.0100    0.0100    0.0100    0.0100    0.0100    0.0100    0.0100
    0.0100    0.0100    0.0100    0.0100    0.0100    0.0100    0.0100    0.0100
    0.0100    0.0100    0.0100    0.0100    0.0100    0.0100    0.0100    0.0100
    0.0100    0.0100    0.0100    0.0100    0.0100    0.0100    0.0100    0.0100
    0.0100    0.0100    0.0100    0.0100    0.0100    0.0100    0.0100    0.0100
    0.0100    0.0100    0.0100    0.0100    0.0100    0.0100    0.0100    0.0100
    0.0100    0.0100    0.0100    0.0100    0.0100    0.0100    0.0100    0.0100
    0.0100    0.0100    0.0100    0.0100    0.0100    0.0100    0.0100    0.0100
    0.0100    0.0100    0.0100    0.0100    0.0100    0.0100    0.0100    0.0100
    0.0100    0.0100    0.0100    0.0100    0.0100    0.0100    0.0100    0.0100
    0.0100    0.0100    0.0100    0.0100    0.0100    0.0100    0.0100    0.0100
    0.0100    0.0100    0.0100    0.0100    0.0100    0.0100    0.0100    0.0100
    0.0100    0.0100    0.0100    0.0100    0.0100    0.0100    0.0100    0.0100
    0.0100    0.0100    0.0100    0.0100    0.0100    0.0100    0.0100    0.0100
    0.0100    0.0100    0.0100    0.0100    0.0100    0.0100    0.0100    0.0100
    0.0100    0.0100    0.0100    0.0100    0.0100    0.0100    0.0100    0.0100
    0.0100    0.0100    0.0100    0.0100    0.0100    0.0100    0.0100    0.0100
    0.0100    0.0100    0.0100    0.0100    0.0100    0.0100    0.0100    0.0100
    0.0100    0.0100    0.0100    0.0100    0.0100    0.0100    0.0100    0.0100
    0.0100    0.0100    0.0100    0.0100    0.0100    0.0100    0.0100    0.0100
    0.0100    0.0100    0.0100    0.0100    0.0100    0.0100    0.0100    0.0100
    0.0100    0.0100    0.0100    0.0100    0.0100    0.0100    0.0100    0.0100
    0.0100    0.0100    0.0100    0.0100    0.0100    0.0100    0.0100    0.0100
    0.0100    0.0100    0.0100    0.0100    0.0100    0.0100    0.0100    0.0100
    0.0100    0.0100    0.0100    0.0100    0.0100    0.0100    0.0100    0.0100
    0.0100    0.0100    0.0100    0.0100    0.0100    0.0100    0.0100    0.0100
    0.0100    0.0100    0.0100    0.0100    0.0100    0.0100    0.0100    0.0100
    0.0100    0.0100    0.0100    0.0100    0.0100    0.0100    0.0100    0.0100
    0.0100    0.0100    0.0100    0.0100    0.0100    0.0100    0.0100    0.0100
    0.0100    0.0100    0.0100    0.0100    0.0100    0.0100    0.0100    0.0100
    0.0100    0.0100    0.0100    0.0100    0.0100    0.0100    0.0100    0.0100
    0.0100    0.0100    0.0100    0.0100    0.0100    0.0100    0.0100    0.0100
    0.0100    0.0100    0.0100    0.0100    0.0100    0.0100    0.0100    0.0100
    0.0100    0.0100    0.0100    0.0100    0.0100    0.0100    0.0100    0.0100
    0.0100    0.0100    0.0100    0.0100    0.0100    0.0100    0.0100    0.0100
    0.0100    0.0100    0.0100    0.0100    0.0100    0.0100    0.0100    0.0100
    0.0100    0.0100    0.0100    0.0100    0.0100    0.0100    0.0100    0.0100
    0.0100    0.0100    0.0100    0.0100    0.0100    0.0100    0.0100    0.0100
    0.0100    0.0100    0.0100    0.0100    0.0100    0.0100    0.0100    0.0100
    0.0100    0.0100    0.0100    0.0100    0.0100    0.0100    0.0100    0.0100
    0.0100    0.0100    0.0100    0.0100    0.0100    0.0100    0.0100    0.0100
    0.0100    0.0100    0.0100    0.0100    0.0100    0.0100    0.0100    0.0100
    0.0100    0.0100    0.0100    0.0100    0.0100    0.0100    0.0100    0.0100
    0.0100    0.0100    0.0100    0.0100    0.0100    0.0100    0.0100    0.0100
    0.0100    0.0100    0.0100    0.0100    0.0100    0.0100    0.0100    0.0100
    0.0100    0.0100    0.0100    0.0100    0.0100    0.0100    0.0100    0.0100
    0.0100    0.0100    0.0100    0.0100    0.0100    0.0100    0.0100    0.0100
    0.0100    0.0100    0.0100    0.0100    0.0100    0.0100    0.0100    0.0100
    0.0100    0.0100    0.0100    0.0100    0.0100    0.0100    0.0100    0.0100
    0.0100    0.0100    0.0100    0.0100    0.0100    0.0100    0.0100    0.0100
    0.0100    0.0100    0.0100    0.0100    0.0100    0.0100    0.0100    0.0100
    0.0100    0.0100    0.0100    0.0100    0.0100    0.0100    0.0100    0.0100
    0.0100    0.0100    0.0100    0.0100    0.0100    0.0100    0.0100    0.0100
    0.0100    0.0100    0.0100    0.0100    0.0100    0.0100    0.0100    0.0100
    0.0100    0.0100    0.0100    0.0100    0.0100    0.0100    0.0100    0.0100
    0.0100    0.0100    0.0100    0.0100    0.0100    0.0100    0.0100    0.0100
    0.0100    0.0100    0.0100    0.0100    0.0100    0.0100    0.0100    0.0100
    0.0100    0.0100    0.0100    0.0100    0.0100    0.0100    0.0100    0.0100
    0.0100    0.0100    0.0100    0.0100    0.0100    0.0100    0.0100    0.0100
    0.0100    0.0100    0.0100    0.0100    0.0100    0.0100    0.0100    0.0100
    0.0100    0.0100    0.0100    0.0100    0.0100    0.0100    0.0100    0.0100
    0.0100    0.0100    0.0100    0.0100    0.0100    0.0100    0.0100    0.0100
    0.0100    0.0100    0.0100    0.0100    0.0100    0.0100    0.0100    0.0100
    0.0100    0.0100    0.0100    0.0100    0.0100    0.0100    0.0100    0.0100
    0.0100    0.0100    0.0100    0.0100    0.0100    0.0100    0.0100    0.0100
    0.0100    0.0100    0.0100    0.0100    0.0100    0.0100    0.0100    0.0100
    0.0100    0.0100    0.0100    0.0100    0.0100    0.0100    0.0100    0.0100
    0.0100    0.0100    0.0100    0.0100    0.0100    0.0100    0.0100    0.0100
    0.0100    0.0100    0.0100    0.0100    0.0100    0.0100    0.0100    0.0100
    0.0100    0.0100    0.0100    0.0100    0.0100    0.0100    0.0100    0.0100
    0.0100    0.0100    0.0100    0.0100    0.0100    0.0100    0.0100    0.0100
    0.0100    0.0100    0.0100    0.0100    0.0100    0.0100    0.0100    0.0100
    0.0100    0.0100    0.0100    0.0100    0.0100    0.0100    0.0100    0.0100
    0.0100    0.0100    0.0100    0.0100    0.0100    0.0100    0.0100    0.0100
    0.0100    0.0100    0.0100    0.0100    0.0100    0.0100    0.0100    0.0100
    0.0100    0.0100    0.0100    0.0100    0.0100    0.0100    0.0100    0.0100
    0.0100    0.0100    0.0100    0.0100    0.0100    0.0100    0.0100    0.0100
    0.0100    0.0100    0.0100    0.0100    0.0100    0.0100    0.0100    0.0100
    0.0100    0.0100    0.0100    0.0100    0.0100    0.0100    0.0100    0.0100
    0.0100    0.0100    0.0100    0.0100    0.0100    0.0100    0.0100    0.0100
    0.0100    0.0100    0.0100    0.0100    0.0100    0.0100    0.0100    0.0100
    0.0100    0.0100    0.0100    0.0100    0.0100    0.0100    0.0100    0.0100
    0.0100    0.0100    0.0100    0.0100    0.0100    0.0100    0.0100    0.0100
    0.0100    0.0100    0.0100    0.0100    0.0100    0.0100    0.0100    0.0100
    0.0100    0.0100    0.0100    0.0100    0.0100    0.0100    0.0100    0.0100
    0.0100    0.0100    0.0100    0.0100    0.0100    0.0100    0.0100    0.0100
    0.0100    0.0100    0.0100    0.0100    0.0100    0.0100    0.0100    0.0100
    0.0100    0.0100    0.0100    0.0100    0.0100    0.0100    0.0100    0.0100
    0.0100    0.0100    0.0100    0.0100    0.0100    0.0100    0.0100    0.0100
    0.0100    0.0100    0.0100    0.0100    0.0100    0.0100    0.0100    0.0100
    0.0100    0.0100    0.0100    0.0100    0.0100    0.0100    0.0100    0.0100
    0.0100    0.0100    0.0100    0.0100    0.0100    0.0100    0.0100    0.0100
    0.0100    0.0100    0.0100    0.0100    0.0100    0.0100    0.0100    0.0100
    0.0100    0.0100    0.0100    0.0100    0.0100    0.0100    0.0100    0.0100
    0.0100    0.0100    0.0100    0.0100    0.0100    0.0100    0.0100    0.0100
    0.0100    0.0100    0.0100    0.0100    0.0100    0.0100    0.0100    0.0100
    0.0100    0.0100    0.0100    0.0100    0.0100    0.0100    0.0100    0.0100
    0.0100    0.0100    0.0100    0.0100    0.0100    0.0100    0.0100    0.0100
    0.0100    0.0100    0.0100    0.0100    0.0100    0.0100    0.0100    0.0100
    0.0100    0.0100    0.0100    0.0100    0.0100    0.0100    0.0100    0.0100
    0.0100    0.0100    0.0100    0.0100    0.0100    0.0100    0.0100    0.0100
    0.0100    0.0100    0.0100    0.0100    0.0100    0.0100    0.0100    0.0100
    0.0100    0.0100    0.0100    0.0100    0.0100    0.0100    0.0100    0.0100
    0.0100    0.0100    0.0100    0.0100    0.0100    0.0100    0.0100    0.0100
    0.0100    0.0100    0.0100    0.0100    0.0100    0.0100    0.0100    0.0100
    0.0100    0.0100    0.0100    0.0100    0.0100    0.0100    0.0100    0.0100
    0.0100    0.0100    0.0100    0.0100    0.0100    0.0100    0.0100    0.0100
    0.0100    0.0100    0.0100    0.0100    0.0100    0.0100    0.0100    0.0100
    0.0100    0.0100    0.0100    0.0100    0.0100    0.0100    0.0100    0.0100
    0.0100    0.0100    0.0100    0.0100    0.0100    0.0100    0.0100    0.0100
    0.0100    0.0100    0.0100    0.0100    0.0100    0.0100    0.0100    0.0100
    0.0100    0.0100    0.0100    0.0100    0.0100    0.0100    0.0100    0.0100
    0.0100    0.0100    0.0100    0.0100    0.0100    0.0100    0.0100    0.0100
    0.0100    0.0100    0.0100    0.0100    0.0100    0.0100    0.0100    0.0100
    0.0100    0.0100    0.0100    0.0100    0.0100    0.0100    0.0100    0.0100
    0.0100    0.0100    0.0100    0.0100    0.0100    0.0100    0.0100    0.0100
    0.0100    0.0100    0.0100    0.0100    0.0100    0.0100    0.0100    0.0100
    0.0100    0.0100    0.0100    0.0100    0.0100    0.0100    0.0100    0.0100
    0.0100    0.0100    0.0100    0.0100    0.0100    0.0100    0.0100    0.0100
    0.0100    0.0100    0.0100    0.0100    0.0100    0.0100    0.0100    0.0100
    0.0100    0.0100    0.0100    0.0100    0.0100    0.0100    0.0100    0.0100
    0.0100    0.0100    0.0100    0.0100    0.0100    0.0100    0.0100    0.0100
    0.0100    0.0100    0.0100    0.0100    0.0100    0.0100    0.0100    0.0100
    0.0100    0.0100    0.0100    0.0100    0.0100    0.0100    0.0100    0.0100
    0.0100    0.0100    0.0100    0.0100    0.0100    0.0100    0.0100    0.0100
    0.0100    0.0100    0.0100    0.0100    0.0100    0.0100    0.0100    0.0100
    0.0100    0.0100    0.0100    0.0100    0.0100    0.0100    0.0100    0.0100
    0.0100    0.0100    0.0100    0.0100    0.0100    0.0100    0.0100    0.0100
    0.0100    0.0100    0.0100    0.0100    0.0100    0.0100    0.0100    0.0100
    0.0100    0.0100    0.0100    0.0100    0.0100    0.0100    0.0100    0.0100
    0.0100    0.0100    0.0100    0.0100    0.0100    0.0100    0.0100    0.0100
    0.0100    0.0100    0.0100    0.0100    0.0100    0.0100    0.0100    0.0100
    0.0100    0.0100    0.0100    0.0100    0.0100    0.0100    0.0100    0.0100
    0.0100    0.0100    0.0100    0.0100    0.0100    0.0100    0.0100    0.0100
    0.0100    0.0100    0.0100    0.0100    0.0100    0.0100    0.0100    0.0100
    0.0100    0.0100    0.0100    0.0100    0.0100    0.0100    0.0100    0.0100
    0.0100    0.0100    0.0100    0.0100    0.0100    0.0100    0.0100    0.0100
    0.0100    0.0100    0.0100    0.0100    0.0100    0.0100    0.0100    0.0100
    0.0100    0.0100    0.0100    0.0100
   </PP_RAB>
 </PP_MESH>
  <PP_LOCAL type="real"  size="1220" columns="4">
   -3.4663350577E+01   -3.4663256828E+01   -3.4662975822E+01   -3.4662508308E+01
   -3.4661855441E+01   -3.4661018660E+01   -3.4659999512E+01   -3.4658799440E+01
   -3.4657419524E+01   -3.4655860204E+01   -3.4654120961E+01   -3.4652199997E+01
   -3.4650093892E+01   -3.4647797256E+01   -3.4645302392E+01   -3.4642598959E+01
   -3.4639673648E+01   -3.4636509885E+01   -3.4633087548E+01   -3.4629382720E+01
   -3.4625367471E+01   -3.4621009669E+01   -3.4616272839E+01   -3.4611116050E+01
   -3.4605493851E+01   -3.4599356243E+01   -3.4592648698E+01   -3.4585312222E+01
   -3.4577283455E+01   -3.4568494825E+01   -3.4558874735E+01   -3.4548347804E+01
   -3.4536835138E+01   -3.4524254648E+01   -3.4510521405E+01   -3.4495548027E+01
   -3.4479245103E+01   -3.4461521638E+01   -3.4442285524E+01   -3.4421444030E+01
   -3.4398904300E+01   -3.4374573854E+01   -3.4348361093E+01   -3.4320175786E+01
   -3.4289929543E+01   -3.4257536269E+01   -3.4222912577E+01   -3.4185978175E+01
   -3.4146656207E+01   -3.4104873557E+01   -3.4060561098E+01   -3.4013653912E+01
   -3.3964091456E+01   -3.3911817693E+01   -3.3856781197E+01   -3.3798935215E+01
   -3.3738237722E+01   -3.3674651456E+01   -3.3608143939E+01   -3.3538687507E+01
   -3.3466259335E+01   -3.3390841476E+01   -3.3312420908E+01   -3.3230989597E+01
   -3.3146544574E+01   -3.3059088031E+01   -3.2968627416E+01   -3.2875175560E+01
   -3.2778750785E+01   -3.2679377031E+01   -3.2577083968E+01   -3.2471907093E+01
   -3.2363887817E+01   -3.2253073512E+01   -3.2139517530E+01   -3.2023279181E+01
   -3.1904423664E+01   -3.1783021935E+01   -3.1659150541E+01   -3.1532891374E+01
   -3.1404331389E+01   -3.1273562254E+01   -3.1140679958E+01   -3.1005784374E+01
   -3.0868978780E+01   -3.0730369356E+01   -3.0590064657E+01   -3.0448175075E+01
   -3.0304812291E+01   -3.0160088732E+01   -3.0014117041E+01   -2.9867009552E+01
   -2.9718877791E+01   -2.9569831987E+01   -2.9419980615E+01   -2.9269429954E+01
   -2.9118283667E+01   -2.8966642403E+01   -2.8814603411E+01   -2.8662260175E+01
   -2.8509702063E+01   -2.8357013986E+01   -2.8204276069E+01   -2.8051563341E+01
   -2.7898945432E+01   -2.7746486294E+01   -2.7594243947E+01   -2.7442270248E+01
   -2.7290610707E+01   -2.7139304348E+01   -2.6988383636E+01   -2.6837874466E+01
   -2.6687796258E+01   -2.6538162134E+01   -2.6388979216E+01   -2.6240249044E+01
   -2.6091968124E+01   -2.5944128598E+01   -2.5796719056E+01   -2.5649725449E+01
   -2.5503132115E+01   -2.5356922886E+01   -2.5211082236E+01   -2.5065596458E+01
   -2.4920454810E+01   -2.4775650612E+01   -2.4631182224E+01   -2.4487053897E+01
   -2.4343276434E+01   -2.4199867634E+01   -2.4056852503E+01   -2.3914263193E+01
   -2.3772138658E+01   -2.3630524023E+01   -2.3489469652E+01   -2.3349029925E+01
   -2.3209261730E+01   -2.3070222695E+01   -2.2931969188E+01   -2.2794554133E+01
   -2.2658024717E+01   -2.2522420064E+01   -2.2387769004E+01   -2.2254088069E+01
   -2.2121379871E+01   -2.1989632029E+01   -2.1858816805E+01   -2.1728891584E+01
   -2.1599800296E+01   -2.1471475783E+01   -2.1343843075E+01   -2.1216823402E+01
   -2.1090338716E+01   -2.0964316403E+01   -2.0838693831E+01   -2.0713422383E+01
   -2.0588470649E+01   -2.0463826534E+01   -2.0339498131E+01   -2.0215513355E+01
   -2.0091918400E+01   -1.9968775228E+01   -1.9846158344E+01   -1.9724151138E+01
   -1.9602842108E+01   -1.9482321215E+01   -1.9362676593E+01   -1.9243991760E+01
   -1.9126343429E+01   -1.9009799930E+01   -1.8894420223E+01   -1.8780253450E+01
   -1.8667338918E+01   -1.8555706447E+01   -1.8445376961E+01   -1.8336363246E+01
   -1.8228670803E+01   -1.8122298732E+01   -1.8017240575E+01   -1.7913485371E+01
   -1.7811018838E+01   -1.7709824229E+01   -1.7609882902E+01   -1.7511174845E+01
   -1.7413679066E+01   -1.7317373943E+01   -1.7222237504E+01   -1.7128247638E+01
   -1.7035382218E+01   -1.6943619321E+01   -1.6852937554E+01   -1.6763316041E+01
   -1.6674734237E+01   -1.6587171982E+01   -1.6500609589E+01   -1.6415027800E+01
   -1.6330407791E+01   -1.6246731160E+01   -1.6163979910E+01   -1.6082136428E+01
   -1.6001183461E+01   -1.5921104092E+01   -1.5841881716E+01   -1.5763500025E+01
   -1.5685943005E+01   -1.5609194901E+01   -1.5533240198E+01   -1.5458063628E+01
   -1.5383650123E+01   -1.5309984924E+01   -1.5237053608E+01   -1.5164840658E+01
   -1.5093327566E+01   -1.5022494527E+01   -1.4952327954E+01   -1.4882819552E+01
   -1.4813960843E+01   -1.4745741205E+01   -1.4678151054E+01   -1.4611181276E+01
   -1.4544822576E+01   -1.4479065929E+01   -1.4413902466E+01   -1.4349323493E+01
   -1.4285320501E+01   -1.4221885170E+01   -1.4159009371E+01   -1.4096685167E+01
   -1.4034904823E+01   -1.3973660795E+01   -1.3912945737E+01   -1.3852752498E+01
   -1.3793074116E+01   -1.3733903815E+01   -1.3675235004E+01   -1.3617061266E+01
   -1.3559376354E+01   -1.3502174186E+01   -1.3445448834E+01   -1.3389194517E+01
   -1.3333405592E+01   -1.3278076550E+01   -1.3223202000E+01   -1.3168776667E+01
   -1.3114795379E+01   -1.3061253061E+01   -1.3008144726E+01   -1.2955465469E+01
   -1.2903210455E+01   -1.2851374919E+01   -1.2799954155E+01   -1.2748943510E+01
   -1.2698338385E+01   -1.2648134222E+01   -1.2598326507E+01   -1.2548910766E+01
   -1.2499882560E+01   -1.2451237486E+01   -1.2402971174E+01   -1.2355079288E+01
   -1.2307557527E+01   -1.2260401623E+01   -1.2213607344E+01   -1.2167170496E+01
   -1.2121086921E+01   -1.2075352506E+01   -1.2029963177E+01   -1.1984914909E+01
   -1.1940203722E+01   -1.1895825688E+01   -1.1851776932E+01   -1.1808053633E+01
   -1.1764652028E+01   -1.1721568414E+01   -1.1678799147E+01   -1.1636340646E+01
   -1.1594189394E+01   -1.1552341936E+01   -1.1510794885E+01   -1.1469544917E+01
   -1.1428588771E+01   -1.1387923253E+01   -1.1347545229E+01   -1.1307451628E+01
   -1.1267639439E+01   -1.1228105754E+01   -1.1188847617E+01   -1.1149861677E+01
   -1.1111146486E+01   -1.1072700937E+01   -1.1034514751E+01   -1.0996580609E+01
   -1.0958906097E+01   -1.0921495826E+01   -1.0884346512E+01   -1.0847452238E+01
   -1.0810806276E+01   -1.0774406124E+01   -1.0738250611E+01   -1.0702337026E+01
   -1.0666662792E+01   -1.0631225581E+01   -1.0596023045E+01   -1.0561052857E+01
   -1.0526312726E+01   -1.0491800389E+01   -1.0457513614E+01   -1.0423450196E+01
   -1.0389607961E+01   -1.0355984762E+01   -1.0322578480E+01   -1.0289387022E+01
   -1.0256408323E+01   -1.0223640345E+01   -1.0191081074E+01   -1.0158728523E+01
   -1.0126580730E+01   -1.0094635758E+01   -1.0062891693E+01   -1.0031346645E+01
   -9.9999987509E+00   -9.9688461666E+00   -9.9378870731E+00   -9.9071196734E+00
   -9.8765421929E+00   -9.8461528786E+00   -9.8159499990E+00   -9.7859318440E+00
   -9.7560967241E+00   -9.7264429704E+00   -9.6969689344E+00   -9.6676729872E+00
   -9.6385535198E+00   -9.6096089424E+00   -9.5808376841E+00   -9.5522381931E+00
   -9.5238089356E+00   -9.4955483965E+00   -9.4674550782E+00   -9.4395275011E+00
   -9.4117642027E+00   -9.3841637379E+00   -9.3567246784E+00   -9.3294456125E+00
   -9.3023251449E+00   -9.2753618967E+00   -9.2485545047E+00   -9.2219016215E+00
   -9.1954019152E+00   -9.1690540690E+00   -9.1428567814E+00   -9.1168087655E+00
   -9.0909087493E+00   -9.0651554749E+00   -9.0395476988E+00   -9.0140841915E+00
   -8.9887637373E+00   -8.9635851339E+00   -8.9385471929E+00   -8.9136487387E+00
   -8.8888886089E+00   -8.8642656541E+00   -8.8397787375E+00   -8.8154267348E+00
   -8.7912085341E+00   -8.7671230357E+00   -8.7431691518E+00   -8.7193458067E+00
   -8.6956519360E+00   -8.6720864873E+00   -8.6486484192E+00   -8.6253367018E+00
   -8.6021503160E+00   -8.5790882540E+00   -8.5561495183E+00   -8.5333331224E+00
   -8.5106380903E+00   -8.4880634561E+00   -8.4656082643E+00   -8.4432715695E+00
   -8.4210524362E+00   -8.3989499386E+00   -8.3769631609E+00   -8.3550911965E+00
   -8.3333331486E+00   -8.3116881294E+00   -8.2901552605E+00   -8.2687336725E+00
   -8.2474225051E+00   -8.2262209065E+00   -8.2051280341E+00   -8.1841430535E+00
   -8.1632651391E+00   -8.1424934736E+00   -8.1218272480E+00   -8.1012656615E+00
   -8.0808079213E+00   -8.0604532427E+00   -8.0402008489E+00   -8.0200499709E+00
   -7.9999998471E+00   -7.9800497240E+00   -7.9601988552E+00   -7.9404465018E+00
   -7.9207919323E+00   -7.9012344224E+00   -7.8817732549E+00   -7.8624077196E+00
   -7.8431371134E+00   -7.8239607399E+00   -7.8048779098E+00   -7.7858879400E+00
   -7.7669901546E+00   -7.7481838838E+00   -7.7294684646E+00   -7.7108432401E+00
   -7.6923075600E+00   -7.6738607800E+00   -7.6555022621E+00   -7.6372313743E+00
   -7.6190474907E+00   -7.6009499914E+00   -7.5829382622E+00   -7.5650116948E+00
   -7.5471696866E+00   -7.5294116409E+00   -7.5117369662E+00   -7.4941450769E+00
   -7.4766353927E+00   -7.4592073387E+00   -7.4418603454E+00   -7.4245938485E+00
   -7.4074072892E+00   -7.3903001135E+00   -7.3732717727E+00   -7.3563217231E+00
   -7.3394494260E+00   -7.3226543477E+00   -7.3059359592E+00   -7.2892937365E+00
   -7.2727271603E+00   -7.2562357159E+00   -7.2398188935E+00   -7.2234761876E+00
   -7.2072070975E+00   -7.1910111269E+00   -7.1748877841E+00   -7.1588365814E+00
   -7.1428570359E+00   -7.1269486688E+00   -7.1111110055E+00   -7.0953435758E+00
   -7.0796459135E+00   -7.0640175565E+00   -7.0484580470E+00   -7.0329669309E+00
   -7.0175437583E+00   -7.0021880831E+00   -6.9868994634E+00   -6.9716774607E+00
   -6.9565216407E+00   -6.9414315726E+00   -6.9264068294E+00   -6.9114469880E+00
   -6.8965516287E+00   -6.8817203355E+00   -6.8669526959E+00   -6.8522483010E+00
   -6.8376067454E+00   -6.8230276272E+00   -6.8085105478E+00   -6.7940551120E+00
   -6.7796609281E+00   -6.7653276076E+00   -6.7510547653E+00   -6.7368420192E+00
   -6.7226889904E+00   -6.7085953036E+00   -6.6945605862E+00   -6.6805844688E+00
   -6.6666665853E+00   -6.6528065725E+00   -6.6390040701E+00   -6.6252587209E+00
   -6.6115701707E+00   -6.5979380682E+00   -6.5843620648E+00   -6.5708418151E+00
   -6.5573769763E+00   -6.5439672084E+00   -6.5306121743E+00   -6.5173115395E+00
   -6.5040649724E+00   -6.4908721439E+00   -6.4777327277E+00   -6.4646464000E+00
   -6.4516128398E+00   -6.4386317286E+00   -6.4257027504E+00   -6.4128255918E+00
   -6.3999999418E+00   -6.3872254920E+00   -6.3745019365E+00   -6.3618289717E+00
   -6.3492062964E+00   -6.3366336120E+00   -6.3241106219E+00   -6.3116370323E+00
   -6.2992125513E+00   -6.2868368895E+00   -6.2745097597E+00   -6.2622308771E+00
   -6.2499999588E+00   -6.2378167244E+00   -6.2256808957E+00   -6.2135921964E+00
   -6.2015503526E+00   -6.1895550923E+00   -6.1776061457E+00   -6.1657032453E+00
   -6.1538461252E+00   -6.1420345219E+00   -6.1302681739E+00   -6.1185468214E+00
   -6.1068702070E+00   -6.0952380749E+00   -6.0836501715E+00   -6.0721062449E+00
   -6.0606060454E+00   -6.0491493249E+00   -6.0377358373E+00   -6.0263653384E+00
   -6.0150375858E+00   -6.0037523388E+00   -5.9925093586E+00   -5.9813084083E+00
   -5.9701492527E+00   -5.9590316581E+00   -5.9479553929E+00   -5.9369202270E+00
   -5.9259259322E+00   -5.9149722816E+00   -5.9040590505E+00   -5.8931860155E+00
   -5.8823529548E+00   -5.8715596486E+00   -5.8608058782E+00   -5.8500914270E+00
   -5.8394160796E+00   -5.8287796223E+00   -5.8181818432E+00   -5.8076225314E+00
   -5.7971014781E+00   -5.7866184755E+00   -5.7761733178E+00   -5.7657658003E+00
   -5.7553957199E+00   -5.7450628750E+00   -5.7347670654E+00   -5.7245080923E+00
   -5.7142857585E+00   -5.7040998678E+00   -5.6939502260E+00   -5.6838366397E+00
   -5.6737589171E+00   -5.6637168680E+00   -5.6537103031E+00   -5.6437390348E+00
   -5.6338028765E+00   -5.6239016433E+00   -5.6140351512E+00   -5.6042032178E+00
   -5.5944056618E+00   -5.5846423031E+00   -5.5749129632E+00   -5.5652174644E+00
   -5.5555556306E+00   -5.5459272867E+00   -5.5363322588E+00   -5.5267703744E+00
   -5.5172414620E+00   -5.5077453514E+00   -5.4982818734E+00   -5.4888508602E+00
   -5.4794521450E+00   -5.4700855622E+00   -5.4607509472E+00   -5.4514481368E+00
   -5.4421769685E+00   -5.4329372813E+00   -5.4237289150E+00   -5.4145517107E+00
   -5.4054055105E+00   -5.3962901575E+00   -5.3872054960E+00   -5.3781513711E+00
   -5.3691276292E+00   -5.3601341176E+00   -5.3511706846E+00   -5.3422371795E+00
   -5.3333334529E+00   -5.3244593559E+00   -5.3156147410E+00   -5.3067994615E+00
   -5.2980133716E+00   -5.2892563266E+00   -5.2805281828E+00   -5.2718287973E+00
   -5.2631580282E+00   -5.2545157345E+00   -5.2459017762E+00   -5.2373160141E+00
   -5.2287583101E+00   -5.2202285268E+00   -5.2117265278E+00   -5.2032521776E+00
   -5.1948053415E+00   -5.1863858857E+00   -5.1779936774E+00   -5.1696285844E+00
   -5.1612904756E+00   -5.1529792207E+00   -5.1446946899E+00   -5.1364367548E+00
   -5.1282052875E+00   -5.1200001608E+00   -5.1118212485E+00   -5.1036684253E+00
   -5.0955415665E+00   -5.0874405483E+00   -5.0793652476E+00   -5.0713155421E+00
   -5.0632913103E+00   -5.0552924316E+00   -5.0473187859E+00   -5.0393702541E+00
   -5.0314467176E+00   -5.0235480588E+00   -5.0156741606E+00   -5.0078249069E+00
   -5.0000001821E+00   -4.9921998714E+00   -4.9844238608E+00   -4.9766720368E+00
   -4.9689442867E+00   -4.9612404987E+00   -4.9535605614E+00   -4.9459043642E+00
   -4.9382717973E+00   -4.9306627514E+00   -4.9230771179E+00   -4.9155147889E+00
   -4.9079756573E+00   -4.9004596164E+00   -4.8929665603E+00   -4.8854963838E+00
   -4.8780489823E+00   -4.8706242516E+00   -4.8632220885E+00   -4.8558423902E+00
   -4.8484850547E+00   -4.8411499803E+00   -4.8338370663E+00   -4.8265462123E+00
   -4.8192773188E+00   -4.8120302866E+00   -4.8048050172E+00   -4.7976014128E+00
   -4.7904193760E+00   -4.7832588102E+00   -4.7761196193E+00   -4.7690017075E+00
   -4.7619049800E+00   -4.7548293424E+00   -4.7477747007E+00   -4.7407409616E+00
   -4.7337280324E+00   -4.7267358208E+00   -4.7197642352E+00   -4.7128131845E+00
   -4.7058825781E+00   -4.6989723258E+00   -4.6920823382E+00   -4.6852125262E+00
   -4.6783628014E+00   -4.6715330758E+00   -4.6647232619E+00   -4.6579332728E+00
   -4.6511630220E+00   -4.6444124236E+00   -4.6376813921E+00   -4.6309698427E+00
   -4.6242776907E+00   -4.6176048524E+00   -4.6109512441E+00   -4.6043167828E+00
   -4.5977013861E+00   -4.5911049719E+00   -4.5845274586E+00   -4.5779687650E+00
   -4.5714288106E+00   -4.5649075151E+00   -4.5584047987E+00   -4.5519205823E+00
   -4.5454547869E+00   -4.5390073341E+00   -4.5325781462E+00   -4.5261671454E+00
   -4.5197742548E+00   -4.5133993977E+00   -4.5070424980E+00   -4.5007034798E+00
   -4.4943822679E+00   -4.4880787872E+00   -4.4817929634E+00   -4.4755247222E+00
   -4.4692739902E+00   -4.4630406939E+00   -4.4568247605E+00   -4.4506261176E+00
   -4.4444446932E+00   -4.4382804155E+00   -4.4321332134E+00   -4.4260030161E+00
   -4.4198897529E+00   -4.4137933539E+00   -4.4077137494E+00   -4.4016508701E+00
   -4.3956046470E+00   -4.3895750116E+00   -4.3835618958E+00   -4.3775652317E+00
   -4.3715849520E+00   -4.3656209895E+00   -4.3596732775E+00   -4.3537417499E+00
   -4.3478263404E+00   -4.3419269837E+00   -4.3360436144E+00   -4.3301761675E+00
   -4.3243245786E+00   -4.3184887835E+00   -4.3126687183E+00   -4.3068643194E+00
   -4.3010755238E+00   -4.2953022686E+00   -4.2895444912E+00   -4.2838021296E+00
   -4.2780751219E+00   -4.2723634065E+00   -4.2666669225E+00   -4.2609856088E+00
   -4.2553194050E+00   -4.2496682509E+00   -4.2440320865E+00   -4.2384108523E+00
   -4.2328044890E+00   -4.2272129377E+00   -4.2216361398E+00   -4.2160740371E+00
   -4.2105265715E+00   -4.2049936854E+00   -4.1994753214E+00   -4.1939714224E+00
   -4.1884819316E+00   -4.1830067926E+00   -4.1775459490E+00   -4.1720993448E+00
   -4.1666669243E+00   -4.1612486321E+00   -4.1558444132E+00   -4.1504542129E+00
   -4.1450779768E+00   -4.1397156507E+00   -4.1343671810E+00   -4.1290325139E+00
   -4.1237115960E+00   -4.1184043743E+00   -4.1131107957E+00   -4.1078308078E+00
   -4.1025643583E+00   -4.0973113952E+00   -4.0920718668E+00   -4.0868457215E+00
   -4.0816329083E+00   -4.0764333762E+00   -4.0712470743E+00   -4.0660739525E+00
   -4.0609139603E+00   -4.0557670480E+00   -4.0506331658E+00   -4.0455122644E+00
   -4.0404042945E+00   -4.0353092073E+00   -4.0302269541E+00   -4.0251574863E+00
   -4.0201007560E+00   -4.0150567150E+00   -4.0100253157E+00   -4.0050065107E+00
   -4.0000002527E+00   -3.9950064947E+00   -3.9900251899E+00   -3.9850562919E+00
   -3.9800997543E+00   -3.9751555311E+00   -3.9702235764E+00   -3.9653038447E+00
   -3.9603962905E+00   -3.9555008687E+00   -3.9506175344E+00   -3.9457462428E+00
   -3.9408869494E+00   -3.9360396101E+00   -3.9312041806E+00   -3.9263806172E+00
   -3.9215688763E+00   -3.9167689144E+00   -3.9119806884E+00   -3.9072041552E+00
   -3.9024392721E+00   -3.8976859965E+00   -3.8929442861E+00   -3.8882140986E+00
   -3.8834953922E+00   -3.8787881250E+00   -3.8740922556E+00   -3.8694077426E+00
   -3.8647345448E+00   -3.8600726214E+00   -3.8554219314E+00   -3.8507824345E+00
   -3.8461540902E+00   -3.8415368584E+00   -3.8369306990E+00   -3.8323355724E+00
   -3.8277514389E+00   -3.8231782591E+00   -3.8186159938E+00   -3.8140646040E+00
   -3.8095240508E+00   -3.8049942956E+00   -3.8004753000E+00   -3.7959670255E+00
   -3.7914694342E+00   -3.7869824880E+00   -3.7825061493E+00   -3.7780403804E+00
   -3.7735851440E+00   -3.7691404029E+00   -3.7647061200E+00   -3.7602822584E+00
   -3.7558687815E+00   -3.7514656527E+00   -3.7470728356E+00   -3.7426902942E+00
   -3.7383179923E+00   -3.7339558942E+00   -3.7296039641E+00   -3.7252621666E+00
   -3.7209304663E+00   -3.7166088280E+00   -3.7122972167E+00   -3.7079955975E+00
   -3.7037039358E+00   -3.6994221970E+00   -3.6951503467E+00   -3.6908883508E+00
   -3.6866361751E+00   -3.6823937858E+00   -3.6781611491E+00   -3.6739382315E+00
   -3.6697249994E+00   -3.6655214196E+00   -3.6613274590E+00   -3.6571430846E+00
   -3.6529682635E+00   -3.6488029632E+00   -3.6446471510E+00   -3.6405007945E+00
   -3.6363638616E+00   -3.6322363202E+00   -3.6281181382E+00   -3.6240092840E+00
   -3.6199097258E+00   -3.6158194321E+00   -3.6117383716E+00   -3.6076665130E+00
   -3.6036038253E+00   -3.5995502775E+00   -3.5955058388E+00   -3.5914704785E+00
   -3.5874441661E+00   -3.5834268712E+00   -3.5794185635E+00   -3.5754192130E+00
   -3.5714287895E+00   -3.5674472633E+00   -3.5634746047E+00   -3.5595107840E+00
   -3.5555557718E+00   -3.5516095387E+00   -3.5476720557E+00   -3.5437432935E+00
   -3.5398232232E+00   -3.5359118161E+00   -3.5320090435E+00   -3.5281148767E+00
   -3.5242292874E+00   -3.5203522472E+00   -3.5164837280E+00   -3.5126237018E+00
   -3.5087721404E+00   -3.5049290163E+00   -3.5010943016E+00   -3.4972679688E+00
   -3.4934499904E+00   -3.4896403391E+00   -3.4858389877E+00   -3.4820459091E+00
   -3.4782610764E+00   -3.4744844626E+00   -3.4707160410E+00   -3.4669557850E+00
   -3.4632036681E+00   -3.4594596639E+00   -3.4557237461E+00   -3.4519958885E+00
   -3.4482760650E+00   -3.4445642499E+00   -3.4408604171E+00   -3.4371645409E+00
   -3.4334765959E+00   -3.4297965564E+00   -3.4261243971E+00   -3.4224600926E+00
   -3.4188036179E+00   -3.4151549478E+00   -3.4115140574E+00   -3.4078809218E+00
   -3.4042555163E+00   -3.4006378162E+00   -3.3970277971E+00   -3.3934254343E+00
   -3.3898307037E+00   -3.3862435810E+00   -3.3826640420E+00   -3.3790920628E+00
   -3.3755276194E+00   -3.3719706881E+00   -3.3684212449E+00   -3.3648792665E+00
   -3.3613447292E+00   -3.3578176095E+00   -3.3542978843E+00   -3.3507855302E+00
   -3.3472805241E+00   -3.3437828430E+00   -3.3402924640E+00   -3.3368093642E+00
   -3.3333335208E+00   -3.3298649112E+00   -3.3264035129E+00   -3.3229493033E+00
   -3.3195022602E+00   -3.3160623612E+00   -3.3126295841E+00   -3.3092039069E+00
   -3.3057853075E+00   -3.3023737641E+00   -3.2989692548E+00   -3.2955717578E+00
   -3.2921812516E+00   -3.2887977146E+00   -3.2854211252E+00   -3.2820514622E+00
   -3.2786887043E+00   -3.2753328302E+00   -3.2719838188E+00   -3.2686416491E+00
   -3.2653063002E+00   -3.2619777512E+00   -3.2586559813E+00   -3.2553409698E+00
   -3.2520326962E+00   -3.2487311398E+00   -3.2454362804E+00   -3.2421480974E+00
   -3.2388665707E+00   -3.2355916800E+00   -3.2323234053E+00   -3.2290617265E+00
   -3.2258066236E+00   -3.2225580769E+00   -3.2193160664E+00   -3.2160805726E+00
   -3.2128515757E+00   -3.2096290563E+00   -3.2064129948E+00   -3.2032033719E+00
   -3.2000001682E+00   -3.1968033645E+00   -3.1936129417E+00   -3.1904288807E+00
   -3.1872511623E+00   -3.1840797678E+00   -3.1809146783E+00   -3.1777558749E+00
   -3.1746033391E+00   -3.1714570520E+00   -3.1683169952E+00   -3.1651831502E+00
   -3.1620554985E+00   -3.1589340219E+00   -3.1558187021E+00   -3.1527095208E+00
   -3.1496064599E+00   -3.1465095015E+00   -3.1434186274E+00   -3.1403338198E+00
   -3.1372550608E+00   -3.1341823327E+00   -3.1311156178E+00   -3.1280548984E+00
   -3.1250001570E+00   -3.1219513761E+00   -3.1189085382E+00   -3.1158716259E+00
   -3.1128406221E+00   -3.1098155094E+00   -3.1067962708E+00   -3.1037828890E+00
   -3.1007753472E+00   -3.0977736282E+00   -3.0947777153E+00   -3.0917875916E+00
   -3.0888032404E+00   -3.0858246448E+00   -3.0828517884E+00   -3.0798846545E+00
   -3.0769232267E+00   -3.0739674884E+00   -3.0710174233E+00   -3.0680730151E+00
   -3.0651342476E+00   -3.0622011045E+00   -3.0592735696E+00   -3.0563516271E+00
   -3.0534352607E+00   -3.0505244546E+00   -3.0476191929E+00   -3.0447194598E+00
   -3.0418252395E+00   -3.0389365163E+00   -3.0360532745E+00   -3.0331754986E+00
   -3.0303031730E+00   -3.0274362823E+00   -3.0245748110E+00   -3.0217187438E+00
   -3.0188680655E+00   -3.0160227607E+00   -3.0131828143E+00   -3.0103482111E+00
   -3.0075189362E+00   -3.0046949745E+00   -3.0018763110E+00   -2.9990629308E+00
   -2.9962548192E+00   -2.9934519612E+00   -2.9906543423E+00   -2.9878619476E+00
   -2.9850747627E+00   -2.9822927729E+00   -2.9795159636E+00   -2.9767443206E+00
   -2.9739778293E+00   -2.9712164754E+00   -2.9684602446E+00   -2.9657091227E+00
   -2.9629630954E+00   -2.9602221487E+00   -2.9574862684E+00   -2.9547554405E+00
   -2.9520296511E+00   -2.9493088861E+00   -2.9465931318E+00   -2.9438823743E+00
   -2.9411765997E+00   -2.9384757945E+00   -2.9357799449E+00   -2.9330890372E+00
   -2.9304030579E+00   -2.9277219935E+00   -2.9250458306E+00   -2.9223745555E+00
   -2.9197081551E+00   -2.9170466159E+00   -2.9143899247E+00   -2.9117380683E+00
   -2.9090910334E+00   -2.9064488069E+00   -2.9038113758E+00   -2.9011787269E+00
   -2.8985508474E+00   -2.8959277241E+00   -2.8933093444E+00   -2.8906956952E+00
   -2.8880867638E+00   -2.8854825374E+00   -2.8828830033E+00   -2.8802881488E+00
   -2.8776979613E+00   -2.8751124283E+00   -2.8725315371E+00   -2.8699552754E+00
   -2.8673836306E+00   -2.8648165904E+00   -2.8622541423E+00   -2.8596962742E+00
   -2.8571429737E+00   -2.8545942285E+00   -2.8520500266E+00   -2.8495103558E+00
   -2.8469752040E+00   -2.8444445591E+00   -2.8419184091E+00   -2.8393967421E+00
   -2.8368795461E+00   -2.8343668093E+00   -2.8318585198E+00   -2.8293546659E+00
   -2.8268552357E+00   -2.8243602176E+00   -2.8218695998E+00   -2.8193833708E+00
   -2.8169015190E+00   -2.8144240328E+00   -2.8119509007E+00   -2.8094821112E+00
   -2.8070176530E+00   -2.8045575145E+00   -2.8021016846E+00   -2.7996501518E+00
   -2.7972029049E+00   -2.7947599326E+00   -2.7923212239E+00   -2.7898867674E+00
   -2.7874565522E+00   -2.7850305671E+00   -2.7826088012E+00   -2.7801912433E+00
   -2.7777778826E+00   -2.7753687081E+00   -2.7729637090E+00   -2.7705628743E+00
   -2.7681661934E+00   -2.7657736554E+00   -2.7633852495E+00   -2.7610009652E+00
   -2.7586207917E+00   -2.7562447184E+00   -2.7538727347E+00   -2.7515048302E+00
   -2.7491409941E+00   -2.7467812162E+00   -2.7444254859E+00   -2.7420737929E+00
   -2.7397261267E+00   -2.7373824771E+00   -2.7350428337E+00   -2.7327071863E+00
   -2.7303755246E+00   -2.7280478385E+00   -2.7257241178E+00   -2.7234043523E+00
   -2.7210885320E+00   -2.7187766469E+00   -2.7164686868E+00   -2.7141646419E+00
   -2.7118645021E+00   -2.7095682576E+00   -2.7072758984E+00   -2.7049874147E+00
   -2.7027027967E+00   -2.7004220347E+00   -2.6981451187E+00   -2.6958720392E+00
   -2.6936027864E+00   -2.6913373506E+00   -2.6890757224E+00   -2.6868178920E+00
   -2.6845638499E+00   -2.6823135866E+00   -2.6800670925E+00   -2.6778243583E+00
   -2.6755853745E+00   -2.6733501317E+00   -2.6711186205E+00   -2.6688908316E+00
   -2.6666667557E+00   -2.6644463835E+00   -2.6622297057E+00   -2.6600167132E+00
   -2.6578073968E+00   -2.6556017472E+00   -2.6533997555E+00   -2.6512014125E+00
   -2.6490067091E+00   -2.6468156363E+00   -2.6446281851E+00   -2.6424443466E+00
   -2.6402641118E+00   -2.6380874717E+00   -2.6359144176E+00   -2.6337449405E+00
   -2.6315790316E+00   -2.6294166821E+00   -2.6272578833E+00   -2.6251026264E+00
  </PP_LOCAL>
 <PP_NONLOCAL>
   <PP_BETA.1
       type="real"
       size="1220"
       columns="4"
       index="1"
       angular_momentum="0"
       cutoff_radius_index=" 216"
       cutoff_radius="    2.1500000000E+00" >
   -1.4785306313E-10    4.7324204457E-02    9.4503632733E-02    1.4139438479E-01
    1.8785430706E-01    2.3374385127E-01    2.7892691595E-01    3.2327166524E-01
    3.6665131935E-01    4.0894491166E-01    4.5003800724E-01    4.8982337817E-01
    5.2820163105E-01    5.6508178261E-01    6.0038177952E-01    6.3402895894E-01
    6.6596044673E-01    6.9612349055E-01    7.2447572578E-01    7.5098537217E-01
    7.7563136012E-01    7.9840338545E-01    8.1930189243E-01    8.3833798495E-01
    8.5553326640E-01    8.7091960930E-01    8.8453885599E-01    8.9644245245E-01
    9.0669101749E-01    9.1535385010E-01    9.2250837831E-01    9.2823955288E-01
    9.3263919013E-01    9.3580526796E-01    9.3784117981E-01    9.3885495159E-01
    9.3895842654E-01    9.3826642371E-01    9.3689587553E-01    9.3496495026E-01
    9.3259216520E-01    9.2989549683E-01    9.2699149354E-01    9.2399439737E-01
    9.2101528043E-01    9.1816120219E-01    9.1553439317E-01    9.1323147092E-01
    9.1134269357E-01    9.0995125630E-01    9.0913263564E-01    9.0895398623E-01
    9.0947359450E-01    9.1074039313E-01    9.1279353995E-01    9.1566206444E-01
    9.1936458458E-01    9.2390909635E-01    9.2929283763E-01    9.3550222797E-01
    9.4251288486E-01    9.5028971703E-01    9.5878709438E-01    9.6794909400E-01
    9.7770982101E-01    9.8799380239E-01    9.9871645179E-01    1.0097846024E+00
    1.0210971048E+00    1.0325454863E+00    1.0440146672E+00    1.0553837300E+00
    1.0665267373E+00    1.0773135908E+00    1.0876109294E+00    1.0972830574E+00
    1.1061928989E+00    1.1142029709E+00    1.1211763694E+00    1.1269777618E+00
    1.1314743787E+00    1.1345369985E+00    1.1360409191E+00    1.1358669086E+00
    1.1339021291E+00    1.1300410281E+00    1.1241861902E+00    1.1162491433E+00
    1.1061511141E+00    1.0938237277E+00    1.0792096447E+00    1.0622631339E+00
    1.0429505729E+00    1.0212508762E+00    9.9715584495E-01    9.7067043692E-01
    9.4181295352E-01    9.1061514279E-01    8.7712221662E-01    8.4139278172E-01
    8.0349868418E-01    7.6352476817E-01    7.2156854965E-01    6.7773980687E-01
    6.3216008971E-01    5.8496215059E-01    5.3628930025E-01    4.8629469204E-01
    4.3514053915E-01    3.8299726931E-01    3.3004262222E-01    2.7646069519E-01
    2.2244094304E-01    1.6817713832E-01    1.1386629854E-01    5.9707587103E-02
    5.9011950179E-03   -4.7352789600E-02   -9.9855516882E-02   -1.5141050816E-01
   -2.0182477918E-01   -2.5090994637E-01   -2.9848330885E-01   -3.4436889924E-01
   -3.8839849638E-01   -4.3041259333E-01   -4.7026131422E-01   -5.0780527407E-01
   -5.4291637578E-01   -5.7547853908E-01   -6.0538835664E-01   -6.3255567293E-01
   -6.5690408205E-01   -6.7837134115E-01   -6.9690969677E-01   -7.1248612185E-01
   -7.2508246186E-01   -7.3469548900E-01   -7.4133686428E-01   -7.4503300748E-01
   -7.4582487604E-01   -7.4376765432E-01   -7.3893035519E-01   -7.3139533681E-01
   -7.2125773768E-01   -7.0862483381E-01   -6.9361532229E-01   -6.7635853615E-01
   -6.5699359571E-01   -6.3566850209E-01   -6.1253917909E-01   -5.8776846975E-01
   -5.6152509444E-01   -5.3398257740E-01   -5.0531814895E-01   -4.7571163085E-01
   -4.4534431208E-01   -4.1439782279E-01   -3.8305301383E-01   -3.5148884938E-01
   -3.1988132014E-01   -2.8840238426E-01   -2.5721894308E-01   -2.2649185845E-01
   -1.9637501824E-01   -1.6701445610E-01   -1.3854753123E-01   -1.1110217370E-01
   -8.4796199935E-02   -5.9736703082E-02   -3.6019521885E-02   -1.3728791547E-02
    7.0634207133E-03    2.6297393238E-02    4.3925939069E-02    5.9914505745E-02
    7.4241185408E-02    8.6896633968E-02    9.7883909210E-02    1.0721814881E-01
    1.1492609660E-01    1.2104561169E-01    1.2562516832E-01    1.2872327519E-01
    1.3040782818E-01    1.3075539975E-01    1.2985047016E-01    1.2778460635E-01
    1.2465559432E-01    1.2056653153E-01    1.1562488574E-01    1.0994152725E-01
    1.0362974145E-01    9.6804228746E-02    8.9580099251E-02    8.2071869216E-02
    7.4392466562E-02    6.6652259598E-02    5.8958049175E-02    5.1412294175E-02
    4.4112022052E-02    3.7146386929E-02    3.0591545321E-02    2.4524341863E-02
    1.9016943214E-02    1.4130991509E-02    9.9182122324E-03    6.4197650199E-03
    3.6672112705E-03    1.6689354775E-03    4.6396273063E-04    1.5146210843E-05
   -1.7819542393E-05    8.8151251579E-06   -1.3123834648E-06   -1.0003094830E-10
 0. 0. 0. 0.
 0. 0. 0. 0.
 0. 0. 0. 0.
 0. 0. 0. 0.
 0. 0. 0. 0.
 0. 0. 0. 0.
 0. 0. 0. 0.
 0. 0. 0. 0.
 0. 0. 0. 0.
 0. 0. 0. 0.
 0. 0. 0. 0.
 0. 0. 0. 0.
 0. 0. 0. 0.
 0. 0. 0. 0.
 0. 0. 0. 0.
 0. 0. 0. 0.
 0. 0. 0. 0.
 0. 0. 0. 0.
 0. 0. 0. 0.
 0. 0. 0. 0.
 0. 0. 0. 0.
 0. 0. 0. 0.
 0. 0. 0. 0.
 0. 0. 0. 0.
 0. 0. 0. 0.
 0. 0. 0. 0.
 0. 0. 0. 0.
 0. 0. 0. 0.
 0. 0. 0. 0.
 0. 0. 0. 0.
 0. 0. 0. 0.
 0. 0. 0. 0.
 0. 0. 0. 0.
 0. 0. 0. 0.
 0. 0. 0. 0.
 0. 0. 0. 0.
 0. 0. 0. 0.
 0. 0. 0. 0.
 0. 0. 0. 0.
 0. 0. 0. 0.
 0. 0. 0. 0.
 0. 0. 0. 0.
 0. 0. 0. 0.
 0. 0. 0. 0.
 0. 0. 0. 0.
 0. 0. 0. 0.
 0. 0. 0. 0.
 0. 0. 0. 0.
 0. 0. 0. 0.
 0. 0. 0. 0.
 0. 0. 0. 0.
 0. 0. 0. 0.
 0. 0. 0. 0.
 0. 0. 0. 0.
 0. 0. 0. 0.
 0. 0. 0. 0.
 0. 0. 0. 0.
 0. 0. 0. 0.
 0. 0. 0. 0.
 0. 0. 0. 0.
 0. 0. 0. 0.
 0. 0. 0. 0.
 0. 0. 0. 0.
 0. 0. 0. 0.
 0. 0. 0. 0.
 0. 0. 0. 0.
 0. 0. 0. 0.
 0. 0. 0. 0.
 0. 0. 0. 0.
 0. 0. 0. 0.
 0. 0. 0. 0.
 0. 0. 0. 0.
 0. 0. 0. 0.
 0. 0. 0. 0.
 0. 0. 0. 0.
 0. 0. 0. 0.
 0. 0. 0. 0.
 0. 0. 0. 0.
 0. 0. 0. 0.
 0. 0. 0. 0.
 0. 0. 0. 0.
 0. 0. 0. 0.
 0. 0. 0. 0.
 0. 0. 0. 0.
 0. 0. 0. 0.
 0. 0. 0. 0.
 0. 0. 0. 0.
 0. 0. 0. 0.
 0. 0. 0. 0.
 0. 0. 0. 0.
 0. 0. 0. 0.
 0. 0. 0. 0.
 0. 0. 0. 0.
 0. 0. 0. 0.
 0. 0. 0. 0.
 0. 0. 0. 0.
 0. 0. 0. 0.
 0. 0. 0. 0.
 0. 0. 0. 0.
 0. 0. 0. 0.
 0. 0. 0. 0.
 0. 0. 0. 0.
 0. 0. 0. 0.
 0. 0. 0. 0.
 0. 0. 0. 0.
 0. 0. 0. 0.
 0. 0. 0. 0.
 0. 0. 0. 0.
 0. 0. 0. 0.
 0. 0. 0. 0.
 0. 0. 0. 0.
 0. 0. 0. 0.
 0. 0. 0. 0.
 0. 0. 0. 0.
 0. 0. 0. 0.
 0. 0. 0. 0.
 0. 0. 0. 0.
 0. 0. 0. 0.
 0. 0. 0. 0.
 0. 0. 0. 0.
 0. 0. 0. 0.
 0. 0. 0. 0.
 0. 0. 0. 0.
 0. 0. 0. 0.
 0. 0. 0. 0.
 0. 0. 0. 0.
 0. 0. 0. 0.
 0. 0. 0. 0.
 0. 0. 0. 0.
 0. 0. 0. 0.
 0. 0. 0. 0.
 0. 0. 0. 0.
 0. 0. 0. 0.
 0. 0. 0. 0.
 0. 0. 0. 0.
 0. 0. 0. 0.
 0. 0. 0. 0.
 0. 0. 0. 0.
 0. 0. 0. 0.
 0. 0. 0. 0.
 0. 0. 0. 0.
 0. 0. 0. 0.
 0. 0. 0. 0.
 0. 0. 0. 0.
 0. 0. 0. 0.
 0. 0. 0. 0.
 0. 0. 0. 0.
 0. 0. 0. 0.
 0. 0. 0. 0.
 0. 0. 0. 0.
 0. 0. 0. 0.
 0. 0. 0. 0.
 0. 0. 0. 0.
 0. 0. 0. 0.
 0. 0. 0. 0.
 0. 0. 0. 0.
 0. 0. 0. 0.
 0. 0. 0. 0.
 0. 0. 0. 0.
 0. 0. 0. 0.
 0. 0. 0. 0.
 0. 0. 0. 0.
 0. 0. 0. 0.
 0. 0. 0. 0.
 0. 0. 0. 0.
 0. 0. 0. 0.
 0. 0. 0. 0.
 0. 0. 0. 0.
 0. 0. 0. 0.
 0. 0. 0. 0.
 0. 0. 0. 0.
 0. 0. 0. 0.
 0. 0. 0. 0.
 0. 0. 0. 0.
 0. 0. 0. 0.
 0. 0. 0. 0.
 0. 0. 0. 0.
 0. 0. 0. 0.
 0. 0. 0. 0.
 0. 0. 0. 0.
 0. 0. 0. 0.
 0. 0. 0. 0.
 0. 0. 0. 0.
 0. 0. 0. 0.
 0. 0. 0. 0.
 0. 0. 0. 0.
 0. 0. 0. 0.
 0. 0. 0. 0.
 0. 0. 0. 0.
 0. 0. 0. 0.
 0. 0. 0. 0.
 0. 0. 0. 0.
 0. 0. 0. 0.
 0. 0. 0. 0.
 0. 0. 0. 0.
 0. 0. 0. 0.
 0. 0. 0. 0.
 0. 0. 0. 0.
 0. 0. 0. 0.
 0. 0. 0. 0.
 0. 0. 0. 0.
 0. 0. 0. 0.
 0. 0. 0. 0.
 0. 0. 0. 0.
 0. 0. 0. 0.
 0. 0. 0. 0.
 0. 0. 0. 0.
 0. 0. 0. 0.
 0. 0. 0. 0.
 0. 0. 0. 0.
 0. 0. 0. 0.
 0. 0. 0. 0.
 0. 0. 0. 0.
 0. 0. 0. 0.
 0. 0. 0. 0.
 0. 0. 0. 0.
 0. 0. 0. 0.
 0. 0. 0. 0.
 0. 0. 0. 0.
 0. 0. 0. 0.
 0. 0. 0. 0.
 0. 0. 0. 0.
 0. 0. 0. 0.
 0. 0. 0. 0.
 0. 0. 0. 0.
 0. 0. 0. 0.
 0. 0. 0. 0.
 0. 0. 0. 0.
 0. 0. 0. 0.
 0. 0. 0. 0.
 0. 0. 0. 0.
 0. 0. 0. 0.
 0. 0. 0. 0.
 0. 0. 0. 0.
 0. 0. 0. 0.
 0. 0. 0. 0.
 0. 0. 0. 0.
 0. 0. 0. 0.
 0. 0. 0. 0.
 0. 0. 0. 0.
 0. 0. 0. 0.
 0. 0. 0. 0.
 0. 0. 0. 0.
 0. 0. 0. 0.
 0. 0. 0. 0.
 0. 0. 0. 0.
 0. 0. 0. 0.
 0. 0. 0. 0.
 0. 0. 0. 0.
 0. 0. 0. 0.
 0. 0. 0. 0.
   </PP_BETA.1>
   <PP_BETA.2
       type="real"
       size="1220"
       columns="4"
       index="2"
       angular_momentum="0"
       cutoff_radius_index=" 216"
       cutoff_radius="    2.1500000000E+00" >
    1.8710344385E-10   -1.7456460476E-02   -3.4764487750E-02   -5.1776679689E-02
   -6.8347689173E-02   -8.4335233824E-02   -9.9601084541E-02   -1.1401202600E-01
   -1.2744078242E-01   -1.3976690227E-01   -1.5087759562E-01   -1.6066851846E-01
   -1.6904449830E-01   -1.7592019628E-01   -1.8122070072E-01   -1.8488204831E-01
   -1.8685166890E-01   -1.8708875094E-01   -1.8556452470E-01   -1.8226246128E-01
   -1.7717838587E-01   -1.7032050422E-01   -1.6170934199E-01   -1.5137759726E-01
   -1.3936990685E-01   -1.2574252810E-01   -1.1056293782E-01   -9.3909351207E-02
   -7.5870163682E-02   -5.6543319360E-02   -3.6035610310E-02   -1.4461911246E-02
    8.0556452452E-03    3.1388547399E-02    5.5402830974E-02    7.9960047683E-02
    1.0491826875E-01    1.3013311678E-01    1.5545881879E-01    1.8074927324E-01
    2.0585912355E-01    2.3064483080E-01    2.5496573795E-01    2.7868511822E-01
    3.0167120015E-01    3.2379816210E-01    3.4494708906E-01    3.6500688486E-01
    3.8387513314E-01    4.0145890082E-01    4.1767547801E-01    4.3245304892E-01
    4.4573128854E-01    4.5746188053E-01    4.6760895208E-01    4.7614942233E-01
    4.8307326107E-01    4.8838365563E-01    4.9209708373E-01    4.9424329155E-01
    4.9486517612E-01    4.9401857237E-01    4.9177194546E-01    4.8820598992E-01
    4.8341313761E-01    4.7749697721E-01    4.7057158855E-01    4.6276079583E-01
    4.5419734407E-01    4.4502200405E-01    4.3538261125E-01    4.2543304490E-01
    4.1533215376E-01    4.0524263550E-01    3.9532987720E-01    3.8576076436E-01
    3.7670246674E-01    3.6832120880E-01    3.6078103340E-01    3.5424256699E-01
    3.4886179493E-01    3.4478885535E-01    3.4216686012E-01    3.4113075106E-01
    3.4180619980E-01    3.4430855902E-01    3.4874187279E-01    3.5519795333E-01
    3.6375553110E-01    3.7447948462E-01    3.8742015612E-01    4.0261275836E-01
    4.2007687761E-01    4.3981607689E-01    4.6181760333E-01    4.8605220230E-01
    5.1247404085E-01    5.4102074178E-01    5.7161352917E-01    6.0415748551E-01
    6.3854191957E-01    6.7464084374E-01    7.1231355835E-01    7.5140534032E-01
    7.9174823226E-01    8.3316192768E-01    8.7545474730E-01    9.1842470068E-01
    9.6186062691E-01    1.0055434073E+00    1.0492472428E+00    1.0927409881E+00
    1.1357895343E+00    1.1781552304E+00    1.2195993366E+00    1.2598834972E+00
    1.2987712261E+00    1.3360293942E+00    1.3714297078E+00    1.4047501706E+00
    1.4357765174E+00    1.4643036107E+00    1.4901367913E+00    1.5130931724E+00
    1.5330028698E+00    1.5497101583E+00    1.5630745477E+00    1.5729717693E+00
    1.5792946670E+00    1.5819539861E+00    1.5808790548E+00    1.5760183510E+00
    1.5673399539E+00    1.5548318727E+00    1.5385022526E+00    1.5183794548E+00
    1.4945120092E+00    1.4669684402E+00    1.4358369655E+00    1.4012250697E+00
    1.3632589545E+00    1.3220828693E+00    1.2778583248E+00    1.2307631954E+00
    1.1809907157E+00    1.1287483767E+00    1.0742567284E+00    1.0177480976E+00
    9.5946522748E-01    8.9965984860E-01    8.3859118963E-01    7.7652443829E-01
    7.1372916176E-01    6.5047769696E-01    5.8704352128E-01    5.2369961424E-01
    4.6071682083E-01    3.9836222736E-01    3.3689756027E-01    2.7657761869E-01
    2.1764875095E-01    1.6034738512E-01    1.0489862340E-01    5.1514909525E-02
    3.9477828045E-04   -4.8278304830E-02   -9.4337005809E-02   -1.3763107932E-01
   -1.7802821431E-01   -2.1541476252E-01   -2.4969634492E-01   -2.8079833204E-01
   -3.0866619499E-01   -3.3326572481E-01   -3.5458311857E-01   -3.7262493186E-01
   -3.8741789778E-01   -3.9900860869E-01   -4.0746309236E-01   -4.1286601649E-01
   -4.1531955540E-01   -4.1494236625E-01   -4.1186868457E-01   -4.0624728941E-01
   -3.9824037767E-01   -3.8802234953E-01   -3.7577851312E-01   -3.6170371713E-01
   -3.4600092063E-01   -3.2887970952E-01   -3.1055476970E-01   -2.9124432710E-01
   -2.7116856499E-01   -2.5054802929E-01   -2.2960203242E-01   -2.0854706653E-01
   -1.8759523658E-01   -1.6695273288E-01   -1.4681826862E-01   -1.2738182600E-01
   -1.0882301706E-01   -9.1307746205E-02   -7.4981493483E-02   -5.9986450457E-02
   -4.6454524999E-02   -3.4499758980E-02   -2.4218949381E-02   -1.5690696679E-02
   -8.9781762416E-03   -4.0956985951E-03   -1.1422267084E-03   -3.7269514569E-05
    4.4149339106E-05   -2.1770161599E-05    3.2332298544E-06    1.3101815520E-10
 0. 0. 0. 0.
 0. 0. 0. 0.
 0. 0. 0. 0.
 0. 0. 0. 0.
 0. 0. 0. 0.
 0. 0. 0. 0.
 0. 0. 0. 0.
 0. 0. 0. 0.
 0. 0. 0. 0.
 0. 0. 0. 0.
 0. 0. 0. 0.
 0. 0. 0. 0.
 0. 0. 0. 0.
 0. 0. 0. 0.
 0. 0. 0. 0.
 0. 0. 0. 0.
 0. 0. 0. 0.
 0. 0. 0. 0.
 0. 0. 0. 0.
 0. 0. 0. 0.
 0. 0. 0. 0.
 0. 0. 0. 0.
 0. 0. 0. 0.
 0. 0. 0. 0.
 0. 0. 0. 0.
 0. 0. 0. 0.
 0. 0. 0. 0.
 0. 0. 0. 0.
 0. 0. 0. 0.
 0. 0. 0. 0.
 0. 0. 0. 0.
 0. 0. 0. 0.
 0. 0. 0. 0.
 0. 0. 0. 0.
 0. 0. 0. 0.
 0. 0. 0. 0.
 0. 0. 0. 0.
 0. 0. 0. 0.
 0. 0. 0. 0.
 0. 0. 0. 0.
 0. 0. 0. 0.
 0. 0. 0. 0.
 0. 0. 0. 0.
 0. 0. 0. 0.
 0. 0. 0. 0.
 0. 0. 0. 0.
 0. 0. 0. 0.
 0. 0. 0. 0.
 0. 0. 0. 0.
 0. 0. 0. 0.
 0. 0. 0. 0.
 0. 0. 0. 0.
 0. 0. 0. 0.
 0. 0. 0. 0.
 0. 0. 0. 0.
 0. 0. 0. 0.
 0. 0. 0. 0.
 0. 0. 0. 0.
 0. 0. 0. 0.
 0. 0. 0. 0.
 0. 0. 0. 0.
 0. 0. 0. 0.
 0. 0. 0. 0.
 0. 0. 0. 0.
 0. 0. 0. 0.
 0. 0. 0. 0.
 0. 0. 0. 0.
 0. 0. 0. 0.
 0. 0. 0. 0.
 0. 0. 0. 0.
 0. 0. 0. 0.
 0. 0. 0. 0.
 0. 0. 0. 0.
 0. 0. 0. 0.
 0. 0. 0. 0.
 0. 0. 0. 0.
 0. 0. 0. 0.
 0. 0. 0. 0.
 0. 0. 0. 0.
 0. 0. 0. 0.
 0. 0. 0. 0.
 0. 0. 0. 0.
 0. 0. 0. 0.
 0. 0. 0. 0.
 0. 0. 0. 0.
 0. 0. 0. 0.
 0. 0. 0. 0.
 0. 0. 0. 0.
 0. 0. 0. 0.
 0. 0. 0. 0.
 0. 0. 0. 0.
 0. 0. 0. 0.
 0. 0. 0. 0.
 0. 0. 0. 0.
 0. 0. 0. 0.
 0. 0. 0. 0.
 0. 0. 0. 0.
 0. 0. 0. 0.
 0. 0. 0. 0.
 0. 0. 0. 0.
 0. 0. 0. 0.
 0. 0. 0. 0.
 0. 0. 0. 0.
 0. 0. 0. 0.
 0. 0. 0. 0.
 0. 0. 0. 0.
 0. 0. 0. 0.
 0. 0. 0. 0.
 0. 0. 0. 0.
 0. 0. 0. 0.
 0. 0. 0. 0.
 0. 0. 0. 0.
 0. 0. 0. 0.
 0. 0. 0. 0.
 0. 0. 0. 0.
 0. 0. 0. 0.
 0. 0. 0. 0.
 0. 0. 0. 0.
 0. 0. 0. 0.
 0. 0. 0. 0.
 0. 0. 0. 0.
 0. 0. 0. 0.
 0. 0. 0. 0.
 0. 0. 0. 0.
 0. 0. 0. 0.
 0. 0. 0. 0.
 0. 0. 0. 0.
 0. 0. 0. 0.
 0. 0. 0. 0.
 0. 0. 0. 0.
 0. 0. 0. 0.
 0. 0. 0. 0.
 0. 0. 0. 0.
 0. 0. 0. 0.
 0. 0. 0. 0.
 0. 0. 0. 0.
 0. 0. 0. 0.
 0. 0. 0. 0.
 0. 0. 0. 0.
 0. 0. 0. 0.
 0. 0. 0. 0.
 0. 0. 0. 0.
 0. 0. 0. 0.
 0. 0. 0. 0.
 0. 0. 0. 0.
 0. 0. 0. 0.
 0. 0. 0. 0.
 0. 0. 0. 0.
 0. 0. 0. 0.
 0. 0. 0. 0.
 0. 0. 0. 0.
 0. 0. 0. 0.
 0. 0. 0. 0.
 0. 0. 0. 0.
 0. 0. 0. 0.
 0. 0. 0. 0.
 0. 0. 0. 0.
 0. 0. 0. 0.
 0. 0. 0. 0.
 0. 0. 0. 0.
 0. 0. 0. 0.
 0. 0. 0. 0.
 0. 0. 0. 0.
 0. 0. 0. 0.
 0. 0. 0. 0.
 0. 0. 0. 0.
 0. 0. 0. 0.
 0. 0. 0. 0.
 0. 0. 0. 0.
 0. 0. 0. 0.
 0. 0. 0. 0.
 0. 0. 0. 0.
 0. 0. 0. 0.
 0. 0. 0. 0.
 0. 0. 0. 0.
 0. 0. 0. 0.
 0. 0. 0. 0.
 0. 0. 0. 0.
 0. 0. 0. 0.
 0. 0. 0. 0.
 0. 0. 0. 0.
 0. 0. 0. 0.
 0. 0. 0. 0.
 0. 0. 0. 0.
 0. 0. 0. 0.
 0. 0. 0. 0.
 0. 0. 0. 0.
 0. 0. 0. 0.
 0. 0. 0. 0.
 0. 0. 0. 0.
 0. 0. 0. 0.
 0. 0. 0. 0.
 0. 0. 0. 0.
 0. 0. 0. 0.
 0. 0. 0. 0.
 0. 0. 0. 0.
 0. 0. 0. 0.
 0. 0. 0. 0.
 0. 0. 0. 0.
 0. 0. 0. 0.
 0. 0. 0. 0.
 0. 0. 0. 0.
 0. 0. 0. 0.
 0. 0. 0. 0.
 0. 0. 0. 0.
 0. 0. 0. 0.
 0. 0. 0. 0.
 0. 0. 0. 0.
 0. 0. 0. 0.
 0. 0. 0. 0.
 0. 0. 0. 0.
 0. 0. 0. 0.
 0. 0. 0. 0.
 0. 0. 0. 0.
 0. 0. 0. 0.
 0. 0. 0. 0.
 0. 0. 0. 0.
 0. 0. 0. 0.
 0. 0. 0. 0.
 0. 0. 0. 0.
 0. 0. 0. 0.
 0. 0. 0. 0.
 0. 0. 0. 0.
 0. 0. 0. 0.
 0. 0. 0. 0.
 0. 0. 0. 0.
 0. 0. 0. 0.
 0. 0. 0. 0.
 0. 0. 0. 0.
 0. 0. 0. 0.
 0. 0. 0. 0.
 0. 0. 0. 0.
 0. 0. 0. 0.
 0. 0. 0. 0.
 0. 0. 0. 0.
 0. 0. 0. 0.
 0. 0. 0. 0.
 0. 0. 0. 0.
 0. 0. 0. 0.
 0. 0. 0. 0.
 0. 0. 0. 0.
 0. 0. 0. 0.
 0. 0. 0. 0.
 0. 0. 0. 0.
 0. 0. 0. 0.
 0. 0. 0. 0.
 0. 0. 0. 0.
 0. 0. 0. 0.
 0. 0. 0. 0.
 0. 0. 0. 0.
 0. 0. 0. 0.
   </PP_BETA.2>
   <PP_BETA.3
       type="real"
       size="1220"
       columns="4"
       index="3"
       angular_momentum="1"
       cutoff_radius_index=" 216"
       cutoff_radius="    2.1500000000E+00" >
    5.9052422674E-11    9.5093856230E-04    3.8011794276E-03    8.5430059008E-03
    1.5163582692E-02    2.3644994612E-02    3.3964300521E-02    4.6093602331E-02
    6.0000128775E-02    7.5646333603E-02    9.2990007849E-02    1.1198440569E-01
    1.3257838342E-01    1.5471655108E-01    1.7833943598E-01    2.0338365770E-01
    2.2978211385E-01    2.5746417578E-01    2.8635589377E-01    3.1638021074E-01
    3.4745718385E-01    3.7950421323E-01    4.1243627697E-01    4.4616617167E-01
    4.8060475779E-01    5.1566120886E-01    5.5124326394E-01    5.8725748248E-01
    6.2360950081E-01    6.6020428951E-01    6.9694641094E-01    7.3374027621E-01
    7.7049040090E-01    8.0710165882E-01    8.4347953313E-01    8.7953036432E-01
    9.1516159426E-01    9.5028200585E-01    9.8480195769E-01    1.0186336131E+00
    1.0516911634E+00    1.0838910441E+00    1.1151521446E+00    1.1453960100E+00
    1.1745470356E+00    1.2025326521E+00    1.2292835030E+00    1.2547336127E+00
    1.2788205446E+00    1.3014855502E+00    1.3226737075E+00    1.3423340492E+00
    1.3604196804E+00    1.3768878846E+00    1.3917002193E+00    1.4048225996E+00
    1.4162253698E+00    1.4258833636E+00    1.4337759520E+00    1.4398870783E+00
    1.4442052817E+00    1.4467237067E+00    1.4474401016E+00    1.4463568025E+00
    1.4434807055E+00    1.4388232257E+00    1.4324002431E+00    1.4242320357E+00
    1.4143432005E+00    1.4027625607E+00    1.3895230616E+00    1.3746616534E+00
    1.3582191624E+00    1.3402401506E+00    1.3207727638E+00    1.2998685686E+00
    1.2775823795E+00    1.2539720754E+00    1.2290984071E+00    1.2030247961E+00
    1.1758171247E+00    1.1475435193E+00    1.1182741267E+00    1.0880808846E+00
    1.0570372871E+00    1.0252181459E+00    9.9269934823E-01    9.5955761273E-01
    9.2587024347E-01    8.9171488401E-01    8.5716927179E-01    8.2231099422E-01
    7.8721724732E-01    7.5196459796E-01    7.1662875066E-01    6.8128432000E-01
    6.4600460945E-01    6.1086139766E-01    5.7592473309E-01    5.4126273771E-01
    5.0694142074E-01    4.7302450299E-01    4.3957325266E-01    4.0664633310E-01
    3.7429966314E-01    3.4258629050E-01    3.1155627859E-01    2.8125660717E-01
    2.5173108706E-01    2.2302028902E-01    1.9516148703E-01    1.6818861578E-01
    1.4213224257E-01    1.1701955319E-01    9.2874351711E-02    6.9717073863E-02
    4.7564813571E-02    2.6431362222E-02    6.3272601415E-03   -1.2740140297E-02
   -3.0766600577E-02   -4.7750911646E-02   -6.3694799947E-02   -7.8602824665E-02
   -9.2482266981E-02   -1.0534301218E-01   -1.1719742545E-01   -1.2806022223E-01
   -1.3794833406E-01   -1.4688077062E-01   -1.5487847904E-01   -1.6196420119E-01
   -1.6816232982E-01   -1.7349876434E-01   -1.7800076708E-01   -1.8169682066E-01
   -1.8461648727E-01   -1.8679027045E-01   -1.8824948006E-01   -1.8902610086E-01
   -1.8915266535E-01   -1.8866213123E-01   -1.8758776395E-01   -1.8596302459E-01
   -1.8382146339E-01   -1.8119661930E-01   -1.7812192538E-01   -1.7463062062E-01
   -1.7075566777E-01   -1.6652967759E-01   -1.6198483926E-01   -1.5715285693E-01
   -1.5206489229E-01   -1.4675151302E-01   -1.4124264695E-01   -1.3556754159E-01
   -1.2975472897E-01   -1.2383199536E-01   -1.1782635562E-01   -1.1176403201E-01
   -1.0567043690E-01   -9.9570159281E-02   -9.3486954683E-02   -8.7443738109E-02
   -8.1462579761E-02   -7.5564703190E-02   -6.9770485578E-02   -6.4099459853E-02
   -5.8570318348E-02   -5.3200917746E-02   -4.8008285038E-02   -4.3008624261E-02
   -3.8217323801E-02   -3.3648964035E-02   -2.9317325141E-02   -2.5235380871E-02
   -2.1415425107E-02   -1.7868694067E-02   -1.4606697813E-02   -1.1656117818E-02
   -9.0365479113E-03   -6.7460657573E-03   -4.7853479590E-03   -3.1554302050E-03
   -1.8582558894E-03   -8.9668436459E-04   -2.7292097690E-04   -5.3998908936E-06
    1.4779503476E-05   -5.0030831617E-06    9.6403827143E-07   -3.8808907836E-08
    0.0000000000E+00    0.0000000000E+00    0.0000000000E+00    0.0000000000E+00
    0.0000000000E+00    0.0000000000E+00    0.0000000000E+00    0.0000000000E+00
    0.0000000000E+00    0.0000000000E+00    0.0000000000E+00    0.0000000000E+00
    0.0000000000E+00    0.0000000000E+00    0.0000000000E+00    0.0000000000E+00
    0.0000000000E+00    0.0000000000E+00    0.0000000000E+00    0.0000000000E+00
    0.0000000000E+00    0.0000000000E+00    0.0000000000E+00    0.0000000000E+00
 0. 0. 0. 0.
 0. 0. 0. 0.
 0. 0. 0. 0.
 0. 0. 0. 0.
 0. 0. 0. 0.
 0. 0. 0. 0.
 0. 0. 0. 0.
 0. 0. 0. 0.
 0. 0. 0. 0.
 0. 0. 0. 0.
 0. 0. 0. 0.
 0. 0. 0. 0.
 0. 0. 0. 0.
 0. 0. 0. 0.
 0. 0. 0. 0.
 0. 0. 0. 0.
 0. 0. 0. 0.
 0. 0. 0. 0.
 0. 0. 0. 0.
 0. 0. 0. 0.
 0. 0. 0. 0.
 0. 0. 0. 0.
 0. 0. 0. 0.
 0. 0. 0. 0.
 0. 0. 0. 0.
 0. 0. 0. 0.
 0. 0. 0. 0.
 0. 0. 0. 0.
 0. 0. 0. 0.
 0. 0. 0. 0.
 0. 0. 0. 0.
 0. 0. 0. 0.
 0. 0. 0. 0.
 0. 0. 0. 0.
 0. 0. 0. 0.
 0. 0. 0. 0.
 0. 0. 0. 0.
 0. 0. 0. 0.
 0. 0. 0. 0.
 0. 0. 0. 0.
 0. 0. 0. 0.
 0. 0. 0. 0.
 0. 0. 0. 0.
 0. 0. 0. 0.
 0. 0. 0. 0.
 0. 0. 0. 0.
 0. 0. 0. 0.
 0. 0. 0. 0.
 0. 0. 0. 0.
 0. 0. 0. 0.
 0. 0. 0. 0.
 0. 0. 0. 0.
 0. 0. 0. 0.
 0. 0. 0. 0.
 0. 0. 0. 0.
 0. 0. 0. 0.
 0. 0. 0. 0.
 0. 0. 0. 0.
 0. 0. 0. 0.
 0. 0. 0. 0.
 0. 0. 0. 0.
 0. 0. 0. 0.
 0. 0. 0. 0.
 0. 0. 0. 0.
 0. 0. 0. 0.
 0. 0. 0. 0.
 0. 0. 0. 0.
 0. 0. 0. 0.
 0. 0. 0. 0.
 0. 0. 0. 0.
 0. 0. 0. 0.
 0. 0. 0. 0.
 0. 0. 0. 0.
 0. 0. 0. 0.
 0. 0. 0. 0.
 0. 0. 0. 0.
 0. 0. 0. 0.
 0. 0. 0. 0.
 0. 0. 0. 0.
 0. 0. 0. 0.
 0. 0. 0. 0.
 0. 0. 0. 0.
 0. 0. 0. 0.
 0. 0. 0. 0.
 0. 0. 0. 0.
 0. 0. 0. 0.
 0. 0. 0. 0.
 0. 0. 0. 0.
 0. 0. 0. 0.
 0. 0. 0. 0.
 0. 0. 0. 0.
 0. 0. 0. 0.
 0. 0. 0. 0.
 0. 0. 0. 0.
 0. 0. 0. 0.
 0. 0. 0. 0.
 0. 0. 0. 0.
 0. 0. 0. 0.
 0. 0. 0. 0.
 0. 0. 0. 0.
 0. 0. 0. 0.
 0. 0. 0. 0.
 0. 0. 0. 0.
 0. 0. 0. 0.
 0. 0. 0. 0.
 0. 0. 0. 0.
 0. 0. 0. 0.
 0. 0. 0. 0.
 0. 0. 0. 0.
 0. 0. 0. 0.
 0. 0. 0. 0.
 0. 0. 0. 0.
 0. 0. 0. 0.
 0. 0. 0. 0.
 0. 0. 0. 0.
 0. 0. 0. 0.
 0. 0. 0. 0.
 0. 0. 0. 0.
 0. 0. 0. 0.
 0. 0. 0. 0.
 0. 0. 0. 0.
 0. 0. 0. 0.
 0. 0. 0. 0.
 0. 0. 0. 0.
 0. 0. 0. 0.
 0. 0. 0. 0.
 0. 0. 0. 0.
 0. 0. 0. 0.
 0. 0. 0. 0.
 0. 0. 0. 0.
 0. 0. 0. 0.
 0. 0. 0. 0.
 0. 0. 0. 0.
 0. 0. 0. 0.
 0. 0. 0. 0.
 0. 0. 0. 0.
 0. 0. 0. 0.
 0. 0. 0. 0.
 0. 0. 0. 0.
 0. 0. 0. 0.
 0. 0. 0. 0.
 0. 0. 0. 0.
 0. 0. 0. 0.
 0. 0. 0. 0.
 0. 0. 0. 0.
 0. 0. 0. 0.
 0. 0. 0. 0.
 0. 0. 0. 0.
 0. 0. 0. 0.
 0. 0. 0. 0.
 0. 0. 0. 0.
 0. 0. 0. 0.
 0. 0. 0. 0.
 0. 0. 0. 0.
 0. 0. 0. 0.
 0. 0. 0. 0.
 0. 0. 0. 0.
 0. 0. 0. 0.
 0. 0. 0. 0.
 0. 0. 0. 0.
 0. 0. 0. 0.
 0. 0. 0. 0.
 0. 0. 0. 0.
 0. 0. 0. 0.
 0. 0. 0. 0.
 0. 0. 0. 0.
 0. 0. 0. 0.
 0. 0. 0. 0.
 0. 0. 0. 0.
 0. 0. 0. 0.
 0. 0. 0. 0.
 0. 0. 0. 0.
 0. 0. 0. 0.
 0. 0. 0. 0.
 0. 0. 0. 0.
 0. 0. 0. 0.
 0. 0. 0. 0.
 0. 0. 0. 0.
 0. 0. 0. 0.
 0. 0. 0. 0.
 0. 0. 0. 0.
 0. 0. 0. 0.
 0. 0. 0. 0.
 0. 0. 0. 0.
 0. 0. 0. 0.
 0. 0. 0. 0.
 0. 0. 0. 0.
 0. 0. 0. 0.
 0. 0. 0. 0.
 0. 0. 0. 0.
 0. 0. 0. 0.
 0. 0. 0. 0.
 0. 0. 0. 0.
 0. 0. 0. 0.
 0. 0. 0. 0.
 0. 0. 0. 0.
 0. 0. 0. 0.
 0. 0. 0. 0.
 0. 0. 0. 0.
 0. 0. 0. 0.
 0. 0. 0. 0.
 0. 0. 0. 0.
 0. 0. 0. 0.
 0. 0. 0. 0.
 0. 0. 0. 0.
 0. 0. 0. 0.
 0. 0. 0. 0.
 0. 0. 0. 0.
 0. 0. 0. 0.
 0. 0. 0. 0.
 0. 0. 0. 0.
 0. 0. 0. 0.
 0. 0. 0. 0.
 0. 0. 0. 0.
 0. 0. 0. 0.
 0. 0. 0. 0.
 0. 0. 0. 0.
 0. 0. 0. 0.
 0. 0. 0. 0.
 0. 0. 0. 0.
 0. 0. 0. 0.
 0. 0. 0. 0.
 0. 0. 0. 0.
 0. 0. 0. 0.
 0. 0. 0. 0.
 0. 0. 0. 0.
 0. 0. 0. 0.
 0. 0. 0. 0.
 0. 0. 0. 0.
 0. 0. 0. 0.
 0. 0. 0. 0.
 0. 0. 0. 0.
 0. 0. 0. 0.
 0. 0. 0. 0.
 0. 0. 0. 0.
 0. 0. 0. 0.
 0. 0. 0. 0.
 0. 0. 0. 0.
 0. 0. 0. 0.
 0. 0. 0. 0.
 0. 0. 0. 0.
 0. 0. 0. 0.
 0. 0. 0. 0.
 0. 0. 0. 0.
 0. 0. 0. 0.
 0. 0. 0. 0.
 0. 0. 0. 0.
 0. 0. 0. 0.
 0. 0. 0. 0.
 0. 0. 0. 0.
 0. 0. 0. 0.
   </PP_BETA.3>
   <PP_BETA.4
       type="real"
       size="1220"
       columns="4"
       index="4"
       angular_momentum="1"
       cutoff_radius_index=" 216"
       cutoff_radius="    2.1500000000E+00" >
    7.9019485399E-11    8.9989088578E-04    3.5971931862E-03    8.0848035187E-03
    1.4350908499E-02    2.2379022967E-02    3.2148043211E-02    4.3632314886E-02
    5.6801715258E-02    7.1621749319E-02    8.8053659267E-02    1.0605454675E-01
    1.2557750722E-01    1.4657177577E-01    1.6898288356E-01    1.9275282426E-01
    2.1782022943E-01    2.4412055234E-01    2.7158625897E-01    3.0014702569E-01
    3.2972994251E-01    3.6025972119E-01    3.9165890727E-01    4.2384809521E-01
    4.5674614591E-01    4.9027040571E-01    5.2433692630E-01    5.5886068472E-01
    5.9375580278E-01    6.2893576549E-01    6.6431363771E-01    6.9980227869E-01
    7.3531455390E-01    7.7076354398E-01    8.0606275012E-01    8.4112629589E-01
    8.7586912507E-01    9.1020719526E-01    9.4405766723E-01    9.7733908962E-01
    1.0099715791E+00    1.0418769959E+00    1.0729791141E+00    1.1032037874E+00
    1.1324791101E+00    1.1607355722E+00    1.1879062107E+00    1.2139267541E+00
    1.2387357634E+00    1.2622747663E+00    1.2844883863E+00    1.3053244668E+00
    1.3247341880E+00    1.3426721791E+00    1.3590966232E+00    1.3739693557E+00
    1.3872559565E+00    1.3989258338E+00    1.4089523009E+00    1.4173126452E+00
    1.4239881880E+00    1.4289643359E+00    1.4322306225E+00    1.4337807409E+00
    1.4336125649E+00    1.4317281605E+00    1.4281337858E+00    1.4228398789E+00
    1.4158610349E+00    1.4072159693E+00    1.3969274700E+00    1.3850223353E+00
    1.3715312999E+00    1.3564889465E+00    1.3399336055E+00    1.3219072399E+00
    1.3024553187E+00    1.2816266756E+00    1.2594733564E+00    1.2360504533E+00
    1.2114159272E+00    1.1856304195E+00    1.1587570521E+00    1.1308612182E+00
    1.1020103634E+00    1.0722737592E+00    1.0417222689E+00    1.0104281067E+00
    9.7846459306E-01    9.4590590469E-01    9.1282682310E-01    8.7930248096E-01
    8.4540810874E-01    8.1121878238E-01    7.7680917369E-01    7.4225330447E-01
    7.0762430591E-01    6.7299418438E-01    6.3843359501E-01    6.0401162405E-01
    5.6979558138E-01    5.3585080400E-01    5.0224047167E-01    4.6902543541E-01
    4.3626405981E-01    4.0401207975E-01    3.7232247211E-01    3.4124534291E-01
    3.1082783028E-01    2.8111402339E-01    2.5214489751E-01    2.2395826510E-01
    1.9658874276E-01    1.7006773389E-01    1.4442342646E-01    1.1968080558E-01
    9.5861680162E-02    7.2984722921E-02    5.1065523081E-02    3.0116650737E-02
    1.0147732035E-02   -8.8344658671E-03   -2.6825941097E-02   -4.3825355719E-02
   -5.9833927830E-02   -7.4855318234E-02   -8.8895512803E-02   -1.0196270163E-01
   -1.1406715605E-01   -1.2522110461E-01   -1.3543860890E-01   -1.4473544032E-01
   -1.5312895851E-01   -1.6063799240E-01   -1.6728272447E-01   -1.7308457894E-01
   -1.7806611451E-01   -1.8225092186E-01   -1.8566352660E-01   -1.8832929766E-01
   -1.9027436146E-01   -1.9152552184E-01   -1.9211018579E-01   -1.9205629482E-01
   -1.9139226186E-01   -1.9014691331E-01   -1.8834943600E-01   -1.8602932862E-01
   -1.8321635717E-01   -1.7994051393E-01   -1.7623197943E-01   -1.7212108681E-01
   -1.6763828809E-01   -1.6281412163E-01   -1.5767918036E-01   -1.5226408012E-01
   -1.4659942750E-01   -1.4071578690E-01   -1.3464364607E-01   -1.2841337993E-01
   -1.2205521214E-01   -1.1559917425E-01   -1.0907506204E-01   -1.0251238906E-01
   -9.5940337035E-02   -8.9387703382E-02   -8.2882845606E-02   -7.6453622888E-02
   -7.0127334962E-02   -6.3930658543E-02   -5.7889581646E-02   -5.2029336144E-02
   -4.6374329005E-02   -4.0948072687E-02   -3.5773115191E-02   -3.0870957020E-02
   -2.6262094965E-02   -2.1965590590E-02   -1.8000253535E-02   -1.4398752667E-02
   -1.1186450926E-02   -8.3675787724E-03   -5.9480133721E-03   -3.9331261379E-03
   -2.3282892286E-03   -1.1388053479E-03   -3.6756973683E-04   -4.0283199032E-05
    7.1226184324E-06   -3.0906065921E-06    4.9699450239E-07    1.8803627462E-08
    0.0000000000E+00    0.0000000000E+00    0.0000000000E+00    0.0000000000E+00
    0.0000000000E+00    0.0000000000E+00    0.0000000000E+00    0.0000000000E+00
    0.0000000000E+00    0.0000000000E+00    0.0000000000E+00    0.0000000000E+00
    0.0000000000E+00    0.0000000000E+00    0.0000000000E+00    0.0000000000E+00
    0.0000000000E+00    0.0000000000E+00    0.0000000000E+00    0.0000000000E+00
    0.0000000000E+00    0.0000000000E+00    0.0000000000E+00    0.0000000000E+00
 0. 0. 0. 0.
 0. 0. 0. 0.
 0. 0. 0. 0.
 0. 0. 0. 0.
 0. 0. 0. 0.
 0. 0. 0. 0.
 0. 0. 0. 0.
 0. 0. 0. 0.
 0. 0. 0. 0.
 0. 0. 0. 0.
 0. 0. 0. 0.
 0. 0. 0. 0.
 0. 0. 0. 0.
 0. 0. 0. 0.
 0. 0. 0. 0.
 0. 0. 0. 0.
 0. 0. 0. 0.
 0. 0. 0. 0.
 0. 0. 0. 0.
 0. 0. 0. 0.
 0. 0. 0. 0.
 0. 0. 0. 0.
 0. 0. 0. 0.
 0. 0. 0. 0.
 0. 0. 0. 0.
 0. 0. 0. 0.
 0. 0. 0. 0.
 0. 0. 0. 0.
 0. 0. 0. 0.
 0. 0. 0. 0.
 0. 0. 0. 0.
 0. 0. 0. 0.
 0. 0. 0. 0.
 0. 0. 0. 0.
 0. 0. 0. 0.
 0. 0. 0. 0.
 0. 0. 0. 0.
 0. 0. 0. 0.
 0. 0. 0. 0.
 0. 0. 0. 0.
 0. 0. 0. 0.
 0. 0. 0. 0.
 0. 0. 0. 0.
 0. 0. 0. 0.
 0. 0. 0. 0.
 0. 0. 0. 0.
 0. 0. 0. 0.
 0. 0. 0. 0.
 0. 0. 0. 0.
 0. 0. 0. 0.
 0. 0. 0. 0.
 0. 0. 0. 0.
 0. 0. 0. 0.
 0. 0. 0. 0.
 0. 0. 0. 0.
 0. 0. 0. 0.
 0. 0. 0. 0.
 0. 0. 0. 0.
 0. 0. 0. 0.
 0. 0. 0. 0.
 0. 0. 0. 0.
 0. 0. 0. 0.
 0. 0. 0. 0.
 0. 0. 0. 0.
 0. 0. 0. 0.
 0. 0. 0. 0.
 0. 0. 0. 0.
 0. 0. 0. 0.
 0. 0. 0. 0.
 0. 0. 0. 0.
 0. 0. 0. 0.
 0. 0. 0. 0.
 0. 0. 0. 0.
 0. 0. 0. 0.
 0. 0. 0. 0.
 0. 0. 0. 0.
 0. 0. 0. 0.
 0. 0. 0. 0.
 0. 0. 0. 0.
 0. 0. 0. 0.
 0. 0. 0. 0.
 0. 0. 0. 0.
 0. 0. 0. 0.
 0. 0. 0. 0.
 0. 0. 0. 0.
 0. 0. 0. 0.
 0. 0. 0. 0.
 0. 0. 0. 0.
 0. 0. 0. 0.
 0. 0. 0. 0.
 0. 0. 0. 0.
 0. 0. 0. 0.
 0. 0. 0. 0.
 0. 0. 0. 0.
 0. 0. 0. 0.
 0. 0. 0. 0.
 0. 0. 0. 0.
 0. 0. 0. 0.
 0. 0. 0. 0.
 0. 0. 0. 0.
 0. 0. 0. 0.
 0. 0. 0. 0.
 0. 0. 0. 0.
 0. 0. 0. 0.
 0. 0. 0. 0.
 0. 0. 0. 0.
 0. 0. 0. 0.
 0. 0. 0. 0.
 0. 0. 0. 0.
 0. 0. 0. 0.
 0. 0. 0. 0.
 0. 0. 0. 0.
 0. 0. 0. 0.
 0. 0. 0. 0.
 0. 0. 0. 0.
 0. 0. 0. 0.
 0. 0. 0. 0.
 0. 0. 0. 0.
 0. 0. 0. 0.
 0. 0. 0. 0.
 0. 0. 0. 0.
 0. 0. 0. 0.
 0. 0. 0. 0.
 0. 0. 0. 0.
 0. 0. 0. 0.
 0. 0. 0. 0.
 0. 0. 0. 0.
 0. 0. 0. 0.
 0. 0. 0. 0.
 0. 0. 0. 0.
 0. 0. 0. 0.
 0. 0. 0. 0.
 0. 0. 0. 0.
 0. 0. 0. 0.
 0. 0. 0. 0.
 0. 0. 0. 0.
 0. 0. 0. 0.
 0. 0. 0. 0.
 0. 0. 0. 0.
 0. 0. 0. 0.
 0. 0. 0. 0.
 0. 0. 0. 0.
 0. 0. 0. 0.
 0. 0. 0. 0.
 0. 0. 0. 0.
 0. 0. 0. 0.
 0. 0. 0. 0.
 0. 0. 0. 0.
 0. 0. 0. 0.
 0. 0. 0. 0.
 0. 0. 0. 0.
 0. 0. 0. 0.
 0. 0. 0. 0.
 0. 0. 0. 0.
 0. 0. 0. 0.
 0. 0. 0. 0.
 0. 0. 0. 0.
 0. 0. 0. 0.
 0. 0. 0. 0.
 0. 0. 0. 0.
 0. 0. 0. 0.
 0. 0. 0. 0.
 0. 0. 0. 0.
 0. 0. 0. 0.
 0. 0. 0. 0.
 0. 0. 0. 0.
 0. 0. 0. 0.
 0. 0. 0. 0.
 0. 0. 0. 0.
 0. 0. 0. 0.
 0. 0. 0. 0.
 0. 0. 0. 0.
 0. 0. 0. 0.
 0. 0. 0. 0.
 0. 0. 0. 0.
 0. 0. 0. 0.
 0. 0. 0. 0.
 0. 0. 0. 0.
 0. 0. 0. 0.
 0. 0. 0. 0.
 0. 0. 0. 0.
 0. 0. 0. 0.
 0. 0. 0. 0.
 0. 0. 0. 0.
 0. 0. 0. 0.
 0. 0. 0. 0.
 0. 0. 0. 0.
 0. 0. 0. 0.
 0. 0. 0. 0.
 0. 0. 0. 0.
 0. 0. 0. 0.
 0. 0. 0. 0.
 0. 0. 0. 0.
 0. 0. 0. 0.
 0. 0. 0. 0.
 0. 0. 0. 0.
 0. 0. 0. 0.
 0. 0. 0. 0.
 0. 0. 0. 0.
 0. 0. 0. 0.
 0. 0. 0. 0.
 0. 0. 0. 0.
 0. 0. 0. 0.
 0. 0. 0. 0.
 0. 0. 0. 0.
 0. 0. 0. 0.
 0. 0. 0. 0.
 0. 0. 0. 0.
 0. 0. 0. 0.
 0. 0. 0. 0.
 0. 0. 0. 0.
 0. 0. 0. 0.
 0. 0. 0. 0.
 0. 0. 0. 0.
 0. 0. 0. 0.
 0. 0. 0. 0.
 0. 0. 0. 0.
 0. 0. 0. 0.
 0. 0. 0. 0.
 0. 0. 0. 0.
 0. 0. 0. 0.
 0. 0. 0. 0.
 0. 0. 0. 0.
 0. 0. 0. 0.
 0. 0. 0. 0.
 0. 0. 0. 0.
 0. 0. 0. 0.
 0. 0. 0. 0.
 0. 0. 0. 0.
 0. 0. 0. 0.
 0. 0. 0. 0.
 0. 0. 0. 0.
 0. 0. 0. 0.
 0. 0. 0. 0.
 0. 0. 0. 0.
 0. 0. 0. 0.
 0. 0. 0. 0.
 0. 0. 0. 0.
 0. 0. 0. 0.
 0. 0. 0. 0.
 0. 0. 0. 0.
 0. 0. 0. 0.
 0. 0. 0. 0.
 0. 0. 0. 0.
 0. 0. 0. 0.
 0. 0. 0. 0.
 0. 0. 0. 0.
 0. 0. 0. 0.
 0. 0. 0. 0.
 0. 0. 0. 0.
 0. 0. 0. 0.
   </PP_BETA.4>
   <PP_BETA.5
       type="real"
       size="1220"
       columns="4"
       index="5"
       angular_momentum="1"
       cutoff_radius_index=" 216"
       cutoff_radius="    2.1500000000E+00" >
   -9.0544224896E-11   -5.6253700251E-04   -2.2476458835E-03   -5.0478298764E-03
   -8.9506263655E-03   -1.3938654709E-02   -1.9989682854E-02   -2.7076712404E-02
   -3.5168081727E-02   -4.4227586571E-02   -5.4214617615E-02   -6.5084314263E-02
   -7.6787733952E-02   -8.9272036154E-02   -1.0248068020E-01   -1.1635363603E-01
   -1.3082760685E-01   -1.4583626274E-01   -1.6131048416E-01   -1.7717861429E-01
   -1.9336671913E-01   -2.0979885433E-01   -2.2639733754E-01   -2.4308302539E-01
   -2.5977559383E-01   -2.7639382102E-01   -2.9285587152E-01   -3.0907958094E-01
   -3.2498274004E-01   -3.4048337736E-01   -3.5550003955E-01   -3.6995206842E-01
   -3.8375987411E-01   -3.9684520351E-01   -4.0913140318E-01   -4.2054367627E-01
   -4.3100933269E-01   -4.4045803198E-01   -4.4882201835E-01   -4.5603634749E-01
   -4.6203910448E-01   -4.6677161260E-01   -4.7017863246E-01   -4.7220855121E-01
   -4.7281356135E-01   -4.7194982889E-01   -4.6957765061E-01   -4.6566159986E-01
   -4.6017066091E-01   -4.5307835135E-01   -4.4436283231E-01   -4.3400700628E-01
   -4.2199860213E-01   -4.0833024716E-01   -3.9299952582E-01   -3.7600902491E-01
   -3.5736636485E-01   -3.3708421692E-01   -3.1518030607E-01   -2.9167739908E-01
   -2.6660327794E-01   -2.3999069801E-01   -2.1187733102E-01   -1.8230569249E-01
   -1.5132305367E-01   -1.1898133767E-01   -8.5336999913E-02   -5.0450892799E-02
   -1.4388114642E-02    2.2782156978E-02    6.0986847305E-02    1.0014918168E-01
    1.4018889766E-01    1.8102247164E-01    2.2256335938E-01    2.6472224997E-01
    3.0740733258E-01    3.5052457508E-01    3.9397801390E-01    4.3767005410E-01
    4.8150177854E-01    5.2537326528E-01    5.6918391174E-01    6.1283276459E-01
    6.5621885390E-01    6.9924153019E-01    7.4180080290E-01    7.8379767883E-01
    8.2513449894E-01    8.6571527191E-01    9.0544600297E-01    9.4423501629E-01
    9.8199326943E-01    1.0186346581E+00    1.0540763098E+00    1.0882388651E+00
    1.1210467443E+00    1.1524283989E+00    1.1823165462E+00    1.2106483861E+00
    1.2373657981E+00    1.2624155185E+00    1.2857492969E+00    1.3073240300E+00
    1.3271018731E+00    1.3450503296E+00    1.3611423155E+00    1.3753562017E+00
    1.3876758321E+00    1.3980905183E+00    1.4065950107E+00    1.4131894479E+00
    1.4178792823E+00    1.4206751853E+00    1.4215929310E+00    1.4206532606E+00
    1.4178817279E+00    1.4133085270E+00    1.4069683043E+00    1.3988999549E+00
    1.3891464065E+00    1.3777543906E+00    1.3647742038E+00    1.3502594600E+00
    1.3342668362E+00    1.3168558117E+00    1.2980884046E+00    1.2780289050E+00
    1.2567436084E+00    1.2343005489E+00    1.2107692361E+00    1.1862203938E+00
    1.1607257052E+00    1.1343575635E+00    1.1071888302E+00    1.0792926011E+00
    1.0507419820E+00    1.0216098743E+00    9.9196877077E-01    9.6189056333E-01
    9.3144636138E-01    9.0070632275E-01    8.6973949637E-01    8.3861367709E-01
    8.0739527254E-01    7.7614918186E-01    7.4493868610E-01    7.1382534986E-01
    6.8286893380E-01    6.5212731751E-01    6.2165643218E-01    5.9151020238E-01
    5.6174049648E-01    5.3239708478E-01    5.0352760482E-01    4.7517753307E-01
    4.4739016235E-01    4.2020658409E-01    3.9366567506E-01    3.6780408754E-01
    3.4265624257E-01    3.1825432561E-01    2.9462828404E-01    2.7180582601E-01
    2.4981242038E-01    2.2867129712E-01    2.0840344813E-01    1.8902762801E-01
    1.7056035488E-01    1.5301591083E-01    1.3640634227E-01    1.2074145988E-01
    1.0602883850E-01    9.2273816878E-02    7.9479497539E-02    6.7646710843E-02
    5.6774320327E-02    4.6858241147E-02    3.7894828512E-02    2.9919251461E-02
    2.2949175843E-02    1.6948444197E-02    1.1888953520E-02    7.7448379597E-03
    4.4938153001E-03    2.1172329741E-03    5.9704337172E-04   -5.2759418046E-05
   -5.6726481210E-05    1.7921183517E-05   -3.6561002942E-06    2.2235001775E-07
    0.0000000000E+00    0.0000000000E+00    0.0000000000E+00    0.0000000000E+00
    0.0000000000E+00    0.0000000000E+00    0.0000000000E+00    0.0000000000E+00
    0.0000000000E+00    0.0000000000E+00    0.0000000000E+00    0.0000000000E+00
    0.0000000000E+00    0.0000000000E+00    0.0000000000E+00    0.0000000000E+00
    0.0000000000E+00    0.0000000000E+00    0.0000000000E+00    0.0000000000E+00
    0.0000000000E+00    0.0000000000E+00    0.0000000000E+00    0.0000000000E+00
 0. 0. 0. 0.
 0. 0. 0. 0.
 0. 0. 0. 0.
 0. 0. 0. 0.
 0. 0. 0. 0.
 0. 0. 0. 0.
 0. 0. 0. 0.
 0. 0. 0. 0.
 0. 0. 0. 0.
 0. 0. 0. 0.
 0. 0. 0. 0.
 0. 0. 0. 0.
 0. 0. 0. 0.
 0. 0. 0. 0.
 0. 0. 0. 0.
 0. 0. 0. 0.
 0. 0. 0. 0.
 0. 0. 0. 0.
 0. 0. 0. 0.
 0. 0. 0. 0.
 0. 0. 0. 0.
 0. 0. 0. 0.
 0. 0. 0. 0.
 0. 0. 0. 0.
 0. 0. 0. 0.
 0. 0. 0. 0.
 0. 0. 0. 0.
 0. 0. 0. 0.
 0. 0. 0. 0.
 0. 0. 0. 0.
 0. 0. 0. 0.
 0. 0. 0. 0.
 0. 0. 0. 0.
 0. 0. 0. 0.
 0. 0. 0. 0.
 0. 0. 0. 0.
 0. 0. 0. 0.
 0. 0. 0. 0.
 0. 0. 0. 0.
 0. 0. 0. 0.
 0. 0. 0. 0.
 0. 0. 0. 0.
 0. 0. 0. 0.
 0. 0. 0. 0.
 0. 0. 0. 0.
 0. 0. 0. 0.
 0. 0. 0. 0.
 0. 0. 0. 0.
 0. 0. 0. 0.
 0. 0. 0. 0.
 0. 0. 0. 0.
 0. 0. 0. 0.
 0. 0. 0. 0.
 0. 0. 0. 0.
 0. 0. 0. 0.
 0. 0. 0. 0.
 0. 0. 0. 0.
 0. 0. 0. 0.
 0. 0. 0. 0.
 0. 0. 0. 0.
 0. 0. 0. 0.
 0. 0. 0. 0.
 0. 0. 0. 0.
 0. 0. 0. 0.
 0. 0. 0. 0.
 0. 0. 0. 0.
 0. 0. 0. 0.
 0. 0. 0. 0.
 0. 0. 0. 0.
 0. 0. 0. 0.
 0. 0. 0. 0.
 0. 0. 0. 0.
 0. 0. 0. 0.
 0. 0. 0. 0.
 0. 0. 0. 0.
 0. 0. 0. 0.
 0. 0. 0. 0.
 0. 0. 0. 0.
 0. 0. 0. 0.
 0. 0. 0. 0.
 0. 0. 0. 0.
 0. 0. 0. 0.
 0. 0. 0. 0.
 0. 0. 0. 0.
 0. 0. 0. 0.
 0. 0. 0. 0.
 0. 0. 0. 0.
 0. 0. 0. 0.
 0. 0. 0. 0.
 0. 0. 0. 0.
 0. 0. 0. 0.
 0. 0. 0. 0.
 0. 0. 0. 0.
 0. 0. 0. 0.
 0. 0. 0. 0.
 0. 0. 0. 0.
 0. 0. 0. 0.
 0. 0. 0. 0.
 0. 0. 0. 0.
 0. 0. 0. 0.
 0. 0. 0. 0.
 0. 0. 0. 0.
 0. 0. 0. 0.
 0. 0. 0. 0.
 0. 0. 0. 0.
 0. 0. 0. 0.
 0. 0. 0. 0.
 0. 0. 0. 0.
 0. 0. 0. 0.
 0. 0. 0. 0.
 0. 0. 0. 0.
 0. 0. 0. 0.
 0. 0. 0. 0.
 0. 0. 0. 0.
 0. 0. 0. 0.
 0. 0. 0. 0.
 0. 0. 0. 0.
 0. 0. 0. 0.
 0. 0. 0. 0.
 0. 0. 0. 0.
 0. 0. 0. 0.
 0. 0. 0. 0.
 0. 0. 0. 0.
 0. 0. 0. 0.
 0. 0. 0. 0.
 0. 0. 0. 0.
 0. 0. 0. 0.
 0. 0. 0. 0.
 0. 0. 0. 0.
 0. 0. 0. 0.
 0. 0. 0. 0.
 0. 0. 0. 0.
 0. 0. 0. 0.
 0. 0. 0. 0.
 0. 0. 0. 0.
 0. 0. 0. 0.
 0. 0. 0. 0.
 0. 0. 0. 0.
 0. 0. 0. 0.
 0. 0. 0. 0.
 0. 0. 0. 0.
 0. 0. 0. 0.
 0. 0. 0. 0.
 0. 0. 0. 0.
 0. 0. 0. 0.
 0. 0. 0. 0.
 0. 0. 0. 0.
 0. 0. 0. 0.
 0. 0. 0. 0.
 0. 0. 0. 0.
 0. 0. 0. 0.
 0. 0. 0. 0.
 0. 0. 0. 0.
 0. 0. 0. 0.
 0. 0. 0. 0.
 0. 0. 0. 0.
 0. 0. 0. 0.
 0. 0. 0. 0.
 0. 0. 0. 0.
 0. 0. 0. 0.
 0. 0. 0. 0.
 0. 0. 0. 0.
 0. 0. 0. 0.
 0. 0. 0. 0.
 0. 0. 0. 0.
 0. 0. 0. 0.
 0. 0. 0. 0.
 0. 0. 0. 0.
 0. 0. 0. 0.
 0. 0. 0. 0.
 0. 0. 0. 0.
 0. 0. 0. 0.
 0. 0. 0. 0.
 0. 0. 0. 0.
 0. 0. 0. 0.
 0. 0. 0. 0.
 0. 0. 0. 0.
 0. 0. 0. 0.
 0. 0. 0. 0.
 0. 0. 0. 0.
 0. 0. 0. 0.
 0. 0. 0. 0.
 0. 0. 0. 0.
 0. 0. 0. 0.
 0. 0. 0. 0.
 0. 0. 0. 0.
 0. 0. 0. 0.
 0. 0. 0. 0.
 0. 0. 0. 0.
 0. 0. 0. 0.
 0. 0. 0. 0.
 0. 0. 0. 0.
 0. 0. 0. 0.
 0. 0. 0. 0.
 0. 0. 0. 0.
 0. 0. 0. 0.
 0. 0. 0. 0.
 0. 0. 0. 0.
 0. 0. 0. 0.
 0. 0. 0. 0.
 0. 0. 0. 0.
 0. 0. 0. 0.
 0. 0. 0. 0.
 0. 0. 0. 0.
 0. 0. 0. 0.
 0. 0. 0. 0.
 0. 0. 0. 0.
 0. 0. 0. 0.
 0. 0. 0. 0.
 0. 0. 0. 0.
 0. 0. 0. 0.
 0. 0. 0. 0.
 0. 0. 0. 0.
 0. 0. 0. 0.
 0. 0. 0. 0.
 0. 0. 0. 0.
 0. 0. 0. 0.
 0. 0. 0. 0.
 0. 0. 0. 0.
 0. 0. 0. 0.
 0. 0. 0. 0.
 0. 0. 0. 0.
 0. 0. 0. 0.
 0. 0. 0. 0.
 0. 0. 0. 0.
 0. 0. 0. 0.
 0. 0. 0. 0.
 0. 0. 0. 0.
 0. 0. 0. 0.
 0. 0. 0. 0.
 0. 0. 0. 0.
 0. 0. 0. 0.
 0. 0. 0. 0.
 0. 0. 0. 0.
 0. 0. 0. 0.
 0. 0. 0. 0.
 0. 0. 0. 0.
 0. 0. 0. 0.
 0. 0. 0. 0.
 0. 0. 0. 0.
 0. 0. 0. 0.
 0. 0. 0. 0.
 0. 0. 0. 0.
 0. 0. 0. 0.
 0. 0. 0. 0.
 0. 0. 0. 0.
 0. 0. 0. 0.
 0. 0. 0. 0.
 0. 0. 0. 0.
 0. 0. 0. 0.
 0. 0. 0. 0.
   </PP_BETA.5>
   <PP_BETA.6
       type="real"
       size="1220"
       columns="4"
       index="6"
       angular_momentum="1"
       cutoff_radius_index=" 216"
       cutoff_radius="    2.1500000000E+00" >
   -1.4866154141E-10   -5.2985224259E-04   -2.1170452210E-03   -4.7544984041E-03
   -8.4304465487E-03   -1.3128492876E-02   -1.8827682948E-02   -2.5502598688E-02
   -3.3123471827E-02   -4.1656315934E-02   -5.1063076048E-02   -6.1301794807E-02
   -7.2326793886E-02   -8.4088869434E-02   -9.6535500140E-02   -1.0961106651E-01
   -1.2325707987E-01   -1.3741241958E-01   -1.5201357701E-01   -1.6699490462E-01
   -1.8228886890E-01   -1.9782630547E-01   -2.1353667514E-01   -2.2934831950E-01
   -2.4518871482E-01   -2.6098472311E-01   -2.7666283935E-01   -2.9214943376E-01
   -3.0737098847E-01   -3.2225432786E-01   -3.3672684179E-01   -3.5071670150E-01
   -3.6415306768E-01   -3.7696629053E-01   -3.8908810166E-01   -4.0045179792E-01
   -4.1099241712E-01   -4.2064690589E-01   -4.2935427995E-01   -4.3705577707E-01
   -4.4369500314E-01   -4.4921807173E-01   -4.5357373757E-01   -4.5671352445E-01
   -4.5859184795E-01   -4.5916613341E-01   -4.5839692960E-01   -4.5624801831E-01
   -4.5268652031E-01   -4.4768299781E-01   -4.4121155349E-01   -4.3324992630E-01
   -4.2377958392E-01   -4.1278581164E-01   -4.0025779758E-01   -3.8618871378E-01
   -3.7057579271E-01   -3.5342039870E-01   -3.3472809353E-01   -3.1450869554E-01
   -2.9277633134E-01   -2.6954947928E-01   -2.4485100367E-01   -2.1870817871E-01
   -1.9115270122E-01   -1.6222069095E-01   -1.3195267749E-01   -1.0039357277E-01
   -6.7592628065E-02   -3.3603374657E-02    1.5164528099E-03    3.7705011007E-02
    7.4896461314E-02    1.1302110249E-01    1.5200552300E-01    1.9177277331E-01
    2.3224255812E-01    2.7333144861E-01    3.1495311422E-01    3.5701857376E-01
    3.9943646483E-01    4.4211333110E-01    4.8495392601E-01    5.2786153191E-01
    5.7073829309E-01    6.1348556106E-01    6.5600425036E-01    6.9819520297E-01
    7.3995955914E-01    7.8119913258E-01    8.2181678761E-01    8.6171681600E-01
    9.0080531087E-01    9.3899053548E-01    9.7618328409E-01    1.0122972328E+00
    1.0472492775E+00    1.0809598573E+00    1.1133532600E+00    1.1443579089E+00
    1.1739066279E+00    1.2019368836E+00    1.2283910018E+00    1.2532163591E+00
    1.2763655454E+00    1.2977964993E+00    1.3174726127E+00    1.3353628074E+00
    1.3514415799E+00    1.3656890173E+00    1.3780907837E+00    1.3886380760E+00
    1.3973275531E+00    1.4041612368E+00    1.4091463866E+00    1.4122953505E+00
    1.4136253928E+00    1.4131585007E+00    1.4109211722E+00    1.4069441877E+00
    1.4012623665E+00    1.3939143116E+00    1.3849421455E+00    1.3743912375E+00
    1.3623099285E+00    1.3487492513E+00    1.3337626532E+00    1.3174057199E+00
    1.2997359047E+00    1.2808122645E+00    1.2606952048E+00    1.2394462351E+00
    1.2171277364E+00    1.1938027424E+00    1.1695347356E+00    1.1443874584E+00
    1.1184247407E+00    1.0917103449E+00    1.0643078266E+00    1.0362804131E+00
    1.0076908982E+00    9.7860155281E-01    9.4907405114E-01    9.1916941152E-01
    8.8894795011E-01    8.5846924697E-01    8.2779212260E-01    7.9697462359E-01
    7.6607401583E-01    7.3514678326E-01    7.0424863080E-01    6.7343448934E-01
    6.4275852127E-01    6.1227412461E-01    5.8203393429E-01    5.5208981872E-01
    5.2249287046E-01    4.9329338933E-01    4.6454085705E-01    4.3628390213E-01
    4.0857025430E-01    3.8144668775E-01    3.5495895276E-01    3.2915169547E-01
    3.0406836573E-01    2.7975111323E-01    2.5624067238E-01    2.3357623642E-01
    2.1179532170E-01    1.9093362307E-01    1.7102486151E-01    1.5210062547E-01
    1.3419020727E-01    1.1732043625E-01    1.0151551026E-01    8.6796793630E-02
    7.3182935933E-02    6.0688792776E-02    4.9328421290E-02    3.9150963799E-02
    3.0187851142E-02    2.2418522141E-02    1.5828134950E-02    1.0402058958E-02
    6.1271384656E-03    2.9914696626E-03    9.7807489450E-04    1.3343467458E-04
   -8.3729247407E-06    5.2127932072E-06   -6.7157837421E-07   -1.0759617843E-07
    0.0000000000E+00    0.0000000000E+00    0.0000000000E+00    0.0000000000E+00
    0.0000000000E+00    0.0000000000E+00    0.0000000000E+00    0.0000000000E+00
    0.0000000000E+00    0.0000000000E+00    0.0000000000E+00    0.0000000000E+00
    0.0000000000E+00    0.0000000000E+00    0.0000000000E+00    0.0000000000E+00
    0.0000000000E+00    0.0000000000E+00    0.0000000000E+00    0.0000000000E+00
    0.0000000000E+00    0.0000000000E+00    0.0000000000E+00    0.0000000000E+00
 0. 0. 0. 0.
 0. 0. 0. 0.
 0. 0. 0. 0.
 0. 0. 0. 0.
 0. 0. 0. 0.
 0. 0. 0. 0.
 0. 0. 0. 0.
 0. 0. 0. 0.
 0. 0. 0. 0.
 0. 0. 0. 0.
 0. 0. 0. 0.
 0. 0. 0. 0.
 0. 0. 0. 0.
 0. 0. 0. 0.
 0. 0. 0. 0.
 0. 0. 0. 0.
 0. 0. 0. 0.
 0. 0. 0. 0.
 0. 0. 0. 0.
 0. 0. 0. 0.
 0. 0. 0. 0.
 0. 0. 0. 0.
 0. 0. 0. 0.
 0. 0. 0. 0.
 0. 0. 0. 0.
 0. 0. 0. 0.
 0. 0. 0. 0.
 0. 0. 0. 0.
 0. 0. 0. 0.
 0. 0. 0. 0.
 0. 0. 0. 0.
 0. 0. 0. 0.
 0. 0. 0. 0.
 0. 0. 0. 0.
 0. 0. 0. 0.
 0. 0. 0. 0.
 0. 0. 0. 0.
 0. 0. 0. 0.
 0. 0. 0. 0.
 0. 0. 0. 0.
 0. 0. 0. 0.
 0. 0. 0. 0.
 0. 0. 0. 0.
 0. 0. 0. 0.
 0. 0. 0. 0.
 0. 0. 0. 0.
 0. 0. 0. 0.
 0. 0. 0. 0.
 0. 0. 0. 0.
 0. 0. 0. 0.
 0. 0. 0. 0.
 0. 0. 0. 0.
 0. 0. 0. 0.
 0. 0. 0. 0.
 0. 0. 0. 0.
 0. 0. 0. 0.
 0. 0. 0. 0.
 0. 0. 0. 0.
 0. 0. 0. 0.
 0. 0. 0. 0.
 0. 0. 0. 0.
 0. 0. 0. 0.
 0. 0. 0. 0.
 0. 0. 0. 0.
 0. 0. 0. 0.
 0. 0. 0. 0.
 0. 0. 0. 0.
 0. 0. 0. 0.
 0. 0. 0. 0.
 0. 0. 0. 0.
 0. 0. 0. 0.
 0. 0. 0. 0.
 0. 0. 0. 0.
 0. 0. 0. 0.
 0. 0. 0. 0.
 0. 0. 0. 0.
 0. 0. 0. 0.
 0. 0. 0. 0.
 0. 0. 0. 0.
 0. 0. 0. 0.
 0. 0. 0. 0.
 0. 0. 0. 0.
 0. 0. 0. 0.
 0. 0. 0. 0.
 0. 0. 0. 0.
 0. 0. 0. 0.
 0. 0. 0. 0.
 0. 0. 0. 0.
 0. 0. 0. 0.
 0. 0. 0. 0.
 0. 0. 0. 0.
 0. 0. 0. 0.
 0. 0. 0. 0.
 0. 0. 0. 0.
 0. 0. 0. 0.
 0. 0. 0. 0.
 0. 0. 0. 0.
 0. 0. 0. 0.
 0. 0. 0. 0.
 0. 0. 0. 0.
 0. 0. 0. 0.
 0. 0. 0. 0.
 0. 0. 0. 0.
 0. 0. 0. 0.
 0. 0. 0. 0.
 0. 0. 0. 0.
 0. 0. 0. 0.
 0. 0. 0. 0.
 0. 0. 0. 0.
 0. 0. 0. 0.
 0. 0. 0. 0.
 0. 0. 0. 0.
 0. 0. 0. 0.
 0. 0. 0. 0.
 0. 0. 0. 0.
 0. 0. 0. 0.
 0. 0. 0. 0.
 0. 0. 0. 0.
 0. 0. 0. 0.
 0. 0. 0. 0.
 0. 0. 0. 0.
 0. 0. 0. 0.
 0. 0. 0. 0.
 0. 0. 0. 0.
 0. 0. 0. 0.
 0. 0. 0. 0.
 0. 0. 0. 0.
 0. 0. 0. 0.
 0. 0. 0. 0.
 0. 0. 0. 0.
 0. 0. 0. 0.
 0. 0. 0. 0.
 0. 0. 0. 0.
 0. 0. 0. 0.
 0. 0. 0. 0.
 0. 0. 0. 0.
 0. 0. 0. 0.
 0. 0. 0. 0.
 0. 0. 0. 0.
 0. 0. 0. 0.
 0. 0. 0. 0.
 0. 0. 0. 0.
 0. 0. 0. 0.
 0. 0. 0. 0.
 0. 0. 0. 0.
 0. 0. 0. 0.
 0. 0. 0. 0.
 0. 0. 0. 0.
 0. 0. 0. 0.
 0. 0. 0. 0.
 0. 0. 0. 0.
 0. 0. 0. 0.
 0. 0. 0. 0.
 0. 0. 0. 0.
 0. 0. 0. 0.
 0. 0. 0. 0.
 0. 0. 0. 0.
 0. 0. 0. 0.
 0. 0. 0. 0.
 0. 0. 0. 0.
 0. 0. 0. 0.
 0. 0. 0. 0.
 0. 0. 0. 0.
 0. 0. 0. 0.
 0. 0. 0. 0.
 0. 0. 0. 0.
 0. 0. 0. 0.
 0. 0. 0. 0.
 0. 0. 0. 0.
 0. 0. 0. 0.
 0. 0. 0. 0.
 0. 0. 0. 0.
 0. 0. 0. 0.
 0. 0. 0. 0.
 0. 0. 0. 0.
 0. 0. 0. 0.
 0. 0. 0. 0.
 0. 0. 0. 0.
 0. 0. 0. 0.
 0. 0. 0. 0.
 0. 0. 0. 0.
 0. 0. 0. 0.
 0. 0. 0. 0.
 0. 0. 0. 0.
 0. 0. 0. 0.
 0. 0. 0. 0.
 0. 0. 0. 0.
 0. 0. 0. 0.
 0. 0. 0. 0.
 0. 0. 0. 0.
 0. 0. 0. 0.
 0. 0. 0. 0.
 0. 0. 0. 0.
 0. 0. 0. 0.
 0. 0. 0. 0.
 0. 0. 0. 0.
 0. 0. 0. 0.
 0. 0. 0. 0.
 0. 0. 0. 0.
 0. 0. 0. 0.
 0. 0. 0. 0.
 0. 0. 0. 0.
 0. 0. 0. 0.
 0. 0. 0. 0.
 0. 0. 0. 0.
 0. 0. 0. 0.
 0. 0. 0. 0.
 0. 0. 0. 0.
 0. 0. 0. 0.
 0. 0. 0. 0.
 0. 0. 0. 0.
 0. 0. 0. 0.
 0. 0. 0. 0.
 0. 0. 0. 0.
 0. 0. 0. 0.
 0. 0. 0. 0.
 0. 0. 0. 0.
 0. 0. 0. 0.
 0. 0. 0. 0.
 0. 0. 0. 0.
 0. 0. 0. 0.
 0. 0. 0. 0.
 0. 0. 0. 0.
 0. 0. 0. 0.
 0. 0. 0. 0.
 0. 0. 0. 0.
 0. 0. 0. 0.
 0. 0. 0. 0.
 0. 0. 0. 0.
 0. 0. 0. 0.
 0. 0. 0. 0.
 0. 0. 0. 0.
 0. 0. 0. 0.
 0. 0. 0. 0.
 0. 0. 0. 0.
 0. 0. 0. 0.
 0. 0. 0. 0.
 0. 0. 0. 0.
 0. 0. 0. 0.
 0. 0. 0. 0.
 0. 0. 0. 0.
 0. 0. 0. 0.
 0. 0. 0. 0.
 0. 0. 0. 0.
 0. 0. 0. 0.
 0. 0. 0. 0.
 0. 0. 0. 0.
 0. 0. 0. 0.
 0. 0. 0. 0.
 0. 0. 0. 0.
 0. 0. 0. 0.
   </PP_BETA.6>
   <PP_BETA.7
       type="real"
       size="1220"
       columns="4"
       index="7"
       angular_momentum="2"
       cutoff_radius_index=" 216"
       cutoff_radius="    2.1500000000E+00" >
    1.9933393824E-10    1.5329225765E-05    1.2253116027E-04    4.1296614605E-04
    9.7697380893E-04    1.9033726872E-03    3.2789717010E-03    5.1880971713E-03
    7.7121388957E-03    1.0929118550E-02    1.4913283394E-02    1.9734727957E-02
    2.5459046000E-02    3.2147014726E-02    3.9854312765E-02    4.8631273096E-02
    5.8522671651E-02    6.9567551909E-02    8.1799085435E-02    9.5244467881E-02
    1.0992484963E-01    1.2585529990E-01    1.4304480282E-01    1.6149628372E-01
    1.8120666358E-01    2.0216693951E-01    2.2436228874E-01    2.4777219387E-01
    2.7237058660E-01    2.9812600759E-01    3.2500177977E-01    3.5295619278E-01
    3.8194269620E-01    4.1191009927E-01    4.4280277536E-01    4.7456086928E-01
    5.0712050603E-01    5.4041399969E-01    5.7437006167E-01    6.0891400754E-01
    6.4396796226E-01    6.7945106364E-01    7.1527966440E-01    7.5136753336E-01
    7.8762605639E-01    8.2396443833E-01    8.6028990691E-01    8.9650792008E-01
    9.3252237815E-01    9.6823584233E-01    1.0035497611E+00    1.0383647060E+00
    1.0725806184E+00    1.1060970682E+00    1.1388135260E+00    1.1706296494E+00
    1.2014455848E+00    1.2311622834E+00    1.2596818345E+00    1.2869078120E+00
    1.3127456371E+00    1.3371029539E+00    1.3598900176E+00    1.3810200930E+00
    1.4004098612E+00    1.4179798329E+00    1.4336547640E+00    1.4473640715E+00
    1.4590422454E+00    1.4686292541E+00    1.4760709379E+00    1.4813193876E+00
    1.4843333042E+00    1.4850783347E+00    1.4835273806E+00    1.4796608751E+00
    1.4734670244E+00    1.4649420108E+00    1.4540901525E+00    1.4409240188E+00
    1.4254644973E+00    1.4077408099E+00    1.3877904787E+00    1.3656592371E+00
    1.3414008886E+00    1.3150771111E+00    1.2867572086E+00    1.2565178106E+00
    1.2244425218E+00    1.1906215231E+00    1.1551511288E+00    1.1181333016E+00
    1.0796751302E+00    1.0398882739E+00    9.9888837896E-01    9.5679447195E-01
    9.1372833511E-01    8.6981387008E-01    8.2517645523E-01    7.7994230275E-01
    7.3423782129E-01    6.8818898980E-01    6.4192074837E-01    5.9555641121E-01
    5.4921710704E-01    5.0302125122E-01    4.5708405422E-01    4.1151706980E-01
    3.6642778622E-01    3.2191926311E-01    2.7808981570E-01    2.3503274804E-01
    1.9283613556E-01    1.5158265713E-01    1.1134947586E-01    7.2208167453E-02
    3.4224693991E-02   -2.5405791151E-03   -3.8032826174E-02   -7.2202667683E-02
   -1.0500604415E-01   -1.3640406150E-01   -1.6636281260E-01   -1.9485317961E-01
   -2.2185062199E-01   -2.4733495511E-01   -2.7129012411E-01   -2.9370397792E-01
   -3.1456804776E-01   -3.3387733441E-01   -3.5163010807E-01   -3.6782772425E-01
   -3.8247445863E-01   -3.9557736333E-01   -4.0714614648E-01   -4.1719307625E-01
   -4.2573291013E-01   -4.3278284934E-01   -4.3836251780E-01   -4.4249396447E-01
   -4.4520168716E-01   -4.4651267537E-01   -4.4645646941E-01   -4.4506523223E-01
   -4.4237383025E-01   -4.3841991902E-01   -4.3324402935E-01   -4.2688964928E-01
   -4.1940329724E-01   -4.1083458166E-01   -4.0123624245E-01   -3.9066416990E-01
   -3.7917739675E-01   -3.6683805971E-01   -3.5371132682E-01   -3.3986528782E-01
   -3.2537080517E-01   -3.1030132387E-01   -2.9473263910E-01   -2.7874262127E-01
   -2.6241089877E-01   -2.4581849972E-01   -2.2904745440E-01   -2.1218036119E-01
   -1.9529991924E-01   -1.7848843202E-01   -1.6182728648E-01   -1.4539641313E-01
   -1.2927373283E-01   -1.1353459683E-01   -9.8251226430E-02   -8.3492159567E-02
   -6.9321711194E-02   -5.5799454882E-02   -4.2979732740E-02   -3.0911200767E-02
   -1.9636416435E-02   -9.1914742198E-03    3.9430056734E-04    9.0986333483E-03
    1.6906549822E-02    2.3810525868E-02    2.9810532585E-02    3.4914010494E-02
    3.9135766817E-02    4.2497796109E-02    4.5029024698E-02    4.6764980377E-02
    4.7747389801E-02    4.8023706998E-02    4.7646577368E-02    4.6673242437E-02
    4.5164891473E-02    4.3185966858E-02    4.0803430783E-02    3.8086001461E-02
    3.5103367516E-02    3.1925389358E-02    2.8621299444E-02    2.5258900790E-02
    2.1903794659E-02    1.8618686625E-02    1.5462830271E-02    1.2490797990E-02
    9.7520359705E-03    7.2904970811E-03    5.1440939628E-03    3.3442765736E-03
    1.9163862882E-03    8.7248783638E-04    2.3908991590E-04    2.1836621078E-06
   -1.0960231659E-05    5.2340501862E-06   -8.0184401253E-07    3.3685932417E-09
 0. 0. 0. 0.
 0. 0. 0. 0.
 0. 0. 0. 0.
 0. 0. 0. 0.
 0. 0. 0. 0.
 0. 0. 0. 0.
 0. 0. 0. 0.
 0. 0. 0. 0.
 0. 0. 0. 0.
 0. 0. 0. 0.
 0. 0. 0. 0.
 0. 0. 0. 0.
 0. 0. 0. 0.
 0. 0. 0. 0.
 0. 0. 0. 0.
 0. 0. 0. 0.
 0. 0. 0. 0.
 0. 0. 0. 0.
 0. 0. 0. 0.
 0. 0. 0. 0.
 0. 0. 0. 0.
 0. 0. 0. 0.
 0. 0. 0. 0.
 0. 0. 0. 0.
 0. 0. 0. 0.
 0. 0. 0. 0.
 0. 0. 0. 0.
 0. 0. 0. 0.
 0. 0. 0. 0.
 0. 0. 0. 0.
 0. 0. 0. 0.
 0. 0. 0. 0.
 0. 0. 0. 0.
 0. 0. 0. 0.
 0. 0. 0. 0.
 0. 0. 0. 0.
 0. 0. 0. 0.
 0. 0. 0. 0.
 0. 0. 0. 0.
 0. 0. 0. 0.
 0. 0. 0. 0.
 0. 0. 0. 0.
 0. 0. 0. 0.
 0. 0. 0. 0.
 0. 0. 0. 0.
 0. 0. 0. 0.
 0. 0. 0. 0.
 0. 0. 0. 0.
 0. 0. 0. 0.
 0. 0. 0. 0.
 0. 0. 0. 0.
 0. 0. 0. 0.
 0. 0. 0. 0.
 0. 0. 0. 0.
 0. 0. 0. 0.
 0. 0. 0. 0.
 0. 0. 0. 0.
 0. 0. 0. 0.
 0. 0. 0. 0.
 0. 0. 0. 0.
 0. 0. 0. 0.
 0. 0. 0. 0.
 0. 0. 0. 0.
 0. 0. 0. 0.
 0. 0. 0. 0.
 0. 0. 0. 0.
 0. 0. 0. 0.
 0. 0. 0. 0.
 0. 0. 0. 0.
 0. 0. 0. 0.
 0. 0. 0. 0.
 0. 0. 0. 0.
 0. 0. 0. 0.
 0. 0. 0. 0.
 0. 0. 0. 0.
 0. 0. 0. 0.
 0. 0. 0. 0.
 0. 0. 0. 0.
 0. 0. 0. 0.
 0. 0. 0. 0.
 0. 0. 0. 0.
 0. 0. 0. 0.
 0. 0. 0. 0.
 0. 0. 0. 0.
 0. 0. 0. 0.
 0. 0. 0. 0.
 0. 0. 0. 0.
 0. 0. 0. 0.
 0. 0. 0. 0.
 0. 0. 0. 0.
 0. 0. 0. 0.
 0. 0. 0. 0.
 0. 0. 0. 0.
 0. 0. 0. 0.
 0. 0. 0. 0.
 0. 0. 0. 0.
 0. 0. 0. 0.
 0. 0. 0. 0.
 0. 0. 0. 0.
 0. 0. 0. 0.
 0. 0. 0. 0.
 0. 0. 0. 0.
 0. 0. 0. 0.
 0. 0. 0. 0.
 0. 0. 0. 0.
 0. 0. 0. 0.
 0. 0. 0. 0.
 0. 0. 0. 0.
 0. 0. 0. 0.
 0. 0. 0. 0.
 0. 0. 0. 0.
 0. 0. 0. 0.
 0. 0. 0. 0.
 0. 0. 0. 0.
 0. 0. 0. 0.
 0. 0. 0. 0.
 0. 0. 0. 0.
 0. 0. 0. 0.
 0. 0. 0. 0.
 0. 0. 0. 0.
 0. 0. 0. 0.
 0. 0. 0. 0.
 0. 0. 0. 0.
 0. 0. 0. 0.
 0. 0. 0. 0.
 0. 0. 0. 0.
 0. 0. 0. 0.
 0. 0. 0. 0.
 0. 0. 0. 0.
 0. 0. 0. 0.
 0. 0. 0. 0.
 0. 0. 0. 0.
 0. 0. 0. 0.
 0. 0. 0. 0.
 0. 0. 0. 0.
 0. 0. 0. 0.
 0. 0. 0. 0.
 0. 0. 0. 0.
 0. 0. 0. 0.
 0. 0. 0. 0.
 0. 0. 0. 0.
 0. 0. 0. 0.
 0. 0. 0. 0.
 0. 0. 0. 0.
 0. 0. 0. 0.
 0. 0. 0. 0.
 0. 0. 0. 0.
 0. 0. 0. 0.
 0. 0. 0. 0.
 0. 0. 0. 0.
 0. 0. 0. 0.
 0. 0. 0. 0.
 0. 0. 0. 0.
 0. 0. 0. 0.
 0. 0. 0. 0.
 0. 0. 0. 0.
 0. 0. 0. 0.
 0. 0. 0. 0.
 0. 0. 0. 0.
 0. 0. 0. 0.
 0. 0. 0. 0.
 0. 0. 0. 0.
 0. 0. 0. 0.
 0. 0. 0. 0.
 0. 0. 0. 0.
 0. 0. 0. 0.
 0. 0. 0. 0.
 0. 0. 0. 0.
 0. 0. 0. 0.
 0. 0. 0. 0.
 0. 0. 0. 0.
 0. 0. 0. 0.
 0. 0. 0. 0.
 0. 0. 0. 0.
 0. 0. 0. 0.
 0. 0. 0. 0.
 0. 0. 0. 0.
 0. 0. 0. 0.
 0. 0. 0. 0.
 0. 0. 0. 0.
 0. 0. 0. 0.
 0. 0. 0. 0.
 0. 0. 0. 0.
 0. 0. 0. 0.
 0. 0. 0. 0.
 0. 0. 0. 0.
 0. 0. 0. 0.
 0. 0. 0. 0.
 0. 0. 0. 0.
 0. 0. 0. 0.
 0. 0. 0. 0.
 0. 0. 0. 0.
 0. 0. 0. 0.
 0. 0. 0. 0.
 0. 0. 0. 0.
 0. 0. 0. 0.
 0. 0. 0. 0.
 0. 0. 0. 0.
 0. 0. 0. 0.
 0. 0. 0. 0.
 0. 0. 0. 0.
 0. 0. 0. 0.
 0. 0. 0. 0.
 0. 0. 0. 0.
 0. 0. 0. 0.
 0. 0. 0. 0.
 0. 0. 0. 0.
 0. 0. 0. 0.
 0. 0. 0. 0.
 0. 0. 0. 0.
 0. 0. 0. 0.
 0. 0. 0. 0.
 0. 0. 0. 0.
 0. 0. 0. 0.
 0. 0. 0. 0.
 0. 0. 0. 0.
 0. 0. 0. 0.
 0. 0. 0. 0.
 0. 0. 0. 0.
 0. 0. 0. 0.
 0. 0. 0. 0.
 0. 0. 0. 0.
 0. 0. 0. 0.
 0. 0. 0. 0.
 0. 0. 0. 0.
 0. 0. 0. 0.
 0. 0. 0. 0.
 0. 0. 0. 0.
 0. 0. 0. 0.
 0. 0. 0. 0.
 0. 0. 0. 0.
 0. 0. 0. 0.
 0. 0. 0. 0.
 0. 0. 0. 0.
 0. 0. 0. 0.
 0. 0. 0. 0.
 0. 0. 0. 0.
 0. 0. 0. 0.
 0. 0. 0. 0.
 0. 0. 0. 0.
 0. 0. 0. 0.
 0. 0. 0. 0.
 0. 0. 0. 0.
 0. 0. 0. 0.
 0. 0. 0. 0.
 0. 0. 0. 0.
 0. 0. 0. 0.
 0. 0. 0. 0.
 0. 0. 0. 0.
 0. 0. 0. 0.
 0. 0. 0. 0.
   </PP_BETA.7>
   <PP_BETA.8
       type="real"
       size="1220"
       columns="4"
       index="8"
       angular_momentum="2"
       cutoff_radius_index=" 216"
       cutoff_radius="    2.1500000000E+00" >
    1.9945536889E-10    1.5336363730E-05    1.2258819561E-04    4.1315825625E-04
    9.7742790960E-04    1.9042564188E-03    3.2804920907E-03    5.1904989791E-03
    7.7157026600E-03    1.0934158345E-02    1.4920144321E-02    1.9743783377E-02
    2.5470694548E-02    3.2161677107E-02    3.9872428373E-02    4.8653296470E-02
    5.8549068791E-02    6.9598796490E-02    8.1835654929E-02    9.5286839622E-02
    1.0997349684E-01    1.2591068771E-01    1.4310738431E-01    1.6156649596E-01
    1.8128492376E-01    2.0225364113E-01    2.2445779791E-01    2.4787684570E-01
    2.7248468170E-01    2.9824980876E-01    3.2513550880E-01    3.5310002743E-01
    3.8209676731E-01    4.1207448810E-01    4.4297751110E-01    4.7474592672E-01
    5.0731580342E-01    5.4061939684E-01    5.7458535819E-01    6.0913894132E-01
    6.4420220812E-01    6.7969423217E-01    7.1553130104E-01    7.5162711762E-01
    7.8789300133E-01    8.2423809021E-01    8.6056954502E-01    8.9679275684E-01
    9.3281155935E-01    9.6852844765E-01    1.0038448048E+00    1.0386611378E+00
    1.0728773248E+00    1.1063928736E+00    1.1391071945E+00    1.1709198870E+00
    1.2017310408E+00    1.2314415538E+00    1.2599534639E+00    1.2871702969E+00
    1.3129974293E+00    1.3373424639E+00    1.3601156186E+00    1.3812301250E+00
    1.4006026356E+00    1.4181536373E+00    1.4338078673E+00    1.4474947292E+00
    1.4591487056E+00    1.4687097632E+00    1.4761237468E+00    1.4813427587E+00
    1.4843255174E+00    1.4850376949E+00    1.4834522245E+00    1.4795495785E+00
    1.4733180096E+00    1.4647537538E+00    1.4538611906E+00    1.4406529581E+00
    1.4251500196E+00    1.4073816805E+00    1.3873855531E+00    1.3652074679E+00
    1.3409013322E+00    1.3145289339E+00    1.2861596928E+00    1.2558703601E+00
    1.2237446666E+00    1.1898729244E+00    1.1543515828E+00    1.1172827427E+00
    1.0787736339E+00    1.0389360591E+00    9.9788580899E-01    9.5574205554E-01
    9.1262672631E-01    8.6866386750E-01    8.2397900056E-01    7.7869847857E-01
    7.3294884808E-01    6.8685622231E-01    6.4054567127E-01    5.9414063410E-01
    5.4776235877E-01    5.0152937371E-01    4.5555699564E-01    4.0995687732E-01
    3.6483659832E-01    3.2029930144E-01    2.7644337669E-01    2.3336219421E-01
    1.9114388663E-01    1.4987118101E-01    1.0962127961E-01    7.0465788179E-02
    3.2470689850E-02   -4.3036377873E-03   -3.9802365547E-02   -7.3976118878E-02
   -1.0678085138E-01   -1.3817768987E-01   -1.6813275551E-01   -1.9661696577E-01
   -2.2360582195E-01   -2.4907918729E-01   -2.7302106042E-01   -2.9541934879E-01
   -3.1626564671E-01   -3.3555502212E-01   -3.5328581591E-01   -3.6945945741E-01
   -3.8408029871E-01   -3.9715547059E-01   -4.0869476160E-01   -4.1871052184E-01
   -4.2721759182E-01   -4.3423325665E-01   -4.3977722481E-01   -4.4387163023E-01
   -4.4654105600E-01   -4.4781257714E-01   -4.4771581965E-01   -4.4628303232E-01
   -4.4354916761E-01   -4.3955196738E-01   -4.3433204911E-01   -4.2793298799E-01
   -4.2040139021E-01   -4.1178695273E-01   -4.0214250492E-01   -3.9152402758E-01
   -3.7999064522E-01   -3.6760458763E-01   -3.5443111739E-01   -3.4053842029E-01
   -3.2599745641E-01   -3.1088176990E-01   -2.9526725659E-01   -2.7923188888E-01
   -2.6285539840E-01   -2.4621891747E-01   -2.2940458126E-01   -2.1249509336E-01
   -1.9557325805E-01   -1.7872148338E-01   -1.6202125976E-01   -1.4555261946E-01
   -1.2939358278E-01   -1.1361959736E-01   -9.8302977171E-02   -8.3512348297E-02
   -6.9312108578E-02   -5.5761908420E-02   -4.2916159944E-02   -3.0823581569E-02
   -1.9526784867E-02   -9.0619093745E-03    5.4168418161E-04    9.2616964497E-03
    1.7083140347E-02    2.3998491867E-02    3.0007735526E-02    3.5118338904E-02
    3.9345150160E-02    4.2710218744E-02    4.5242539809E-02    4.6977723731E-02
    4.7957593181E-02    4.8229711182E-02    4.7846844497E-02    4.6866367626E-02
    4.5349613530E-02    4.3361177962E-02    4.0968184990E-02    3.8239521918E-02
    3.5245052255E-02    3.2054815577E-02    2.8738226205E-02    2.5363269926E-02
    2.1995730076E-02    1.8698492886E-02    1.5530992366E-02    1.2547969362E-02
    9.7990279062E-03    7.3282698722E-03    5.1737455066E-03    3.3670294008E-03
    1.9335967960E-03    8.8536928856E-04    2.4979628208E-04    1.1860210836E-05
   -8.5122023347E-06    4.3164457843E-06   -6.2427899982E-07   -2.2782850085E-09
 0. 0. 0. 0.
 0. 0. 0. 0.
 0. 0. 0. 0.
 0. 0. 0. 0.
 0. 0. 0. 0.
 0. 0. 0. 0.
 0. 0. 0. 0.
 0. 0. 0. 0.
 0. 0. 0. 0.
 0. 0. 0. 0.
 0. 0. 0. 0.
 0. 0. 0. 0.
 0. 0. 0. 0.
 0. 0. 0. 0.
 0. 0. 0. 0.
 0. 0. 0. 0.
 0. 0. 0. 0.
 0. 0. 0. 0.
 0. 0. 0. 0.
 0. 0. 0. 0.
 0. 0. 0. 0.
 0. 0. 0. 0.
 0. 0. 0. 0.
 0. 0. 0. 0.
 0. 0. 0. 0.
 0. 0. 0. 0.
 0. 0. 0. 0.
 0. 0. 0. 0.
 0. 0. 0. 0.
 0. 0. 0. 0.
 0. 0. 0. 0.
 0. 0. 0. 0.
 0. 0. 0. 0.
 0. 0. 0. 0.
 0. 0. 0. 0.
 0. 0. 0. 0.
 0. 0. 0. 0.
 0. 0. 0. 0.
 0. 0. 0. 0.
 0. 0. 0. 0.
 0. 0. 0. 0.
 0. 0. 0. 0.
 0. 0. 0. 0.
 0. 0. 0. 0.
 0. 0. 0. 0.
 0. 0. 0. 0.
 0. 0. 0. 0.
 0. 0. 0. 0.
 0. 0. 0. 0.
 0. 0. 0. 0.
 0. 0. 0. 0.
 0. 0. 0. 0.
 0. 0. 0. 0.
 0. 0. 0. 0.
 0. 0. 0. 0.
 0. 0. 0. 0.
 0. 0. 0. 0.
 0. 0. 0. 0.
 0. 0. 0. 0.
 0. 0. 0. 0.
 0. 0. 0. 0.
 0. 0. 0. 0.
 0. 0. 0. 0.
 0. 0. 0. 0.
 0. 0. 0. 0.
 0. 0. 0. 0.
 0. 0. 0. 0.
 0. 0. 0. 0.
 0. 0. 0. 0.
 0. 0. 0. 0.
 0. 0. 0. 0.
 0. 0. 0. 0.
 0. 0. 0. 0.
 0. 0. 0. 0.
 0. 0. 0. 0.
 0. 0. 0. 0.
 0. 0. 0. 0.
 0. 0. 0. 0.
 0. 0. 0. 0.
 0. 0. 0. 0.
 0. 0. 0. 0.
 0. 0. 0. 0.
 0. 0. 0. 0.
 0. 0. 0. 0.
 0. 0. 0. 0.
 0. 0. 0. 0.
 0. 0. 0. 0.
 0. 0. 0. 0.
 0. 0. 0. 0.
 0. 0. 0. 0.
 0. 0. 0. 0.
 0. 0. 0. 0.
 0. 0. 0. 0.
 0. 0. 0. 0.
 0. 0. 0. 0.
 0. 0. 0. 0.
 0. 0. 0. 0.
 0. 0. 0. 0.
 0. 0. 0. 0.
 0. 0. 0. 0.
 0. 0. 0. 0.
 0. 0. 0. 0.
 0. 0. 0. 0.
 0. 0. 0. 0.
 0. 0. 0. 0.
 0. 0. 0. 0.
 0. 0. 0. 0.
 0. 0. 0. 0.
 0. 0. 0. 0.
 0. 0. 0. 0.
 0. 0. 0. 0.
 0. 0. 0. 0.
 0. 0. 0. 0.
 0. 0. 0. 0.
 0. 0. 0. 0.
 0. 0. 0. 0.
 0. 0. 0. 0.
 0. 0. 0. 0.
 0. 0. 0. 0.
 0. 0. 0. 0.
 0. 0. 0. 0.
 0. 0. 0. 0.
 0. 0. 0. 0.
 0. 0. 0. 0.
 0. 0. 0. 0.
 0. 0. 0. 0.
 0. 0. 0. 0.
 0. 0. 0. 0.
 0. 0. 0. 0.
 0. 0. 0. 0.
 0. 0. 0. 0.
 0. 0. 0. 0.
 0. 0. 0. 0.
 0. 0. 0. 0.
 0. 0. 0. 0.
 0. 0. 0. 0.
 0. 0. 0. 0.
 0. 0. 0. 0.
 0. 0. 0. 0.
 0. 0. 0. 0.
 0. 0. 0. 0.
 0. 0. 0. 0.
 0. 0. 0. 0.
 0. 0. 0. 0.
 0. 0. 0. 0.
 0. 0. 0. 0.
 0. 0. 0. 0.
 0. 0. 0. 0.
 0. 0. 0. 0.
 0. 0. 0. 0.
 0. 0. 0. 0.
 0. 0. 0. 0.
 0. 0. 0. 0.
 0. 0. 0. 0.
 0. 0. 0. 0.
 0. 0. 0. 0.
 0. 0. 0. 0.
 0. 0. 0. 0.
 0. 0. 0. 0.
 0. 0. 0. 0.
 0. 0. 0. 0.
 0. 0. 0. 0.
 0. 0. 0. 0.
 0. 0. 0. 0.
 0. 0. 0. 0.
 0. 0. 0. 0.
 0. 0. 0. 0.
 0. 0. 0. 0.
 0. 0. 0. 0.
 0. 0. 0. 0.
 0. 0. 0. 0.
 0. 0. 0. 0.
 0. 0. 0. 0.
 0. 0. 0. 0.
 0. 0. 0. 0.
 0. 0. 0. 0.
 0. 0. 0. 0.
 0. 0. 0. 0.
 0. 0. 0. 0.
 0. 0. 0. 0.
 0. 0. 0. 0.
 0. 0. 0. 0.
 0. 0. 0. 0.
 0. 0. 0. 0.
 0. 0. 0. 0.
 0. 0. 0. 0.
 0. 0. 0. 0.
 0. 0. 0. 0.
 0. 0. 0. 0.
 0. 0. 0. 0.
 0. 0. 0. 0.
 0. 0. 0. 0.
 0. 0. 0. 0.
 0. 0. 0. 0.
 0. 0. 0. 0.
 0. 0. 0. 0.
 0. 0. 0. 0.
 0. 0. 0. 0.
 0. 0. 0. 0.
 0. 0. 0. 0.
 0. 0. 0. 0.
 0. 0. 0. 0.
 0. 0. 0. 0.
 0. 0. 0. 0.
 0. 0. 0. 0.
 0. 0. 0. 0.
 0. 0. 0. 0.
 0. 0. 0. 0.
 0. 0. 0. 0.
 0. 0. 0. 0.
 0. 0. 0. 0.
 0. 0. 0. 0.
 0. 0. 0. 0.
 0. 0. 0. 0.
 0. 0. 0. 0.
 0. 0. 0. 0.
 0. 0. 0. 0.
 0. 0. 0. 0.
 0. 0. 0. 0.
 0. 0. 0. 0.
 0. 0. 0. 0.
 0. 0. 0. 0.
 0. 0. 0. 0.
 0. 0. 0. 0.
 0. 0. 0. 0.
 0. 0. 0. 0.
 0. 0. 0. 0.
 0. 0. 0. 0.
 0. 0. 0. 0.
 0. 0. 0. 0.
 0. 0. 0. 0.
 0. 0. 0. 0.
 0. 0. 0. 0.
 0. 0. 0. 0.
 0. 0. 0. 0.
 0. 0. 0. 0.
 0. 0. 0. 0.
 0. 0. 0. 0.
 0. 0. 0. 0.
 0. 0. 0. 0.
 0. 0. 0. 0.
 0. 0. 0. 0.
 0. 0. 0. 0.
 0. 0. 0. 0.
 0. 0. 0. 0.
 0. 0. 0. 0.
 0. 0. 0. 0.
 0. 0. 0. 0.
 0. 0. 0. 0.
 0. 0. 0. 0.
 0. 0. 0. 0.
   </PP_BETA.8>
   <PP_BETA.9
       type="real"
       size="1220"
       columns="4"
       index="9"
       angular_momentum="2"
       cutoff_radius_index=" 216"
       cutoff_radius="    2.1500000000E+00" >
   -4.5660892255E-10   -1.0276182521E-05   -8.2081490546E-05   -2.7630685265E-04
   -6.5257448253E-04   -1.2686225998E-03   -2.1797127133E-03   -3.4380664404E-03
   -5.0923383807E-03   -7.1871310044E-03   -9.7625568722E-03   -1.2853852775E-02
   -1.6491049595E-02   -2.0698700835E-02   -2.5495671893E-02   -3.0894991238E-02
   -3.6903763732E-02   -4.3523145425E-02   -5.0748378285E-02   -5.8568882439E-02
   -6.6968402732E-02   -7.5925205659E-02   -8.5412322069E-02   -9.5397830491E-02
   -1.0584517541E-01   -1.1671351452E-01   -1.2795808866E-01   -1.3953060804E-01
   -1.5137964831E-01   -1.6345105015E-01   -1.7568831622E-01   -1.8803299960E-01
   -2.0042507844E-01   -2.1280331172E-01   -2.2510557201E-01   -2.3726915148E-01
   -2.4923103823E-01   -2.6092816096E-01   -2.7229760054E-01   -2.8327676801E-01
   -2.9380354947E-01   -3.0381641884E-01   -3.1325452065E-01   -3.2205772543E-01
   -3.3016666112E-01   -3.3752272450E-01   -3.4406807709E-01   -3.4974563069E-01
   -3.5449902748E-01   -3.5827262055E-01   -3.6101146011E-01   -3.6266129122E-01
   -3.6316856825E-01   -3.6248049130E-01   -3.6054506936E-01   -3.5731121442E-01
   -3.5272887018E-01   -3.4674917849E-01   -3.3932468541E-01   -3.3040958851E-01
   -3.1996002571E-01   -3.0793440513E-01   -2.9429377457E-01   -2.7900222801E-01
   -2.6202734590E-01   -2.4334066474E-01   -2.2291817071E-01   -2.0074081144E-01
   -1.7679501892E-01   -1.5107323626E-01   -1.2357444017E-01   -9.4304650896E-02
   -6.3277420781E-02   -3.0514292754E-02    3.9547802165E-03    4.0091063304E-02
    7.7846724070E-02    1.1716458070E-01    1.5797792159E-01    2.0021040288E-01
    2.4377602969E-01    2.8857922590E-01    3.3451499603E-01    3.8146918192E-01
    4.2931881528E-01    4.7793256631E-01    5.2717128680E-01    5.7688864517E-01
    6.2693184929E-01    6.7714245180E-01    7.2735723124E-01    7.7740914111E-01
    8.2712831812E-01    8.7634313951E-01    9.2488131872E-01    9.7257102799E-01
    1.0192420356E+00    1.0647268456E+00    1.1088618268E+00    1.1514883188E+00
    1.1924537022E+00    1.2316124205E+00    1.2688269423E+00    1.3039686527E+00
    1.3369186626E+00    1.3675685287E+00    1.3958208735E+00    1.4215899016E+00
    1.4448018035E+00    1.4653950455E+00    1.4833205426E+00    1.4985417128E+00
    1.5110344146E+00    1.5207867698E+00    1.5277988753E+00    1.5320824098E+00
    1.5336601421E+00    1.5325653491E+00    1.5288411539E+00    1.5225397933E+00
    1.5137218270E+00    1.5024553008E+00    1.4888148757E+00    1.4728809378E+00
    1.4547386997E+00    1.4344773094E+00    1.4121889774E+00    1.3879681356E+00
    1.3619106402E+00    1.3341130279E+00    1.3046718374E+00    1.2736830027E+00
    1.2412413278E+00    1.2074400470E+00    1.1723704754E+00    1.1361217536E+00
    1.0987806852E+00    1.0604316694E+00    1.0211567233E+00    9.8103559206E-01
    9.4014594014E-01    8.9856361691E-01    8.5636298778E-01    8.1361732110E-01
    7.7039922011E-01    7.2678108777E-01    6.8283561215E-01    6.3863625920E-01
    5.9425775952E-01    5.4977657585E-01    5.0527133782E-01    4.6082323131E-01
    4.1651633006E-01    3.7243785832E-01    3.2867837409E-01    2.8533186405E-01
    2.4249574246E-01    2.0027074813E-01    1.5876073500E-01    1.1807235409E-01
    7.8314625979E-02    3.9598405429E-02    2.0357413814E-03   -3.4260862348E-02
   -6.9179278449E-02   -1.0260867054E-01   -1.3444047986E-01   -1.6456947188E-01
   -1.9289482904E-01   -2.1932127464E-01   -2.4376021176E-01   -2.6613086049E-01
   -2.8636137597E-01   -3.0438992966E-01   -3.2016573606E-01   -3.3365000746E-01
   -3.4481681975E-01   -3.5365387527E-01   -3.6016313564E-01   -3.6436141799E-01
   -3.6628093304E-01   -3.6596957993E-01   -3.6349098617E-01   -3.5892438701E-01
   -3.5236432701E-01   -3.4392018420E-01   -3.3371551706E-01   -3.2188723719E-01
   -3.0858461298E-01   -2.9396811189E-01   -2.7820809124E-01   -2.6148334993E-01
   -2.4397955528E-01   -2.2588756116E-01   -2.0740163553E-01   -1.8871761674E-01
   -1.7003101931E-01   -1.5153511031E-01   -1.3341898499E-01   -1.1586563949E-01
   -9.9050116448E-02   -8.3137846250E-02   -6.8283333896E-02   -5.4627160278E-02
   -4.2294934738E-02   -3.1396442050E-02   -2.2024340182E-02   -1.4253163614E-02
   -8.1415039471E-03   -3.7019887057E-03   -1.0199069214E-03   -1.8698968685E-05
    4.3792729540E-05   -2.1166548064E-05    3.2112503165E-06   -8.6698975456E-09
 0. 0. 0. 0.
 0. 0. 0. 0.
 0. 0. 0. 0.
 0. 0. 0. 0.
 0. 0. 0. 0.
 0. 0. 0. 0.
 0. 0. 0. 0.
 0. 0. 0. 0.
 0. 0. 0. 0.
 0. 0. 0. 0.
 0. 0. 0. 0.
 0. 0. 0. 0.
 0. 0. 0. 0.
 0. 0. 0. 0.
 0. 0. 0. 0.
 0. 0. 0. 0.
 0. 0. 0. 0.
 0. 0. 0. 0.
 0. 0. 0. 0.
 0. 0. 0. 0.
 0. 0. 0. 0.
 0. 0. 0. 0.
 0. 0. 0. 0.
 0. 0. 0. 0.
 0. 0. 0. 0.
 0. 0. 0. 0.
 0. 0. 0. 0.
 0. 0. 0. 0.
 0. 0. 0. 0.
 0. 0. 0. 0.
 0. 0. 0. 0.
 0. 0. 0. 0.
 0. 0. 0. 0.
 0. 0. 0. 0.
 0. 0. 0. 0.
 0. 0. 0. 0.
 0. 0. 0. 0.
 0. 0. 0. 0.
 0. 0. 0. 0.
 0. 0. 0. 0.
 0. 0. 0. 0.
 0. 0. 0. 0.
 0. 0. 0. 0.
 0. 0. 0. 0.
 0. 0. 0. 0.
 0. 0. 0. 0.
 0. 0. 0. 0.
 0. 0. 0. 0.
 0. 0. 0. 0.
 0. 0. 0. 0.
 0. 0. 0. 0.
 0. 0. 0. 0.
 0. 0. 0. 0.
 0. 0. 0. 0.
 0. 0. 0. 0.
 0. 0. 0. 0.
 0. 0. 0. 0.
 0. 0. 0. 0.
 0. 0. 0. 0.
 0. 0. 0. 0.
 0. 0. 0. 0.
 0. 0. 0. 0.
 0. 0. 0. 0.
 0. 0. 0. 0.
 0. 0. 0. 0.
 0. 0. 0. 0.
 0. 0. 0. 0.
 0. 0. 0. 0.
 0. 0. 0. 0.
 0. 0. 0. 0.
 0. 0. 0. 0.
 0. 0. 0. 0.
 0. 0. 0. 0.
 0. 0. 0. 0.
 0. 0. 0. 0.
 0. 0. 0. 0.
 0. 0. 0. 0.
 0. 0. 0. 0.
 0. 0. 0. 0.
 0. 0. 0. 0.
 0. 0. 0. 0.
 0. 0. 0. 0.
 0. 0. 0. 0.
 0. 0. 0. 0.
 0. 0. 0. 0.
 0. 0. 0. 0.
 0. 0. 0. 0.
 0. 0. 0. 0.
 0. 0. 0. 0.
 0. 0. 0. 0.
 0. 0. 0. 0.
 0. 0. 0. 0.
 0. 0. 0. 0.
 0. 0. 0. 0.
 0. 0. 0. 0.
 0. 0. 0. 0.
 0. 0. 0. 0.
 0. 0. 0. 0.
 0. 0. 0. 0.
 0. 0. 0. 0.
 0. 0. 0. 0.
 0. 0. 0. 0.
 0. 0. 0. 0.
 0. 0. 0. 0.
 0. 0. 0. 0.
 0. 0. 0. 0.
 0. 0. 0. 0.
 0. 0. 0. 0.
 0. 0. 0. 0.
 0. 0. 0. 0.
 0. 0. 0. 0.
 0. 0. 0. 0.
 0. 0. 0. 0.
 0. 0. 0. 0.
 0. 0. 0. 0.
 0. 0. 0. 0.
 0. 0. 0. 0.
 0. 0. 0. 0.
 0. 0. 0. 0.
 0. 0. 0. 0.
 0. 0. 0. 0.
 0. 0. 0. 0.
 0. 0. 0. 0.
 0. 0. 0. 0.
 0. 0. 0. 0.
 0. 0. 0. 0.
 0. 0. 0. 0.
 0. 0. 0. 0.
 0. 0. 0. 0.
 0. 0. 0. 0.
 0. 0. 0. 0.
 0. 0. 0. 0.
 0. 0. 0. 0.
 0. 0. 0. 0.
 0. 0. 0. 0.
 0. 0. 0. 0.
 0. 0. 0. 0.
 0. 0. 0. 0.
 0. 0. 0. 0.
 0. 0. 0. 0.
 0. 0. 0. 0.
 0. 0. 0. 0.
 0. 0. 0. 0.
 0. 0. 0. 0.
 0. 0. 0. 0.
 0. 0. 0. 0.
 0. 0. 0. 0.
 0. 0. 0. 0.
 0. 0. 0. 0.
 0. 0. 0. 0.
 0. 0. 0. 0.
 0. 0. 0. 0.
 0. 0. 0. 0.
 0. 0. 0. 0.
 0. 0. 0. 0.
 0. 0. 0. 0.
 0. 0. 0. 0.
 0. 0. 0. 0.
 0. 0. 0. 0.
 0. 0. 0. 0.
 0. 0. 0. 0.
 0. 0. 0. 0.
 0. 0. 0. 0.
 0. 0. 0. 0.
 0. 0. 0. 0.
 0. 0. 0. 0.
 0. 0. 0. 0.
 0. 0. 0. 0.
 0. 0. 0. 0.
 0. 0. 0. 0.
 0. 0. 0. 0.
 0. 0. 0. 0.
 0. 0. 0. 0.
 0. 0. 0. 0.
 0. 0. 0. 0.
 0. 0. 0. 0.
 0. 0. 0. 0.
 0. 0. 0. 0.
 0. 0. 0. 0.
 0. 0. 0. 0.
 0. 0. 0. 0.
 0. 0. 0. 0.
 0. 0. 0. 0.
 0. 0. 0. 0.
 0. 0. 0. 0.
 0. 0. 0. 0.
 0. 0. 0. 0.
 0. 0. 0. 0.
 0. 0. 0. 0.
 0. 0. 0. 0.
 0. 0. 0. 0.
 0. 0. 0. 0.
 0. 0. 0. 0.
 0. 0. 0. 0.
 0. 0. 0. 0.
 0. 0. 0. 0.
 0. 0. 0. 0.
 0. 0. 0. 0.
 0. 0. 0. 0.
 0. 0. 0. 0.
 0. 0. 0. 0.
 0. 0. 0. 0.
 0. 0. 0. 0.
 0. 0. 0. 0.
 0. 0. 0. 0.
 0. 0. 0. 0.
 0. 0. 0. 0.
 0. 0. 0. 0.
 0. 0. 0. 0.
 0. 0. 0. 0.
 0. 0. 0. 0.
 0. 0. 0. 0.
 0. 0. 0. 0.
 0. 0. 0. 0.
 0. 0. 0. 0.
 0. 0. 0. 0.
 0. 0. 0. 0.
 0. 0. 0. 0.
 0. 0. 0. 0.
 0. 0. 0. 0.
 0. 0. 0. 0.
 0. 0. 0. 0.
 0. 0. 0. 0.
 0. 0. 0. 0.
 0. 0. 0. 0.
 0. 0. 0. 0.
 0. 0. 0. 0.
 0. 0. 0. 0.
 0. 0. 0. 0.
 0. 0. 0. 0.
 0. 0. 0. 0.
 0. 0. 0. 0.
 0. 0. 0. 0.
 0. 0. 0. 0.
 0. 0. 0. 0.
 0. 0. 0. 0.
 0. 0. 0. 0.
 0. 0. 0. 0.
 0. 0. 0. 0.
 0. 0. 0. 0.
 0. 0. 0. 0.
 0. 0. 0. 0.
 0. 0. 0. 0.
 0. 0. 0. 0.
 0. 0. 0. 0.
 0. 0. 0. 0.
 0. 0. 0. 0.
 0. 0. 0. 0.
 0. 0. 0. 0.
 0. 0. 0. 0.
 0. 0. 0. 0.
   </PP_BETA.9>
   <PP_BETA.10
       type="real"
       size="1220"
       columns="4"
       index="10"
       angular_momentum="2"
       cutoff_radius_index=" 216"
       cutoff_radius="    2.1500000000E+00" >
   -4.5573531234E-10   -1.0256436889E-05   -8.1923726955E-05   -2.7577553086E-04
   -6.5131878959E-04   -1.2661794092E-03   -2.1755104680E-03   -3.4314299080E-03
   -5.0824942167E-03   -7.1732140511E-03   -9.7436171091E-03   -1.2828862831E-02
   -1.6458912727E-02   -2.0658259268E-02   -2.5445715428E-02   -3.0834266009E-02
   -3.6830981015E-02   -4.3436990408E-02   -5.0647518679E-02   -5.8451976856E-02
   -6.6834108739E-02   -7.5772187434E-02   -8.5239257591E-02   -9.5203418204E-02
   -1.0562814033E-01   -1.1647261372E-01   -1.2769211619E-01   -1.3923839913E-01
   -1.5106008306E-01   -1.6310305654E-01   -1.7531087254E-01   -1.8762513643E-01
   -1.9998588003E-01   -2.1233191701E-01   -2.2460117528E-01   -2.3673100268E-01
   -2.4865844311E-01   -2.6032048106E-01   -2.7165425312E-01   -2.8259722597E-01
   -2.9308734139E-01   -3.0306312917E-01   -3.1246379014E-01   -3.2122925181E-01
   -3.2930020017E-01   -3.3661809142E-01   -3.4312514836E-01   -3.4876434627E-01
   -3.5347939349E-01   -3.5721471233E-01   -3.5991542570E-01   -3.6152735517E-01
   -3.6199703579E-01   -3.6127175271E-01   -3.5929960458E-01   -3.5602959773E-01
   -3.5141177496E-01   -3.4539738182E-01   -3.3793907256E-01   -3.2899115717E-01
   -3.1850988976E-01   -3.0645379803E-01   -2.9278405205E-01   -2.7746487016E-01
   -2.6046395843E-01   -2.4175297935E-01   -2.2130804459E-01   -1.9911022566E-01
   -1.7514607583E-01   -1.4940815574E-01   -1.2189555477E-01   -9.2614399819E-02
   -6.1578342757E-02   -2.8809017781E-02    5.6635401853E-03    4.1800524691E-02
    7.9554042938E-02    1.1886686487E-01    1.5967224352E-01    2.0189381313E-01
    2.4544557098E-01    2.9023194745E-01    3.3614796820E-01    3.8307951089E-01
    4.3090365770E-01    4.7948914367E-01    5.2869689948E-01    5.7838068594E-01
    6.2838781615E-01    6.7855996005E-01    7.2873402455E-01    7.7874310167E-01
    8.2841747554E-01    8.7758567857E-01    9.2607558582E-01    9.7371553627E-01
    1.0203354687E+00    1.0657680599E+00    1.1098498526E+00    1.1524223598E+00
    1.1933331339E+00    1.2324367874E+00    1.2695959538E+00    1.3046821776E+00
    1.3375767233E+00    1.3681712942E+00    1.3963686518E+00    1.4220831309E+00
    1.4452410440E+00    1.4657809700E+00    1.4836539275E+00    1.4988234285E+00
    1.5112654166E+00    1.5209680897E+00    1.5279316123E+00    1.5321677225E+00
    1.5336992409E+00    1.5325594897E+00    1.5287916306E+00    1.5224479339E+00
    1.5135889882E+00    1.5022828642E+00    1.4886042452E+00    1.4726335369E+00
    1.4544559705E+00    1.4341607116E+00    1.4118399880E+00    1.3875882499E+00
    1.3615013719E+00    1.3336759108E+00    1.3042084264E+00    1.2731948756E+00
    1.2407300867E+00    1.2069073195E+00    1.1718179156E+00    1.1355510427E+00
    1.0981935320E+00    1.0598298094E+00    1.0205419176E+00    9.8040962550E-01
    9.3951061860E-01    8.9792076351E-01    8.5571443832E-01    8.1296491866E-01
    7.6974480863E-01    7.2612650485E-01    6.8218268102E-01    6.3798677995E-01
    5.9361349976E-01    5.4913926074E-01    5.0464263981E-01    4.6020475953E-01
    4.1590961972E-01    3.7184436007E-01    3.2809944368E-01    2.8476875236E-01
    2.4194958615E-01    1.9974256100E-01    1.5825140033E-01    1.1758261797E-01
    7.7845091964E-02    3.9149530515E-02    1.6078334501E-03   -3.4667645497E-02
   -6.9564928418E-02   -1.0297332595E-01   -1.3478442223E-01   -1.6489311979E-01
   -1.9319873058E-01   -2.1960609822E-01   -2.4402673533E-01   -2.6637995929E-01
   -2.8659400897E-01   -3.0460712479E-01   -3.2036857443E-01   -3.3383960678E-01
   -3.4499431715E-01   -3.5382040972E-01   -3.6031983015E-01   -3.6450936291E-01
   -3.6642117173E-01   -3.6610309605E-01   -3.6361869193E-01   -3.5904711262E-01
   -3.5248281157E-01   -3.4403506825E-01   -3.3382733685E-01   -3.2199642100E-01
   -3.0869147943E-01   -2.9407287039E-01   -2.7831084472E-01   -2.6158409975E-01
   -2.4407820836E-01   -2.2598393929E-01   -2.0749548677E-01   -1.8880862873E-01
   -1.7011883443E-01   -1.5161934239E-01   -1.3349923748E-01   -1.1594152460E-01
   -9.9121275315E-02   -8.3203971357E-02   -6.8344196446E-02   -5.4682622110E-02
   -4.2344964582E-02   -3.1441136437E-02   -2.2063941991E-02   -1.4288079279E-02
   -8.1723752058E-03   -3.7290781122E-03   -1.0457872317E-03   -4.3532881601E-05
    3.7434557137E-05   -1.8775423771E-05    2.7498828449E-06    5.8527532273E-09
 0. 0. 0. 0.
 0. 0. 0. 0.
 0. 0. 0. 0.
 0. 0. 0. 0.
 0. 0. 0. 0.
 0. 0. 0. 0.
 0. 0. 0. 0.
 0. 0. 0. 0.
 0. 0. 0. 0.
 0. 0. 0. 0.
 0. 0. 0. 0.
 0. 0. 0. 0.
 0. 0. 0. 0.
 0. 0. 0. 0.
 0. 0. 0. 0.
 0. 0. 0. 0.
 0. 0. 0. 0.
 0. 0. 0. 0.
 0. 0. 0. 0.
 0. 0. 0. 0.
 0. 0. 0. 0.
 0. 0. 0. 0.
 0. 0. 0. 0.
 0. 0. 0. 0.
 0. 0. 0. 0.
 0. 0. 0. 0.
 0. 0. 0. 0.
 0. 0. 0. 0.
 0. 0. 0. 0.
 0. 0. 0. 0.
 0. 0. 0. 0.
 0. 0. 0. 0.
 0. 0. 0. 0.
 0. 0. 0. 0.
 0. 0. 0. 0.
 0. 0. 0. 0.
 0. 0. 0. 0.
 0. 0. 0. 0.
 0. 0. 0. 0.
 0. 0. 0. 0.
 0. 0. 0. 0.
 0. 0. 0. 0.
 0. 0. 0. 0.
 0. 0. 0. 0.
 0. 0. 0. 0.
 0. 0. 0. 0.
 0. 0. 0. 0.
 0. 0. 0. 0.
 0. 0. 0. 0.
 0. 0. 0. 0.
 0. 0. 0. 0.
 0. 0. 0. 0.
 0. 0. 0. 0.
 0. 0. 0. 0.
 0. 0. 0. 0.
 0. 0. 0. 0.
 0. 0. 0. 0.
 0. 0. 0. 0.
 0. 0. 0. 0.
 0. 0. 0. 0.
 0. 0. 0. 0.
 0. 0. 0. 0.
 0. 0. 0. 0.
 0. 0. 0. 0.
 0. 0. 0. 0.
 0. 0. 0. 0.
 0. 0. 0. 0.
 0. 0. 0. 0.
 0. 0. 0. 0.
 0. 0. 0. 0.
 0. 0. 0. 0.
 0. 0. 0. 0.
 0. 0. 0. 0.
 0. 0. 0. 0.
 0. 0. 0. 0.
 0. 0. 0. 0.
 0. 0. 0. 0.
 0. 0. 0. 0.
 0. 0. 0. 0.
 0. 0. 0. 0.
 0. 0. 0. 0.
 0. 0. 0. 0.
 0. 0. 0. 0.
 0. 0. 0. 0.
 0. 0. 0. 0.
 0. 0. 0. 0.
 0. 0. 0. 0.
 0. 0. 0. 0.
 0. 0. 0. 0.
 0. 0. 0. 0.
 0. 0. 0. 0.
 0. 0. 0. 0.
 0. 0. 0. 0.
 0. 0. 0. 0.
 0. 0. 0. 0.
 0. 0. 0. 0.
 0. 0. 0. 0.
 0. 0. 0. 0.
 0. 0. 0. 0.
 0. 0. 0. 0.
 0. 0. 0. 0.
 0. 0. 0. 0.
 0. 0. 0. 0.
 0. 0. 0. 0.
 0. 0. 0. 0.
 0. 0. 0. 0.
 0. 0. 0. 0.
 0. 0. 0. 0.
 0. 0. 0. 0.
 0. 0. 0. 0.
 0. 0. 0. 0.
 0. 0. 0. 0.
 0. 0. 0. 0.
 0. 0. 0. 0.
 0. 0. 0. 0.
 0. 0. 0. 0.
 0. 0. 0. 0.
 0. 0. 0. 0.
 0. 0. 0. 0.
 0. 0. 0. 0.
 0. 0. 0. 0.
 0. 0. 0. 0.
 0. 0. 0. 0.
 0. 0. 0. 0.
 0. 0. 0. 0.
 0. 0. 0. 0.
 0. 0. 0. 0.
 0. 0. 0. 0.
 0. 0. 0. 0.
 0. 0. 0. 0.
 0. 0. 0. 0.
 0. 0. 0. 0.
 0. 0. 0. 0.
 0. 0. 0. 0.
 0. 0. 0. 0.
 0. 0. 0. 0.
 0. 0. 0. 0.
 0. 0. 0. 0.
 0. 0. 0. 0.
 0. 0. 0. 0.
 0. 0. 0. 0.
 0. 0. 0. 0.
 0. 0. 0. 0.
 0. 0. 0. 0.
 0. 0. 0. 0.
 0. 0. 0. 0.
 0. 0. 0. 0.
 0. 0. 0. 0.
 0. 0. 0. 0.
 0. 0. 0. 0.
 0. 0. 0. 0.
 0. 0. 0. 0.
 0. 0. 0. 0.
 0. 0. 0. 0.
 0. 0. 0. 0.
 0. 0. 0. 0.
 0. 0. 0. 0.
 0. 0. 0. 0.
 0. 0. 0. 0.
 0. 0. 0. 0.
 0. 0. 0. 0.
 0. 0. 0. 0.
 0. 0. 0. 0.
 0. 0. 0. 0.
 0. 0. 0. 0.
 0. 0. 0. 0.
 0. 0. 0. 0.
 0. 0. 0. 0.
 0. 0. 0. 0.
 0. 0. 0. 0.
 0. 0. 0. 0.
 0. 0. 0. 0.
 0. 0. 0. 0.
 0. 0. 0. 0.
 0. 0. 0. 0.
 0. 0. 0. 0.
 0. 0. 0. 0.
 0. 0. 0. 0.
 0. 0. 0. 0.
 0. 0. 0. 0.
 0. 0. 0. 0.
 0. 0. 0. 0.
 0. 0. 0. 0.
 0. 0. 0. 0.
 0. 0. 0. 0.
 0. 0. 0. 0.
 0. 0. 0. 0.
 0. 0. 0. 0.
 0. 0. 0. 0.
 0. 0. 0. 0.
 0. 0. 0. 0.
 0. 0. 0. 0.
 0. 0. 0. 0.
 0. 0. 0. 0.
 0. 0. 0. 0.
 0. 0. 0. 0.
 0. 0. 0. 0.
 0. 0. 0. 0.
 0. 0. 0. 0.
 0. 0. 0. 0.
 0. 0. 0. 0.
 0. 0. 0. 0.
 0. 0. 0. 0.
 0. 0. 0. 0.
 0. 0. 0. 0.
 0. 0. 0. 0.
 0. 0. 0. 0.
 0. 0. 0. 0.
 0. 0. 0. 0.
 0. 0. 0. 0.
 0. 0. 0. 0.
 0. 0. 0. 0.
 0. 0. 0. 0.
 0. 0. 0. 0.
 0. 0. 0. 0.
 0. 0. 0. 0.
 0. 0. 0. 0.
 0. 0. 0. 0.
 0. 0. 0. 0.
 0. 0. 0. 0.
 0. 0. 0. 0.
 0. 0. 0. 0.
 0. 0. 0. 0.
 0. 0. 0. 0.
 0. 0. 0. 0.
 0. 0. 0. 0.
 0. 0. 0. 0.
 0. 0. 0. 0.
 0. 0. 0. 0.
 0. 0. 0. 0.
 0. 0. 0. 0.
 0. 0. 0. 0.
 0. 0. 0. 0.
 0. 0. 0. 0.
 0. 0. 0. 0.
 0. 0. 0. 0.
 0. 0. 0. 0.
 0. 0. 0. 0.
 0. 0. 0. 0.
 0. 0. 0. 0.
 0. 0. 0. 0.
 0. 0. 0. 0.
 0. 0. 0. 0.
 0. 0. 0. 0.
 0. 0. 0. 0.
 0. 0. 0. 0.
 0. 0. 0. 0.
 0. 0. 0. 0.
 0. 0. 0. 0.
 0. 0. 0. 0.
 0. 0. 0. 0.
   </PP_BETA.10>
   <PP_DIJ type="real"  size=" 100" columns="4">
    1.2706954347E+01    0.0000000000E+00    0.0000000000E+00    0.0000000000E+00
    0.0000000000E+00    0.0000000000E+00    0.0000000000E+00    0.0000000000E+00
    0.0000000000E+00    0.0000000000E+00    0.0000000000E+00    2.6321165024E+00
    0.0000000000E+00    0.0000000000E+00    0.0000000000E+00    0.0000000000E+00
    0.0000000000E+00    0.0000000000E+00    0.0000000000E+00    0.0000000000E+00
    0.0000000000E+00    0.0000000000E+00    9.3389739085E+00    0.0000000000E+00
    0.0000000000E+00    0.0000000000E+00    0.0000000000E+00    0.0000000000E+00
    0.0000000000E+00    0.0000000000E+00    0.0000000000E+00    0.0000000000E+00
    0.0000000000E+00    9.2415209477E+00    0.0000000000E+00    0.0000000000E+00
    0.0000000000E+00    0.0000000000E+00    0.0000000000E+00    0.0000000000E+00
    0.0000000000E+00    0.0000000000E+00    0.0000000000E+00    0.0000000000E+00
    9.4898637731E-01    0.0000000000E+00    0.0000000000E+00    0.0000000000E+00
    0.0000000000E+00    0.0000000000E+00    0.0000000000E+00    0.0000000000E+00
    0.0000000000E+00    0.0000000000E+00    0.0000000000E+00    9.6681532817E-01
    0.0000000000E+00    0.0000000000E+00    0.0000000000E+00    0.0000000000E+00
    0.0000000000E+00    0.0000000000E+00    0.0000000000E+00    0.0000000000E+00
    0.0000000000E+00    0.0000000000E+00   -1.5827913587E+01    0.0000000000E+00
    0.0000000000E+00    0.0000000000E+00    0.0000000000E+00    0.0000000000E+00
    0.0000000000E+00    0.0000000000E+00    0.0000000000E+00    0.0000000000E+00
    0.0000000000E+00   -1.5758635422E+01    0.0000000000E+00    0.0000000000E+00
    0.0000000000E+00    0.0000000000E+00    0.0000000000E+00    0.0000000000E+00
    0.0000000000E+00    0.0000000000E+00    0.0000000000E+00    0.0000000000E+00
   -6.6527818145E+00    0.0000000000E+00    0.0000000000E+00    0.0000000000E+00
    0.0000000000E+00    0.0000000000E+00    0.0000000000E+00    0.0000000000E+00
    0.0000000000E+00    0.0000000000E+00    0.0000000000E+00   -6.6031249724E+00
   </PP_DIJ>
 </PP_NONLOCAL>
 <PP_PSWFC>
   <PP_CHI.1
       type="real"
       size="1220"
       columns="4"
       index="1"
       occupation=" 6.000"
       pseudo_energy="   -0.3876658335E+01"
       label="3D"
       l="2" >
    6.6145318389E-12    6.8520731395E-06    5.4789280709E-05    1.8476033141E-04
    4.3744153615E-04    8.5310174310E-04    1.4714686290E-03    2.3315967911E-03
    3.4717380770E-03    4.9292145825E-03    6.7402947365E-03    8.9400728812E-03
    1.1562352743E-02    1.4639535177E-02    1.8202510548E-02    2.2280556096E-02
    2.6901238626E-02    3.2090322815E-02    3.7871685451E-02    4.4267235853E-02
    5.1296842730E-02    5.8978267700E-02    6.7327105675E-02    7.6356732280E-02
    8.6078258466E-02    9.6500492436E-02    1.0762990899E-01    1.1947062636E-01
    1.3202439059E-01    1.4529056747E-01    1.5926614207E-01    1.7394572572E-01
    1.8932157059E-01    2.0538359155E-01    2.2211939541E-01    2.3951431731E-01
    2.5755146408E-01    2.7621176452E-01    2.9547402627E-01    3.1531499915E-01
    3.3570944463E-01    3.5663021133E-01    3.7804831612E-01    3.9993303058E-01
    4.2225197256E-01    4.4497120249E-01    4.6805532404E-01    4.9146758886E-01
    5.1517000504E-01    5.3912344888E-01    5.6328777956E-01    5.8762195648E-01
    6.1208415866E-01    6.3663190599E-01    6.6122218181E-01    6.8581155653E-01
    7.1035631179E-01    7.3481256480E-01    7.5913639246E-01    7.8328395492E-01
    8.0721161808E-01    8.3087607480E-01    8.5423446424E-01    8.7724448922E-01
    8.9986453097E-01    9.2205376124E-01    9.4377225107E-01    9.6498107624E-01
    9.8564241890E-01    1.0057196651E+00    1.0251774981E+00    1.0439819870E+00
    1.0621006703E+00    1.0795026352E+00    1.0961585905E+00    1.1120409350E+00
    1.1271238199E+00    1.1413832054E+00    1.1547969115E+00    1.1673446629E+00
    1.1790081280E+00    1.1897709508E+00    1.1996187784E+00    1.2085392805E+00
    1.2165221637E+00    1.2235591796E+00    1.2296441267E+00    1.2347728459E+00
    1.2389432104E+00    1.2421551099E+00    1.2444104284E+00    1.2457130171E+00
    1.2460686614E+00    1.2454850429E+00    1.2439716960E+00    1.2415399602E+00
    1.2382029270E+00    1.2339753828E+00    1.2288737480E+00    1.2229160111E+00
    1.2161216606E+00    1.2085116122E+00    1.2001081338E+00    1.1909347672E+00
    1.1810162477E+00    1.1703784215E+00    1.1590481606E+00    1.1470532773E+00
    1.1344224360E+00    1.1211850656E+00    1.1073712698E+00    1.0930117384E+00
    1.0781376574E+00    1.0627806202E+00    1.0469725393E+00    1.0307455581E+00
    1.0141319647E+00    9.9716410690E-01    9.7987430821E-01    9.6229478666E-01
    9.4445757517E-01    9.2639444439E-01    9.0813682818E-01    8.8971575172E-01
    8.7116176268E-01    8.5250486536E-01    8.3377445815E-01    8.1499927438E-01
    7.9620732658E-01    7.7742585447E-01    7.5868127649E-01    7.3999914521E-01
    7.2140410648E-01    7.0291986247E-01    6.8456913850E-01    6.6637365388E-01
    6.4835409648E-01    6.3053010126E-01    6.1292023254E-01    5.9554197005E-01
    5.7841169869E-01    5.6154470191E-01    5.4495515858E-01    5.2865614336E-01
    5.1265963036E-01    4.9697650003E-01    4.8161654907E-01    4.6658850337E-01
    4.5190003372E-01    4.3755777417E-01    4.2356734288E-01    4.0993336537E-01
    3.9665949991E-01    3.8374846495E-01    3.7120206841E-01    3.5902123864E-01
    3.4720605695E-01    3.3575579145E-01    3.2466893213E-01    3.1394322690E-01
    3.0357571858E-01    2.9356278258E-01    2.8390016509E-01    2.7458302173E-01
    2.6560595649E-01    2.5696306072E-01    2.4864795218E-01    2.4065381393E-01
    2.3297343296E-01    2.2559923852E-01    2.1852333982E-01    2.1173756336E-01
    2.0523348942E-01    1.9900248786E-01    1.9303575313E-01    1.8732433827E-01
    1.8185918808E-01    1.7663117107E-01    1.7163111054E-01    1.6684981439E-01
    1.6227810379E-01    1.5790684073E-01    1.5372695427E-01    1.4972946558E-01
    1.4590551175E-01    1.4224636827E-01    1.3874347034E-01    1.3538843282E-01
    1.3217306901E-01    1.2908940805E-01    1.2612971124E-01    1.2328648698E-01
    1.2055250459E-01    1.1792080693E-01    1.1538472183E-01    1.1293787236E-01
    1.1057418604E-01    1.0828790292E-01    1.0607358256E-01    1.0392611005E-01
    1.0184070096E-01    9.9812905289E-02    9.7838610561E-02    9.5914043857E-02
    9.4035773043E-02    9.2200707067E-02    9.0406095422E-02    8.8649526763E-02
    8.6928926836E-02    8.5242554919E-02    8.3589000881E-02    8.1967180992E-02
    8.0376308754E-02    7.8815799630E-02    7.7285116122E-02    7.5783702979E-02
    7.4311003750E-02    7.2866490285E-02    7.1449640330E-02    7.0059938894E-02
    6.8696881135E-02    6.7359970772E-02    6.6048720241E-02    6.4762650536E-02
    6.3501291080E-02    6.2264179599E-02    6.1050861992E-02    5.9860892204E-02
    5.8693832105E-02    5.7549251361E-02    5.6426727316E-02    5.5325844868E-02
    5.4246196350E-02    5.3187381411E-02    5.2149006901E-02    5.1130686750E-02
    5.0132041861E-02    4.9152699987E-02    4.8192295629E-02    4.7250469919E-02
    4.6326870512E-02    4.5421151480E-02    4.4532973203E-02    4.3662002267E-02
    4.2807911356E-02    4.1970379155E-02    4.1149090244E-02    4.0343735000E-02
    3.9554009500E-02    3.8779615422E-02    3.8020259950E-02    3.7275655682E-02
    3.6545520531E-02    3.5829577641E-02    3.5127555289E-02    3.4439186804E-02
    3.3764210471E-02    3.3102369451E-02    3.2453411691E-02    3.1817089843E-02
    3.1193161180E-02    3.0581387518E-02    2.9981535129E-02    2.9393374667E-02
    2.8816681089E-02    2.8251233581E-02    2.7696815482E-02    2.7153214201E-02
    2.6620221150E-02    2.6097631680E-02    2.5585245000E-02    2.5082864112E-02
    2.4590295739E-02    2.4107350264E-02    2.3633841658E-02    2.3169587414E-02
    2.2714408490E-02    2.2268129238E-02    2.1830577348E-02    2.1401583783E-02
    2.0980982721E-02    2.0568611497E-02    2.0164310541E-02    1.9767923326E-02
    1.9379296309E-02    1.8998278878E-02    1.8624723294E-02    1.8258484643E-02
    1.7899420780E-02    1.7547392279E-02    1.7202262383E-02    1.6863896953E-02
    1.6532164419E-02    1.6206935737E-02    1.5888084335E-02    1.5575486070E-02
    1.5269019183E-02    1.4968564255E-02    1.4674004161E-02    1.4385224029E-02
    1.4102111196E-02    1.3824555168E-02    1.3552447577E-02    1.3285682145E-02
    1.3024154641E-02    1.2767762843E-02    1.2516406503E-02    1.2269987303E-02
    1.2028408828E-02    1.1791576522E-02    1.1559397657E-02    1.1331781296E-02
    1.1108638261E-02    1.0889881099E-02    1.0675424048E-02    1.0465183008E-02
    1.0259075506E-02    1.0057020666E-02    9.8589391802E-03    9.6647532771E-03
    9.4743866937E-03    9.2877646459E-03    9.1048138005E-03    8.9254622475E-03
    8.7496394732E-03    8.5772763330E-03    8.4083050255E-03    8.2426590670E-03
    8.0802732658E-03    7.9210836978E-03    7.7650276824E-03    7.6120437580E-03
    7.4620716593E-03    7.3150522938E-03    7.1709277199E-03    7.0296411242E-03
    6.8911368000E-03    6.7553601264E-03    6.6222575469E-03    6.4917765491E-03
    6.3638656448E-03    6.2384743500E-03    6.1155531657E-03    5.9950535589E-03
    5.8769279441E-03    5.7611296646E-03    5.6476129751E-03    5.5363330240E-03
    5.4272458357E-03    5.3203082943E-03    5.2154781265E-03    5.1127138857E-03
    5.0119749357E-03    4.9132214352E-03    4.8164143223E-03    4.7215152997E-03
    4.6284868195E-03    4.5372920689E-03    4.4478949558E-03    4.3602600953E-03
    4.2743527953E-03    4.1901390437E-03    4.1075854946E-03    4.0266594559E-03
    3.9473288763E-03    3.8695623331E-03    3.7933290197E-03    3.7185987337E-03
    3.6453418655E-03    3.5735293862E-03    3.5031328367E-03    3.4341243166E-03
    3.3664764732E-03    3.3001624909E-03    3.2351560806E-03    3.1714314698E-03
    3.1089633921E-03    3.0477270777E-03    2.9876982433E-03    2.9288530833E-03
    2.8711682596E-03    2.8146208933E-03    2.7591885553E-03    2.7048492573E-03
    2.6515814440E-03    2.5993639836E-03    2.5481761605E-03    2.4979976664E-03
    2.4488085930E-03    2.4005894234E-03    2.3533210254E-03    2.3069846430E-03
    2.2615618898E-03    2.2170347414E-03    2.1733855284E-03    2.1305969294E-03
    2.0886519642E-03    2.0475339871E-03    2.0072266806E-03    1.9677140486E-03
    1.9289804101E-03    1.8910103935E-03    1.8537889299E-03    1.8173012476E-03
    1.7815328663E-03    1.7464695909E-03    1.7120975064E-03    1.6784029723E-03
    1.6453726169E-03    1.6129933324E-03    1.5812522697E-03    1.5501368329E-03
    1.5196346747E-03    1.4897336916E-03    1.4604220188E-03    1.4316880256E-03
    1.4035203109E-03    1.3759076986E-03    1.3488392331E-03    1.3223041752E-03
    1.2962919977E-03    1.2707923811E-03    1.2457952097E-03    1.2212905674E-03
    1.1972687342E-03    1.1737201816E-03    1.1506355697E-03    1.1280057426E-03
    1.1058217256E-03    1.0840747210E-03    1.0627561049E-03    1.0418574237E-03
    1.0213703910E-03    1.0012868838E-03    9.8159893952E-04    9.6229875313E-04
    9.4337867360E-04    9.2483120105E-04    9.0664898380E-04    8.8882481537E-04
    8.7135163166E-04    8.5422250812E-04    8.3743065702E-04    8.2096942471E-04
    8.0483228900E-04    7.8901285656E-04    7.7350486038E-04    7.5830215725E-04
    7.4339872534E-04    7.2878866180E-04    7.1446618041E-04    7.0042560926E-04
    6.8666138849E-04    6.7316806812E-04    6.5994030582E-04    6.4697286482E-04
    6.3426061180E-04    6.2179851488E-04    6.0958164157E-04    5.9760515684E-04
    5.8586432118E-04    5.7435448871E-04    5.6307110533E-04    5.5200970691E-04
    5.4116591751E-04    5.3053544762E-04    5.2011409249E-04    5.0989773041E-04
    4.9988232107E-04    4.9006390401E-04    4.8043859696E-04    4.7100259434E-04
    4.6175216574E-04    4.5268365442E-04    4.4379347586E-04    4.3507811633E-04
    4.2653413150E-04    4.1815814505E-04    4.0994684732E-04    4.0189699402E-04
    3.9400540493E-04    3.8626896259E-04    3.7868461111E-04    3.7124935494E-04
    3.6396025766E-04    3.5681444082E-04    3.4980908280E-04    3.4294141766E-04
    3.3620873408E-04    3.2960837424E-04    3.2313773278E-04    3.1679425578E-04
    3.1057543969E-04    3.0447883039E-04    2.9850202218E-04    2.9264265684E-04
    2.8689842266E-04    2.8126705356E-04    2.7574632817E-04    2.7033406892E-04
    2.6502814124E-04    2.5982645262E-04    2.5472695187E-04    2.4972762822E-04
    2.4482651059E-04    2.4002166675E-04    2.3531120261E-04    2.3069326138E-04
    2.2616602293E-04    2.2172770300E-04    2.1737655252E-04    2.1311085688E-04
    2.0892893531E-04    2.0482914013E-04    2.0080985619E-04    1.9686950014E-04
    1.9300651984E-04    1.8921939376E-04    1.8550663035E-04    1.8186676744E-04
    1.7829837169E-04    1.7480003800E-04    1.7137038895E-04    1.6800807425E-04
    1.6471177024E-04    1.6148017930E-04    1.5831202940E-04    1.5520607357E-04
    1.5216108936E-04    1.4917587845E-04    1.4624926608E-04    1.4338010064E-04
    1.4056725320E-04    1.3780961706E-04    1.3510610730E-04    1.3245566038E-04
    1.2985723367E-04    1.2730980509E-04    1.2481237268E-04    1.2236395418E-04
    1.1996358669E-04    1.1761032625E-04    1.1530324747E-04    1.1304144318E-04
    1.1082402407E-04    1.0865011832E-04    1.0651887127E-04    1.0442944506E-04
    1.0238101833E-04    1.0037278587E-04    9.8403958333E-05    9.6473761865E-05
    9.4581437855E-05    9.2726242608E-05    9.0907447058E-05    8.9124336474E-05
    8.7376210185E-05    8.5662381296E-05    8.3982176420E-05    8.2334935410E-05
    8.0720011100E-05    7.9136769048E-05    7.7584587284E-05    7.6062856066E-05
    7.4570977639E-05    7.3108365996E-05    7.1674446653E-05    7.0268656412E-05
    6.8890443149E-05    6.7539265590E-05    6.6214593096E-05    6.4915905459E-05
    6.3642692693E-05    6.2394454831E-05    6.1170701732E-05    5.9970952885E-05
    5.8794737220E-05    5.7641592920E-05    5.6511067244E-05    5.5402716341E-05
    5.4316105083E-05    5.3250806887E-05    5.2206403549E-05    5.1182485080E-05
    5.0178649544E-05    4.9194502899E-05    4.8229658839E-05    4.7283738648E-05
    4.6356371047E-05    4.5447192044E-05    4.4555844800E-05    4.3681979478E-05
    4.2825253114E-05    4.1985329474E-05    4.1161878929E-05    4.0354578320E-05
    3.9563110831E-05    3.8787165869E-05    3.8026438935E-05    3.7280631509E-05
    3.6549450932E-05    3.5832610287E-05    3.5129828291E-05    3.4440829180E-05
    3.3765342605E-05    3.3103103522E-05    3.2453852088E-05    3.1817333561E-05
    3.1193298197E-05    3.0581501154E-05    2.9981702395E-05    2.9393666592E-05
    2.8817163038E-05    2.8251965550E-05    2.7697852384E-05    2.7154606148E-05
    2.6622013715E-05    2.6099866138E-05    2.5587958572E-05    2.5086090191E-05
    2.4594064107E-05    2.4111687297E-05    2.3638770523E-05    2.3175128262E-05
    2.2720578627E-05    2.2274943303E-05    2.1838047469E-05    2.1409719738E-05
    2.0989792082E-05    2.0578099768E-05    2.0174481298E-05    1.9778778339E-05
    1.9390835665E-05    1.9010501093E-05    1.8637625428E-05    1.8272062398E-05
    1.7913668602E-05    1.7562303452E-05    1.7217829116E-05    1.6880110465E-05
    1.6549015023E-05    1.6224412908E-05    1.5906176788E-05    1.5594181829E-05
    1.5288305643E-05    1.4988428243E-05    1.4694431996E-05    1.4406201575E-05
    1.4123623914E-05    1.3846588166E-05    1.3574985656E-05    1.3308709842E-05
    1.3047656270E-05    1.2791722534E-05    1.2540808238E-05    1.2294814953E-05
    1.2053646180E-05    1.1817207315E-05    1.1585405604E-05    1.1358150118E-05
    1.1135351706E-05    1.0916922967E-05    1.0702778215E-05    1.0492833442E-05
    1.0287006288E-05    1.0085216010E-05    9.8873834448E-06    9.6934309838E-06
    9.5032825392E-06    9.3168635155E-06    9.1341007796E-06    8.9549226327E-06
    8.7792587814E-06    8.6070403111E-06    8.4381996581E-06    8.2726705834E-06
    8.1103881472E-06    7.9512886826E-06    7.7953097712E-06    7.6423902184E-06
    7.4924700295E-06    7.3454903863E-06    7.2013936236E-06    7.0601232069E-06
    6.9216237104E-06    6.7858407947E-06    6.6527211863E-06    6.5222126558E-06
    6.3942639981E-06    6.2688250120E-06    6.1458464809E-06    6.0252801527E-06
    5.9070787217E-06    5.7911958098E-06    5.6775859481E-06    5.5662045592E-06
    5.4570079399E-06    5.3499532437E-06    5.2449984645E-06    5.1421024194E-06
    5.0412247335E-06    4.9423258231E-06    4.8453668809E-06    4.7503098605E-06
    4.6571174615E-06    4.5657531146E-06    4.4761809680E-06    4.3883658726E-06
    4.3022733685E-06    4.2178696715E-06    4.1351216599E-06    4.0539968615E-06
    3.9744634407E-06    3.8964901861E-06    3.8200464984E-06    3.7451023784E-06
    3.6716284150E-06    3.5995957736E-06    3.5289761855E-06    3.4597419360E-06
    3.3918658537E-06    3.3253213004E-06    3.2600821599E-06    3.1961228283E-06
    3.1334182038E-06    3.0719436765E-06    3.0116751195E-06    2.9525888788E-06
    2.8946617643E-06    2.8378710405E-06    2.7821944180E-06    2.7276100442E-06
    2.6740964952E-06    2.6216327673E-06    2.5701982684E-06    2.5197728104E-06
    2.4703366012E-06    2.4218702366E-06    2.3743546931E-06    2.3277713200E-06
    2.2821018328E-06    2.2373283051E-06    2.1934331623E-06    2.1503991744E-06
    2.1082094494E-06    2.0668474264E-06    2.0262968694E-06    1.9865418607E-06
    1.9475667949E-06    1.9093563725E-06    1.8718955943E-06    1.8351697549E-06
    1.7991644376E-06    1.7638655083E-06    1.7292591101E-06    1.6953316580E-06
    1.6620698333E-06    1.6294605784E-06    1.5974910921E-06    1.5661488241E-06
    1.5354214701E-06    1.5052969674E-06    1.4757634897E-06    1.4468094427E-06
    1.4184234595E-06    1.3905943962E-06    1.3633113274E-06    1.3365635420E-06
    1.3103405390E-06    1.2846320233E-06    1.2594279018E-06    1.2347182793E-06
    1.2104934548E-06    1.1867439176E-06    1.1634603432E-06    1.1406335905E-06
    1.1182546973E-06    1.0963148774E-06    1.0748055168E-06    1.0537181707E-06
    1.0330445596E-06    1.0127765666E-06    9.9290623416E-07    9.7342576053E-07
    9.5432749718E-07    9.3560394555E-07    9.1724775421E-07    8.9925171588E-07
    8.8160876468E-07    8.6431197335E-07    8.4735455051E-07    8.3072983798E-07
    8.1443130821E-07    7.9845256167E-07    7.8278732439E-07    7.6742944549E-07
    7.5237289470E-07    7.3761176008E-07    7.2314024565E-07    7.0895266914E-07
    6.9504345975E-07    6.8140715595E-07    6.6803840334E-07    6.5493195259E-07
    6.4208265734E-07    6.2948547217E-07    6.1713545067E-07    6.0502774342E-07
    5.9315759617E-07    5.8152034795E-07    5.7011142920E-07    5.5892636001E-07
    5.4796074837E-07    5.3721028843E-07    5.2667075880E-07    5.1633802093E-07
    5.0620801744E-07    4.9627677056E-07    4.8654038056E-07    4.7699502422E-07
    4.6763695331E-07    4.5846249317E-07    4.4946804120E-07    4.4065006549E-07
    4.3200510342E-07    4.2352976033E-07    4.1522070812E-07    4.0707468401E-07
    3.9908848922E-07    3.9125898776E-07    3.8358310512E-07    3.7605782716E-07
    3.6868019882E-07    3.6144732307E-07    3.5435635970E-07    3.4740452422E-07
    3.4058908678E-07    3.3390737106E-07    3.2735675331E-07    3.2093466120E-07
    3.1463857290E-07    3.0846601605E-07    3.0241456681E-07    2.9648184888E-07
    2.9066553259E-07    2.8496333399E-07    2.7937301393E-07    2.7389237719E-07
    2.6851927165E-07    2.6325158737E-07    2.5808725586E-07    2.5302424917E-07
    2.4806057918E-07    2.4319429674E-07    2.3842349098E-07    2.3374628850E-07
    2.2916085268E-07    2.2466538290E-07    2.2025811390E-07    2.1593731506E-07
    2.1170128970E-07    2.0754837445E-07    2.0347693855E-07    1.9948538325E-07
    1.9557214120E-07    1.9173567575E-07    1.8797448045E-07    1.8428707837E-07
    1.8067202160E-07    1.7712789060E-07    1.7365329371E-07    1.7024686657E-07
    1.6690727159E-07    1.6363319742E-07    1.6042335846E-07    1.5727649431E-07
    1.5419136933E-07    1.5116677211E-07    1.4820151499E-07    1.4529443366E-07
    1.4244438663E-07    1.3965025479E-07    1.3691094103E-07    1.3422536974E-07
    1.3159248642E-07    1.2901125727E-07    1.2648066877E-07    1.2399972728E-07
    1.2156745867E-07    1.1918290791E-07    1.1684513874E-07    1.1455323324E-07
    1.1230629151E-07    1.1010343131E-07    1.0794378771E-07    1.0582651277E-07
    1.0375077515E-07    1.0171575987E-07    9.9720667901E-08    9.7764715913E-08
    9.5847135944E-08    9.3967175101E-08    9.2124095264E-08    9.0317172796E-08
    8.8545698260E-08    8.6808976141E-08    8.5106324570E-08    8.3437075060E-08
    8.1800572239E-08    8.0196173596E-08    7.8623249227E-08    7.7081181590E-08
    7.5569365260E-08    7.4087206690E-08    7.2634123983E-08    7.1209546655E-08
    6.9812915423E-08    6.8443681974E-08    6.7101308756E-08    6.5785268764E-08
    6.4495045334E-08    6.3230131941E-08    6.1990031998E-08    6.0774258666E-08
    5.9582334653E-08    5.8413792038E-08    5.7268172076E-08    5.6145025028E-08
    5.5043909980E-08    5.3964394668E-08    5.2906055311E-08    5.1868476441E-08
    5.0851250745E-08    4.9853978902E-08    4.8876269427E-08    4.7917738515E-08
    4.6978009894E-08    4.6056714672E-08    4.5153491199E-08    4.4267984921E-08
    4.3399848240E-08    4.2548740377E-08    4.1714327243E-08    4.0896281301E-08
    4.0094281443E-08    3.9308012863E-08    3.8537166930E-08    3.7781441070E-08
    3.7040538643E-08    3.6314168834E-08    3.5602046532E-08    3.4903892220E-08
    3.4219431868E-08    3.3548396820E-08    3.2890523693E-08    3.2245554270E-08
    3.1613235404E-08    3.0993318913E-08    3.0385561485E-08    2.9789724583E-08
    2.9205574347E-08    2.8632881510E-08    2.8071421301E-08    2.7520973361E-08
    2.6981321653E-08    2.6452254380E-08    2.5933563899E-08    2.5425046643E-08
    2.4926503040E-08    2.4437737430E-08    2.3958557997E-08    2.3488776684E-08
    2.3028209126E-08    2.2576674577E-08    2.2133995833E-08    2.1699999172E-08
    2.1274514277E-08    2.0857374173E-08    2.0448415163E-08    2.0047476759E-08
    1.9654401626E-08    1.9269035511E-08    1.8891227192E-08    1.8520828410E-08
    1.8157693819E-08    1.7801680920E-08    1.7452650015E-08    1.7110464143E-08
    1.6774989032E-08    1.6446093043E-08    1.6123647121E-08    1.5807524742E-08
    1.5497601867E-08    1.5193756887E-08    1.4895870581E-08    1.4603826066E-08
    1.4317508753E-08    1.4036806301E-08    1.3761608574E-08    1.3491807595E-08
    1.3227297506E-08    1.2967974527E-08    1.2713736911E-08    1.2464484912E-08
    1.2220120737E-08    1.1980548513E-08    1.1745674248E-08    1.1515405793E-08
    1.1289652808E-08    1.1068326725E-08    1.0851340714E-08    1.0638609648E-08
    1.0430050070E-08    1.0225580159E-08    1.0025119703E-08    9.8285900590E-09
    9.6359141305E-09    9.4470163316E-09    9.2618225596E-09    9.0802601651E-09
    8.9022579250E-09    8.7277460128E-09    8.5566559721E-09    8.3889206891E-09
    8.2244743667E-09    8.0632524984E-09    7.9051918437E-09    7.7502304025E-09
    7.5983073909E-09    7.4493632173E-09    7.3033394594E-09    7.1601788403E-09
    7.0198252074E-09    6.8822235097E-09    6.7473197757E-09    6.6150610929E-09
    6.4853955867E-09    6.3582723998E-09    6.2336416727E-09    6.1114545245E-09
    5.9916630327E-09    5.8742202148E-09    5.7590800102E-09    5.6461972613E-09
    5.5355276967E-09    5.4270279136E-09    5.3206553603E-09    5.2163683200E-09
    5.1141258940E-09    5.0138879858E-09    4.9156152853E-09    4.8192692540E-09
    4.7248121092E-09    4.6322068090E-09    4.5414170383E-09    4.4524071944E-09
    4.3651423724E-09    4.2795883528E-09    4.1957115870E-09    4.1134791844E-09
    4.0328588997E-09    3.9538191199E-09    3.8763288520E-09    3.8003577109E-09
    3.7258759080E-09    3.6528542384E-09    3.5812640704E-09    3.5110773335E-09
    3.4422665082E-09    3.3748046142E-09    3.3086652010E-09    3.2438223366E-09
    3.1802505976E-09    3.1179250595E-09    3.0568212862E-09    2.9969153210E-09
    2.9381836774E-09    2.8806033292E-09    2.8241517021E-09    2.7688066644E-09
    2.7145465183E-09    2.6613499918E-09    2.6091962297E-09    2.5580647865E-09
    2.5079356172E-09    2.4587890702E-09    2.4106058789E-09    2.3633671550E-09
    2.3170543803E-09    2.2716493999E-09    2.2271344152E-09    2.1834919764E-09
    2.1407049759E-09    2.0987566418E-09    2.0576305308E-09    2.0173105223E-09
    1.9777808119E-09    1.9390259051E-09    1.9010306112E-09    1.8637800375E-09
    1.8272595832E-09    1.7914549339E-09    1.7563520559E-09    1.7219371909E-09
    1.6881968503E-09    1.6551178098E-09    1.6226871048E-09    1.5908920246E-09
    1.5597201079E-09    1.5291591378E-09    1.4991971369E-09    1.4698223630E-09
    1.4410233036E-09    1.4127886723E-09    1.3851074040E-09    1.3579686504E-09
    1.3313617763E-09    1.3052763546E-09    1.2797021631E-09    1.2546291797E-09
    1.2300475790E-09    1.2059477280E-09    1.1823201831E-09    1.1591556854E-09
    1.1364451579E-09    1.1141797013E-09    1.0923505910E-09    1.0709492733E-09
    1.0499673623E-09    1.0293966366E-09    1.0092290360E-09    9.8945665832E-10
    9.7007175622E-10    9.5106673439E-10    9.3243414636E-10    9.1416669165E-10
    8.9625721305E-10    8.7869869364E-10    8.6148425404E-10    8.4460714977E-10
    8.2806076857E-10    8.1183862780E-10    7.9593437196E-10    7.8034177020E-10
    7.6505471381E-10    7.5006721383E-10    7.3537339874E-10    7.2096751210E-10
    7.0684391031E-10    6.9299706049E-10    6.7942153822E-10    6.6611202545E-10
    6.5306330835E-10    6.4027027533E-10    6.2772791499E-10    6.1543131415E-10
    6.0337565602E-10    5.9155621826E-10    5.7996837108E-10    5.6860757545E-10
    5.5746938132E-10    5.4654942590E-10    5.3584343184E-10    5.2534720579E-10
    5.1505663655E-10    5.0496769351E-10    4.9507642508E-10    4.8537895713E-10
    4.7587149149E-10    4.6655030436E-10    4.5741174508E-10    4.4845223451E-10
    4.3966826366E-10    4.3105639233E-10    4.2261324774E-10    4.1433552326E-10
    4.0621997700E-10    3.9826343073E-10    3.9046276849E-10    3.8281493539E-10
    3.7531693641E-10    3.6796583526E-10    3.6075875320E-10    3.5369286787E-10
    3.4676541231E-10    3.3997367380E-10    3.3331499275E-10    3.2678676174E-10
    3.2038642442E-10    3.1411147458E-10    3.0795945508E-10    3.0192795701E-10
    2.9601461867E-10    2.9021712463E-10    2.8453320487E-10    2.7896063383E-10
    2.7349722959E-10    2.6814085298E-10    2.6288940677E-10    2.5774083487E-10
    2.5269312147E-10    2.4774429025E-10    2.4289240364E-10    2.3813556206E-10
    2.3347190312E-10    2.2889960095E-10    2.2441686551E-10    2.2002194181E-10
    2.1571310925E-10    2.1148868098E-10    2.0734700317E-10    2.0328645444E-10
    1.9930544514E-10    1.9540241683E-10    1.9157584161E-10    1.8782422151E-10
    1.8414608790E-10    1.8054000097E-10    1.7700454909E-10    1.7353834829E-10
   </PP_CHI.1>
   <PP_CHI.2
       type="real"
       size="1220"
       columns="4"
       index="2"
       occupation=" 4.000"
       pseudo_energy="   -0.3942402002E+01"
       label="3D"
       l="2" >
    6.6454433102E-12    6.8716469004E-06    5.4945769286E-05    1.8528790977E-04
    4.3869020084E-04    8.5553579851E-04    1.4756646781E-03    2.3382412379E-03
    3.4816241513E-03    4.9432388964E-03    6.7594533876E-03    8.9654571160E-03
    1.1595144198E-02    1.4681000714E-02    1.8253996704E-02    2.2343483172E-02
    2.6977094426E-02    3.2180656077E-02    3.7978098976E-02    4.4391379369E-02
    5.1440405515E-02    5.9142970993E-02    6.7514694900E-02    7.6568969113E-02
    8.6316912781E-02    9.6767334147E-02    1.0792669983E-01    1.1979911164E-01
    1.3238629093E-01    1.4568757056E-01    1.5969989449E-01    1.7441782487E-01
    1.8983355670E-01    2.0593693984E-01    2.2271550847E-01    2.4015451761E-01
    2.5823698678E-01    2.7694375047E-01    2.9625351537E-01    3.1614292391E-01
    3.3658662418E-01    3.5755734568E-01    3.7902598084E-01    4.0096167188E-01
    4.2333190275E-01    4.4610259587E-01    4.6923821323E-01    4.9270186161E-01
    5.1645540148E-01    5.4045955922E-01    5.6467404235E-01    5.8905765727E-01
    6.1356842922E-01    6.3816372397E-01    6.6280037099E-01    6.8743478747E-01
    7.1202310302E-01    7.3652128450E-01    7.6088526065E-01    7.8507104611E-01
    8.0903486438E-01    8.3273326949E-01    8.5612326583E-01    8.7916242592E-01
    9.0180900559E-01    9.2402205646E-01    9.4576153515E-01    9.6698840910E-01
    9.8766475849E-01    1.0077538742E+00    1.0272203513E+00    1.0460301779E+00
    1.0641508196E+00    1.0815512979E+00    1.0982022643E+00    1.1140760685E+00
    1.1291468208E+00    1.1433904493E+00    1.1567847503E+00    1.1693094336E+00
    1.1809461612E+00    1.1916785800E+00    1.2014923481E+00    1.2103751552E+00
    1.2183167369E+00    1.2253088820E+00    1.2313454346E+00    1.2364222897E+00
    1.2405373829E+00    1.2436906738E+00    1.2458841246E+00    1.2471216719E+00
    1.2474091938E+00    1.2467544716E+00    1.2451671463E+00    1.2426586699E+00
    1.2392422527E+00    1.2349328058E+00    1.2297468792E+00    1.2237025964E+00
    1.2168195849E+00    1.2091189040E+00    1.2006229686E+00    1.1913554712E+00
    1.1813413004E+00    1.1706064581E+00    1.1591779745E+00    1.1470838210E+00
    1.1343528228E+00    1.1210145701E+00    1.1070993284E+00    1.0926379488E+00
    1.0776617784E+00    1.0622025708E+00    1.0462923969E+00    1.0299635571E+00
    1.0132484943E+00    9.9617970854E-01    9.7878967273E-01    9.6111075108E-01
    9.4317511912E-01    9.2501468629E-01    9.0666102105E-01    8.8814527880E-01
    8.6949813268E-01    8.5074970758E-01    8.3192951729E-01    8.1306640518E-01
    7.9418848832E-01    7.7532310521E-01    7.5649676726E-01    7.3773511406E-01
    7.1906287236E-01    7.0050381912E-01    6.8208074824E-01    6.6381544132E-01
    6.4572864231E-01    6.2784003592E-01    6.1016822999E-01    5.9273074155E-01
    5.7554398660E-01    5.5862327362E-01    5.4198280046E-01    5.2563565489E-01
    5.0959381829E-01    4.9386817271E-01    4.7846851095E-01    4.6340354960E-01
    4.4868094495E-01    4.3430731153E-01    4.2028824312E-01    4.0662833623E-01
    3.9333121567E-01    3.8039956218E-01    3.6783514196E-01    3.5563883785E-01
    3.4381068208E-01    3.3234989033E-01    3.2125489701E-01    3.1052339162E-01
    3.0015235591E-01    2.9013810179E-01    2.8047630976E-01    2.7116206785E-01
    2.6218991068E-01    2.5355385878E-01    2.4524745778E-01    2.3726381760E-01
    2.2959565125E-01    2.2223531333E-01    2.1517483804E-01    2.0840597662E-01
    2.0192023407E-01    1.9570890515E-01    1.8976310951E-01    1.8407382598E-01
    1.7863192574E-01    1.7342820462E-01    1.6845341416E-01    1.6369829167E-01
    1.5915358903E-01    1.5481010031E-01    1.5065868818E-01    1.4669030908E-01
    1.4289603709E-01    1.3926708654E-01    1.3579483342E-01    1.3247083537E-01
    1.2928685055E-01    1.2623485513E-01    1.2330705963E-01    1.2049592396E-01
    1.1779417123E-01    1.1519480044E-01    1.1269109792E-01    1.1027664764E-01
    1.0794534043E-01    1.0569138205E-01    1.0350930020E-01    1.0139395051E-01
    9.9340521500E-02    9.7344538503E-02    9.5401866719E-02    9.3508713255E-02
    9.1661628288E-02    8.9857505341E-02    8.8093580685E-02    8.6367431910E-02
    8.4676975803E-02    8.3020464715E-02    8.1396483565E-02    7.9803945580E-02
    7.8242062965E-02    7.6710251179E-02    7.5207973071E-02    7.3734673532E-02
    7.2289796139E-02    7.0872813162E-02    6.9483202807E-02    6.8120450616E-02
    6.6784052395E-02    6.5473512601E-02    6.4188344491E-02    6.2928069970E-02
    6.1692219450E-02    6.0480331724E-02    5.9291953829E-02    5.8126640922E-02
    5.6983956149E-02    5.5863470516E-02    5.4764762769E-02    5.3687419264E-02
    5.2631033848E-02    5.1595207736E-02    5.0579549391E-02    4.9583674407E-02
    4.8607205390E-02    4.7649771843E-02    4.6711010051E-02    4.5790562970E-02
    4.4888080113E-02    4.4003217443E-02    4.3135637262E-02    4.2285008104E-02
    4.1451004632E-02    4.0633307530E-02    3.9831603402E-02    3.9045584671E-02
    3.8274949478E-02    3.7519401584E-02    3.6778650271E-02    3.6052410250E-02
    3.5340401562E-02    3.4642349488E-02    3.3957984457E-02    3.3287041953E-02
    3.2629262430E-02    3.1984391219E-02    3.1352178449E-02    3.0732378953E-02
    3.0124752192E-02    2.9529062170E-02    2.8945077349E-02    2.8372570575E-02
    2.7811318995E-02    2.7261103983E-02    2.6721711064E-02    2.6192929829E-02
    2.5674553875E-02    2.5166380726E-02    2.4668211760E-02    2.4179852144E-02
    2.3701110759E-02    2.3231800138E-02    2.2771736393E-02    2.2320739155E-02
    2.1878631503E-02    2.1445239908E-02    2.1020394164E-02    2.0603927331E-02
    2.0195675672E-02    1.9795478594E-02    1.9403178590E-02    1.9018621183E-02
    1.8641654868E-02    1.8272131057E-02    1.7909904024E-02    1.7554830853E-02
    1.7206771383E-02    1.6865588162E-02    1.6531146387E-02    1.6203313863E-02
    1.5881960950E-02    1.5566960515E-02    1.5258187884E-02    1.4955520799E-02
    1.4658839370E-02    1.4368026028E-02    1.4082965487E-02    1.3803544696E-02
    1.3529652796E-02    1.3261181084E-02    1.2998022966E-02    1.2740073921E-02
    1.2487231459E-02    1.2239395084E-02    1.1996466255E-02    1.1758348350E-02
    1.1524946627E-02    1.1296168192E-02    1.1071921959E-02    1.0852118618E-02
    1.0636670603E-02    1.0425492054E-02    1.0218498787E-02    1.0015608264E-02
    9.8167395561E-03    9.6218133167E-03    9.4307517499E-03    9.2434785806E-03
    9.0599190256E-03    8.8799997644E-03    8.7036489113E-03    8.5307959879E-03
    8.3613718958E-03    8.1953088899E-03    8.0325405526E-03    7.8730017677E-03
    7.7166286957E-03    7.5633587491E-03    7.4131305677E-03    7.2658839956E-03
    7.1215600572E-03    6.9801009349E-03    6.8414499464E-03    6.7055515224E-03
    6.5723511859E-03    6.4417955300E-03    6.3138321978E-03    6.1884098619E-03
    6.0654782042E-03    5.9449878964E-03    5.8268905809E-03    5.7111388517E-03
    5.5976862362E-03    5.4864871765E-03    5.3774970123E-03    5.2706719628E-03
    5.1659691101E-03    5.0633463818E-03    4.9627625351E-03    4.8641771401E-03
    4.7675505645E-03    4.6728439575E-03    4.5800192350E-03    4.4890390641E-03
    4.3998668491E-03    4.3124667164E-03    4.2268035011E-03    4.1428427323E-03
    4.0605506204E-03    3.9798940433E-03    3.9008405331E-03    3.8233582640E-03
    3.7474160390E-03    3.6729832781E-03    3.6000300059E-03    3.5285268400E-03
    3.4584449791E-03    3.3897561918E-03    3.3224328053E-03    3.2564476947E-03
    3.1917742718E-03    3.1283864750E-03    3.0662587586E-03    3.0053660830E-03
    2.9456839044E-03    2.8871881654E-03    2.8298552853E-03    2.7736621506E-03
    2.7185861058E-03    2.6646049449E-03    2.6116969017E-03    2.5598406418E-03
    2.5090152541E-03    2.4592002418E-03    2.4103755151E-03    2.3625213825E-03
    2.3156185435E-03    2.2696480803E-03    2.2245914507E-03    2.1804304807E-03
    2.1371473568E-03    2.0947246194E-03    2.0531451556E-03    2.0123921922E-03
    1.9724492891E-03    1.9333003331E-03    1.8949295306E-03    1.8573214021E-03
    1.8204607757E-03    1.7843327808E-03    1.7489228424E-03    1.7142166753E-03
    1.6802002781E-03    1.6468599278E-03    1.6141821742E-03    1.5821538345E-03
    1.5507619882E-03    1.5199939716E-03    1.4898373727E-03    1.4602800266E-03
    1.4313100104E-03    1.4029156381E-03    1.3750854564E-03    1.3478082397E-03
    1.3210729860E-03    1.2948689119E-03    1.2691854488E-03    1.2440122384E-03
    1.2193391283E-03    1.1951561684E-03    1.1714536067E-03    1.1482218850E-03
    1.1254516356E-03    1.1031336773E-03    1.0812590114E-03    1.0598188186E-03
    1.0388044551E-03    1.0182074493E-03    9.9801949805E-04    9.7823246367E-04
    9.5883837049E-04    9.3982940167E-04    9.2119789600E-04    9.0293634483E-04
    8.8503738906E-04    8.6749381612E-04    8.5029855709E-04    8.3344468383E-04
    8.1692540616E-04    8.0073406916E-04    7.8486415044E-04    7.6930925750E-04
    7.5406312517E-04    7.3911961307E-04    7.2447270311E-04    7.1011649706E-04
    6.9604521418E-04    6.8225318885E-04    6.6873486831E-04    6.5548481038E-04
    6.4249768130E-04    6.2976825352E-04    6.1729140361E-04    6.0506211021E-04
    5.9307545193E-04    5.8132660543E-04    5.6981084342E-04    5.5852353277E-04
    5.4746013261E-04    5.3661619250E-04    5.2598735067E-04    5.1556933217E-04
    5.0535794721E-04    4.9534908942E-04    4.8553873423E-04    4.7592293718E-04
    4.6649783239E-04    4.5725963092E-04    4.4820461930E-04    4.3932915801E-04
    4.3062967997E-04    4.2210268914E-04    4.1374475907E-04    4.0555253153E-04
    3.9752271517E-04    3.8965208413E-04    3.8193747678E-04    3.7437579444E-04
    3.6696400008E-04    3.5969911715E-04    3.5257822834E-04    3.4559847438E-04
    3.3875705294E-04    3.3205121744E-04    3.2547827596E-04    3.1903559016E-04
    3.1272057419E-04    3.0653069366E-04    3.0046346460E-04    2.9451645247E-04
    2.8868727115E-04    2.8297358202E-04    2.7737309296E-04    2.7188355746E-04
    2.6650277367E-04    2.6122858357E-04    2.5605887205E-04    2.5099156606E-04
    2.4602463379E-04    2.4115608382E-04    2.3638396434E-04    2.3170636235E-04
    2.2712140289E-04    2.2262724828E-04    2.1822209737E-04    2.1390418482E-04
    2.0967178038E-04    2.0552318820E-04    2.0145674613E-04    1.9747082508E-04
    1.9356382830E-04    1.8973419082E-04    1.8598037872E-04    1.8230088860E-04
    1.7869424692E-04    1.7515900942E-04    1.7169376052E-04    1.6829711280E-04
    1.6496770636E-04    1.6170420835E-04    1.5850531236E-04    1.5536973797E-04
    1.5229623015E-04    1.4928355884E-04    1.4633051836E-04    1.4343592700E-04
    1.4059862652E-04    1.3781748167E-04    1.3509137974E-04    1.3241923010E-04
    1.2979996379E-04    1.2723253306E-04    1.2471591097E-04    1.2224909095E-04
    1.1983108642E-04    1.1746093037E-04    1.1513767498E-04    1.1286039126E-04
    1.1062816863E-04    1.0844011459E-04    1.0629535436E-04    1.0419303048E-04
    1.0213230255E-04    1.0011234680E-04    9.8132355827E-05    9.6191538233E-05
    9.4289118319E-05    9.2424335774E-05    9.0596445365E-05    8.8804716637E-05
    8.7048433623E-05    8.5326894553E-05    8.3639411571E-05    8.1985310461E-05
    8.0363930375E-05    7.8774623566E-05    7.7216755130E-05    7.5689702748E-05
    7.4192856437E-05    7.2725618307E-05    7.1287402317E-05    6.9877634042E-05
    6.8495750443E-05    6.7141199637E-05    6.5813440681E-05    6.4511943347E-05
    6.3236187919E-05    6.1985664976E-05    6.0759875191E-05    5.9558329130E-05
    5.8380547056E-05    5.7226058736E-05    5.6094403253E-05    5.4985128820E-05
    5.3897792599E-05    5.2831960524E-05    5.1787207126E-05    5.0763115365E-05
    4.9759276458E-05    4.8775289719E-05    4.7810762397E-05    4.6865309518E-05
    4.5938553733E-05    4.5030125164E-05    4.4139661257E-05    4.3266806636E-05
    4.2411212962E-05    4.1572538793E-05    4.0750449445E-05    3.9944616862E-05
    3.9154719481E-05    3.8380442106E-05    3.7621475778E-05    3.6877517656E-05
    3.6148270892E-05    3.5433444516E-05    3.4732753313E-05    3.4045917716E-05
    3.3372663690E-05    3.2712722624E-05    3.2065831223E-05    3.1431731401E-05
    3.0810170181E-05    3.0200899591E-05    2.9603676567E-05    2.9018262853E-05
    2.8444424908E-05    2.7881933813E-05    2.7330565178E-05    2.6790099051E-05
    2.6260319834E-05    2.5741016192E-05    2.5231980974E-05    2.4733011125E-05
    2.4243907607E-05    2.3764475322E-05    2.3294523028E-05    2.2833863268E-05
    2.2382312293E-05    2.1939689989E-05    2.1505819805E-05    2.1080528679E-05
    2.0663646978E-05    2.0255008418E-05    1.9854450009E-05    1.9461811981E-05
    1.9076937727E-05    1.8699673734E-05    1.8329869529E-05    1.7967377612E-05
    1.7612053400E-05    1.7263755173E-05    1.6922344009E-05    1.6587683736E-05
    1.6259640874E-05    1.5938084584E-05    1.5622886613E-05    1.5313921245E-05
    1.5011065248E-05    1.4714197829E-05    1.4423200584E-05    1.4137957448E-05
    1.3858354653E-05    1.3584280680E-05    1.3315626215E-05    1.3052284104E-05
    1.2794149316E-05    1.2541118892E-05    1.2293091911E-05    1.2049969447E-05
    1.1811654531E-05    1.1578052109E-05    1.1349069010E-05    1.1124613901E-05
    1.0904597257E-05    1.0688931323E-05    1.0477530080E-05    1.0270309206E-05
    1.0067186051E-05    9.8680795951E-06    9.6729104224E-06    9.4816006863E-06
    9.2940740794E-06    9.1102558031E-06    8.9300725374E-06    8.7534524119E-06
    8.5803249770E-06    8.4106211761E-06    8.2442733178E-06    8.0812150486E-06
    7.9213813274E-06    7.7647083983E-06    7.6111337665E-06    7.4605961721E-06
    7.3130355666E-06    7.1683930886E-06    7.0266110404E-06    6.8876328648E-06
    6.7514031229E-06    6.6178674716E-06    6.4869726422E-06    6.3586664192E-06
    6.2328976193E-06    6.1096160710E-06    5.9887725947E-06    5.8703189830E-06
    5.7542079817E-06    5.6403932705E-06    5.5288294452E-06    5.4194719989E-06
    5.3122773046E-06    5.2072025980E-06    5.1042059601E-06    5.0032463004E-06
    4.9042833411E-06    4.8072776005E-06    4.7121903775E-06    4.6189837358E-06
    4.5276204896E-06    4.4380641879E-06    4.3502791004E-06    4.2642302032E-06
    4.1798831648E-06    4.0972043325E-06    4.0161607187E-06    3.9367199882E-06
    3.8588504450E-06    3.7825210196E-06    3.7077012570E-06    3.6343613041E-06
    3.5624718979E-06    3.4920043544E-06    3.4229305561E-06    3.3552229419E-06
    3.2888544953E-06    3.2237987340E-06    3.1600296994E-06    3.0975219458E-06
    3.0362505310E-06    2.9761910056E-06    2.9173194038E-06    2.8596122335E-06
    2.8030464672E-06    2.7475995324E-06    2.6932493032E-06    2.6399740911E-06
    2.5877526364E-06    2.5365640995E-06    2.4863880531E-06    2.4372044738E-06
    2.3889937340E-06    2.3417365942E-06    2.2954141952E-06    2.2500080510E-06
    2.2055000406E-06    2.1618724019E-06    2.1191077235E-06    2.0771889385E-06
    2.0360993175E-06    1.9958224618E-06    1.9563422969E-06    1.9176430662E-06
    1.8797093248E-06    1.8425259328E-06    1.8060780502E-06    1.7703511300E-06
    1.7353309130E-06    1.7010034221E-06    1.6673549563E-06    1.6343720857E-06
    1.6020416459E-06    1.5703507329E-06    1.5392866979E-06    1.5088371419E-06
    1.4789899115E-06    1.4497330934E-06    1.4210550098E-06    1.3929442141E-06
    1.3653894858E-06    1.3383798265E-06    1.3119044551E-06    1.2859528037E-06
    1.2605145137E-06    1.2355794308E-06    1.2111376021E-06    1.1871792710E-06
    1.1636948743E-06    1.1406750375E-06    1.1181105718E-06    1.0959924701E-06
    1.0743119031E-06    1.0530602166E-06    1.0322289271E-06    1.0118097192E-06
    9.9179444179E-07    9.7217510495E-07    9.5294387684E-07    9.3409308049E-07
    9.1561519076E-07    8.9750283133E-07    8.7974877177E-07    8.6234592462E-07
    8.4528734263E-07    8.2856621594E-07    8.1217586937E-07    7.9610975974E-07
    7.8036147331E-07    7.6492472318E-07    7.4979334678E-07    7.3496130345E-07
    7.2042267199E-07    7.0617164829E-07    6.9220254308E-07    6.7850977958E-07
    6.6508789134E-07    6.5193152000E-07    6.3903541320E-07    6.2639442246E-07
    6.1400350114E-07    6.0185770241E-07    5.8995217729E-07    5.7828217270E-07
    5.6684302960E-07    5.5563018106E-07    5.4463915052E-07    5.3386554994E-07
    5.2330507810E-07    5.1295351883E-07    5.0280673938E-07    4.9286068874E-07
    4.8311139600E-07    4.7355496884E-07    4.6418759190E-07    4.5500552532E-07
    4.4600510318E-07    4.3718273209E-07    4.2853488975E-07    4.2005812352E-07
    4.1174904907E-07    4.0360434899E-07    3.9562077151E-07    3.8779512919E-07
    3.8012429762E-07    3.7260521422E-07    3.6523487697E-07    3.5801034323E-07
    3.5092872860E-07    3.4398720572E-07    3.3718300315E-07    3.3051340429E-07
    3.2397574626E-07    3.1756741887E-07    3.1128586358E-07    3.0512857243E-07
    2.9909308708E-07    2.9317699785E-07    2.8737794269E-07    2.8169360631E-07
    2.7612171920E-07    2.7066005674E-07    2.6530643834E-07    2.6005872653E-07
    2.5491482614E-07    2.4987268344E-07    2.4493028533E-07    2.4008565851E-07
    2.3533686877E-07    2.3068202011E-07    2.2611925408E-07    2.2164674896E-07
    2.1726271909E-07    2.1296541414E-07    2.0875311840E-07    2.0462415008E-07
    2.0057686071E-07    1.9660963438E-07    1.9272088718E-07    1.8890906652E-07
    1.8517265055E-07    1.8151014749E-07    1.7792009510E-07    1.7440106005E-07
    1.7095163739E-07    1.6757044994E-07    1.6425614778E-07    1.6100740769E-07
    1.5782293263E-07    1.5470145123E-07    1.5164171725E-07    1.4864250912E-07
    1.4570262944E-07    1.4282090449E-07    1.3999618378E-07    1.3722733957E-07
    1.3451326644E-07    1.3185288084E-07    1.2924512066E-07    1.2668894478E-07
    1.2418333270E-07    1.2172728410E-07    1.1931981847E-07    1.1695997466E-07
    1.1464681058E-07    1.1237940273E-07    1.1015684593E-07    1.0797825288E-07
    1.0584275383E-07    1.0374949625E-07    1.0169764448E-07    9.9686379380E-08
    9.7714898024E-08    9.5782413368E-08    9.3888153940E-08    9.2031363534E-08
    9.0211300901E-08    8.8427239460E-08    8.6678467001E-08    8.4964285407E-08
    8.3284010373E-08    8.1636971133E-08    8.0022510192E-08    7.8439983059E-08
    7.6888757998E-08    7.5368215769E-08    7.3877749385E-08    7.2416763869E-08
    7.0984676012E-08    6.9580914144E-08    6.8204917905E-08    6.6856138024E-08
    6.5534036095E-08    6.4238084364E-08    6.2967765519E-08    6.1722572479E-08
    6.0502008201E-08    5.9305585472E-08    5.8132826719E-08    5.6983263819E-08
    5.5856437906E-08    5.4751899196E-08    5.3669206804E-08    5.2607928566E-08
    5.1567640868E-08    5.0547928478E-08    4.9548384377E-08    4.8568609600E-08
    4.7608213076E-08    4.6666811469E-08    4.5744029029E-08    4.4839497438E-08
    4.3952855665E-08    4.3083749823E-08    4.2231833025E-08    4.1396765249E-08
    4.0578213197E-08    3.9775850166E-08    3.8989355917E-08    3.8218416547E-08
    3.7462724362E-08    3.6721977757E-08    3.5995881092E-08    3.5284144576E-08
    3.4586484152E-08    3.3902621384E-08    3.3232283342E-08    3.2575202498E-08
    3.1931116613E-08    3.1299768639E-08    3.0680906614E-08    3.0074283559E-08
    2.9479657381E-08    2.8896790777E-08    2.8325451138E-08    2.7765410458E-08
    2.7216445242E-08    2.6678336414E-08    2.6150869235E-08    2.5633833213E-08
    2.5127022018E-08    2.4630233406E-08    2.4143269131E-08    2.3665934871E-08
    2.3198040146E-08    2.2739398246E-08    2.2289826154E-08    2.1849144473E-08
    2.1417177356E-08    2.0993752436E-08    2.0578700753E-08    2.0171856691E-08
    1.9773057910E-08    1.9382145282E-08    1.8998962826E-08    1.8623357649E-08
    1.8255179880E-08    1.7894282613E-08    1.7540521849E-08    1.7193756439E-08
    1.6853848024E-08    1.6520660982E-08    1.6194062377E-08    1.5873921898E-08
    1.5560111816E-08    1.5252506926E-08    1.4950984502E-08    1.4655424244E-08
    1.4365708232E-08    1.4081720879E-08    1.3803348886E-08    1.3530481192E-08
    1.3263008937E-08    1.3000825410E-08    1.2743826014E-08    1.2491908220E-08
    1.2244971527E-08    1.2002917423E-08    1.1765649344E-08    1.1533072637E-08
    1.1305094519E-08    1.1081624045E-08    1.0862572067E-08    1.0647851202E-08
    1.0437375794E-08    1.0231061884E-08    1.0028827171E-08    9.8305909818E-09
    9.6362742412E-09    9.4457994371E-09    9.2590905904E-09    9.0760732251E-09
    8.8966743382E-09    8.7208223706E-09    8.5484471791E-09    8.3794800080E-09
    8.2138534611E-09    8.0515014758E-09    7.8923592956E-09    7.7363634450E-09
    7.5834517045E-09    7.4335630851E-09    7.2866378041E-09    7.1426172612E-09
    7.0014440153E-09    6.8630617608E-09    6.7274153068E-09    6.5944505536E-09
    6.4641144716E-09    6.3363550800E-09    6.2111214261E-09    6.0883635646E-09
    5.9680325389E-09    5.8500803603E-09    5.7344599893E-09    5.6211253167E-09
    5.5100311453E-09    5.4011331716E-09    5.2943879685E-09    5.1897529683E-09
    5.0871864447E-09    4.9866474968E-09    4.8880960326E-09    4.7914927529E-09
    4.6967991358E-09    4.6039774217E-09    4.5129905975E-09    4.4238023820E-09
    4.3363772118E-09    4.2506802267E-09    4.1666772556E-09    4.0843348040E-09
    4.0036200394E-09    3.9245007786E-09    3.8469454750E-09    3.7709232059E-09
    3.6964036597E-09    3.6233571249E-09    3.5517544774E-09    3.4815671691E-09
    3.4127672163E-09    3.3453271890E-09    3.2792201993E-09    3.2144198911E-09
    3.1509004300E-09    3.0886364920E-09    3.0276032543E-09    2.9677763846E-09
    2.9091320319E-09    2.8516468169E-09    2.7952978228E-09    2.7400625859E-09
    2.6859190866E-09    2.6328457410E-09    2.5808213918E-09    2.5298253000E-09
    2.4798371370E-09    2.4308369761E-09    2.3828052847E-09    2.3357229163E-09
    2.2895711031E-09    2.2443314485E-09    2.1999859193E-09    2.1565168395E-09
    2.1139068824E-09    2.0721390637E-09    2.0311967352E-09    1.9910635778E-09
    1.9517235950E-09    1.9131611067E-09    1.8753607431E-09    1.8383074379E-09
    1.8019864231E-09    1.7663832224E-09    1.7314836459E-09    1.6972737841E-09
    1.6637400029E-09    1.6308689375E-09    1.5986474875E-09    1.5670628114E-09
    1.5361023218E-09    1.5057536798E-09    1.4760047909E-09    1.4468437997E-09
    1.4182590850E-09    1.3902392555E-09    1.3627731452E-09    1.3358498086E-09
    1.3094585168E-09    1.2835887531E-09    1.2582302086E-09    1.2333727785E-09
    1.2090065573E-09    1.1851218359E-09    1.1617090967E-09    1.1387590104E-09
    1.1162624323E-09    1.0942103985E-09    1.0725941221E-09    1.0514049903E-09
    1.0306345601E-09    1.0102745558E-09    9.9031686502E-10    9.7075353614E-10
    9.5157677449E-10    9.3277893956E-10    9.1435254190E-10    8.9629024010E-10
    8.7858483780E-10    8.6122928114E-10    8.4421665560E-10    8.2754018334E-10
    8.1119322053E-10    7.9516925470E-10    7.7946190206E-10    7.6406490504E-10
    7.4897212988E-10    7.3417756401E-10    7.1967531373E-10    7.0545960185E-10
    6.9152476537E-10    6.7786525322E-10    6.6447562408E-10    6.5135054428E-10
    6.3848478552E-10    6.2587322287E-10    6.1351083269E-10    6.0139269066E-10
    5.8951396975E-10    5.7786993842E-10    5.6645595867E-10    5.5526748417E-10
    5.4430005845E-10    5.3354931312E-10    5.2301096615E-10    5.1268082010E-10
    5.0255476058E-10    4.9262875454E-10    4.8289884862E-10    4.7336116760E-10
    4.6401191285E-10    4.5484736085E-10    4.4586386161E-10    4.3705783738E-10
    4.2842578112E-10    4.1996425508E-10    4.1166988947E-10    4.0353938111E-10
    3.9556949209E-10    3.8775704848E-10    3.8009893913E-10    3.7259211441E-10
    3.6523358493E-10    3.5802042037E-10    3.5094974836E-10    3.4401875327E-10
    3.3722467510E-10    3.3056480848E-10    3.2403650148E-10    3.1763715456E-10
    3.1136421960E-10    3.0521519880E-10    2.9918764374E-10    2.9327915436E-10
    2.8748737810E-10    2.8181000887E-10    2.7624478617E-10    2.7078949414E-10
    2.6544196075E-10    2.6020005687E-10    2.5506169543E-10    2.5002483066E-10
    2.4508745720E-10    2.4024760933E-10    2.3550336017E-10    2.3085282092E-10
    2.2629414011E-10    2.2182550283E-10    2.1744513007E-10    2.1315127800E-10
    2.0894223721E-10    2.0481633211E-10    2.0077192020E-10    1.9680739142E-10
    1.9292116755E-10    1.8911170154E-10    1.8537747696E-10    1.8171700732E-10
    1.7812883550E-10    1.7461153317E-10    1.7116370024E-10    1.6778396428E-10
    1.6447097995E-10    1.6122342855E-10    1.5804001742E-10    1.5491947945E-10
    1.5186057256E-10    1.4886207920E-10    1.4592280589E-10    1.4304158272E-10
   </PP_CHI.2>
   <PP_CHI.3
       type="real"
       size="1220"
       columns="4"
       index="3"
       occupation=" 2.000"
       pseudo_energy="   -0.1270240365E+01"
       label="4S"
       l="0" >
    3.8934133695E-13    4.6351533815E-03    9.2726602754E-03    1.3914867483E-02
    1.8564108409E-02    2.3222696429E-02    2.7892918333E-02    3.2577027868E-02
    3.7277239417E-02    4.1995721813E-02    4.6734592344E-02    5.1495910947E-02
    5.6281674615E-02    6.1093812055E-02    6.5934178600E-02    7.0804551391E-02
    7.5706624867E-02    8.0642006558E-02    8.5612213198E-02    9.0618667189E-02
    9.5662693401E-02    1.0074551634E-01    1.0586825769E-01    1.1103193418E-01
    1.1623745594E-01    1.2148562511E-01    1.2677713489E-01    1.3211256903E-01
    1.3749240158E-01    1.4291699715E-01    1.4838661140E-01    1.5390139206E-01
    1.5946138013E-01    1.6506651159E-01    1.7071661934E-01    1.7641143548E-01
    1.8215059392E-01    1.8793363331E-01    1.9376000013E-01    1.9962905218E-01
    2.0554006219E-01    2.1149222175E-01    2.1748464531E-01    2.2351637447E-01
    2.2958638237E-01    2.3569357818E-01    2.4183681176E-01    2.4801487832E-01
    2.5422652321E-01    2.6047044669E-01    2.6674530872E-01    2.7304973374E-01
    2.7938231540E-01    2.8574162122E-01    2.9212619716E-01    2.9853457212E-01
    3.0496526221E-01    3.1141677498E-01    3.1788761337E-01    3.2437627959E-01
    3.3088127864E-01    3.3740112169E-01    3.4393432926E-01    3.5047943400E-01
    3.5703498335E-01    3.6359954180E-01    3.7017169293E-01    3.7675004113E-01
    3.8333321298E-01    3.8991985839E-01    3.9650865133E-01    4.0309829034E-01
    4.0968749864E-01    4.1627502400E-01    4.2285963822E-01    4.2944013637E-01
    4.3601533572E-01    4.4258407434E-01    4.4914520945E-01    4.5569761553E-01
    4.6224018211E-01    4.6877181139E-01    4.7529141554E-01    4.8179791396E-01
    4.8829023013E-01    4.9476728850E-01    5.0122801110E-01    5.0767131408E-01
    5.1409610414E-01    5.2050127485E-01    5.2688570297E-01    5.3324824471E-01
    5.3958773195E-01    5.4590296852E-01    5.5219272655E-01    5.5845574278E-01
    5.6469071512E-01    5.7089629915E-01    5.7707110493E-01    5.8321369386E-01
    5.8932257577E-01    5.9539620624E-01    6.0143298411E-01    6.0743124929E-01
    6.1338928078E-01    6.1930529509E-01    6.2517744482E-01    6.3100381770E-01
    6.3678243593E-01    6.4251125577E-01    6.4818816769E-01    6.5381099669E-01
    6.5937750314E-01    6.6488538396E-01    6.7033227417E-01    6.7571574885E-01
    6.8103332552E-01    6.8628246687E-01    6.9146058388E-01    6.9656503939E-01
    7.0159315194E-01    7.0654220007E-01    7.1140942693E-01    7.1619204522E-01
    7.2088724254E-01    7.2549218693E-01    7.3000403282E-01    7.3441992717E-01
    7.3873701593E-01    7.4295245069E-01    7.4706339555E-01    7.5106703420E-01
    7.5496057708E-01    7.5874126877E-01    7.6240639542E-01    7.6595329228E-01
    7.6937935121E-01    7.7268202834E-01    7.7585885153E-01    7.7890742796E-01
    7.8182545149E-01    7.8461071004E-01    7.8726109270E-01    7.8977459679E-01
    7.9214933463E-01    7.9438354010E-01    7.9647557498E-01    7.9842393490E-01
    8.0022725513E-01    8.0188431583E-01    8.0339404710E-01    8.0475553357E-01
    8.0596801851E-01    8.0703090765E-01    8.0794377240E-01    8.0870635266E-01
    8.0931855918E-01    8.0978047530E-01    8.1009235830E-01    8.1025464015E-01
    8.1026792773E-01    8.1013300253E-01    8.0985081981E-01    8.0942250716E-01
    8.0884936260E-01    8.0813285208E-01    8.0727460643E-01    8.0627641783E-01
    8.0514023571E-01    8.0386816219E-01    8.0246244697E-01    8.0092548176E-01
    7.9925979430E-01    7.9746804182E-01    7.9555300421E-01    7.9351757667E-01
    7.9136476211E-01    7.8909766309E-01    7.8671947351E-01    7.8423346999E-01
    7.8164300298E-01    7.7895148769E-01    7.7616239478E-01    7.7327924088E-01
    7.7030557905E-01    7.6724498909E-01    7.6410106785E-01    7.6087741944E-01
    7.5757764557E-01    7.5420533584E-01    7.5076405821E-01    7.4725734951E-01
    7.4368870622E-01    7.4006157534E-01    7.3637934556E-01    7.3264533868E-01
    7.2886280131E-01    7.2503489695E-01    7.2116469835E-01    7.1725518035E-01
    7.1330921304E-01    7.0932955544E-01    7.0531884960E-01    7.0127961514E-01
    6.9721424435E-01    6.9312499785E-01    6.8901400082E-01    6.8488323972E-01
    6.8073455962E-01    6.7656966223E-01    6.7239010411E-01    6.6819729559E-01
    6.6399250954E-01    6.5977691607E-01    6.5555164112E-01    6.5131779176E-01
    6.4707645059E-01    6.4282866470E-01    6.3857545477E-01    6.3431781500E-01
    6.3005671246E-01    6.2579308812E-01    6.2152785732E-01    6.1726191020E-01
    6.1299611219E-01    6.0873130456E-01    6.0446830482E-01    6.0020790724E-01
    5.9595088328E-01    5.9169798208E-01    5.8744993089E-01    5.8320743554E-01
    5.7897118085E-01    5.7474183110E-01    5.7052003040E-01    5.6630640319E-01
    5.6210155459E-01    5.5790607084E-01    5.5372051970E-01    5.4954545084E-01
    5.4538139622E-01    5.4122887051E-01    5.3708837141E-01    5.3296038009E-01
    5.2884536149E-01    5.2474376472E-01    5.2065602341E-01    5.1658255603E-01
    5.1252376626E-01    5.0848004330E-01    5.0445176223E-01    5.0043928431E-01
    4.9644295728E-01    4.9246311572E-01    4.8850008131E-01    4.8455416315E-01
    4.8062565807E-01    4.7671485088E-01    4.7282201468E-01    4.6894741113E-01
    4.6509129073E-01    4.6125389307E-01    4.5743544713E-01    4.5363617148E-01
    4.4985627458E-01    4.4609595501E-01    4.4235540171E-01    4.3863479420E-01
    4.3493430286E-01    4.3125408913E-01    4.2759430570E-01    4.2395509679E-01
    4.2033659833E-01    4.1673893817E-01    4.1316223630E-01    4.0960660502E-01
    4.0607214919E-01    4.0255896637E-01    3.9906714704E-01    3.9559677477E-01
    3.9214792641E-01    3.8872067227E-01    3.8531507628E-01    3.8193119616E-01
    3.7856908362E-01    3.7522878448E-01    3.7191033883E-01    3.6861378122E-01
    3.6533914080E-01    3.6208644145E-01    3.5885570194E-01    3.5564693606E-01
    3.5246015280E-01    3.4929535644E-01    3.4615254669E-01    3.4303171884E-01
    3.3993286389E-01    3.3685596866E-01    3.3380101590E-01    3.3076798444E-01
    3.2775684930E-01    3.2476758177E-01    3.2180014957E-01    3.1885451693E-01
    3.1593064472E-01    3.1302849051E-01    3.1014800872E-01    3.0728915070E-01
    3.0445186482E-01    3.0163609659E-01    2.9884178870E-01    2.9606888120E-01
    2.9331731148E-01    2.9058701447E-01    2.8787792262E-01    2.8518996606E-01
    2.8252307264E-01    2.7987716803E-01    2.7725217579E-01    2.7464801744E-01
    2.7206461253E-01    2.6950187874E-01    2.6695973193E-01    2.6443808619E-01
    2.6193685395E-01    2.5945594603E-01    2.5699527166E-01    2.5455473862E-01
    2.5213425326E-01    2.4973372053E-01    2.4735304409E-01    2.4499212637E-01
    2.4265086857E-01    2.4032917075E-01    2.3802693191E-01    2.3574404997E-01
    2.3348042190E-01    2.3123594371E-01    2.2901051052E-01    2.2680401663E-01
    2.2461635552E-01    2.2244741993E-01    2.2029710187E-01    2.1816529271E-01
    2.1605188318E-01    2.1395676344E-01    2.1187982308E-01    2.0982095120E-01
    2.0778003644E-01    2.0575696698E-01    2.0375163062E-01    2.0176391480E-01
    1.9979370662E-01    1.9784089288E-01    1.9590536014E-01    1.9398699471E-01
    1.9208568268E-01    1.9020131000E-01    1.8833376245E-01    1.8648292571E-01
    1.8464868535E-01    1.8283092689E-01    1.8102953583E-01    1.7924439761E-01
    1.7747539772E-01    1.7572242168E-01    1.7398535506E-01    1.7226408350E-01
    1.7055849277E-01    1.6886846874E-01    1.6719389742E-01    1.6553466500E-01
    1.6389065785E-01    1.6226176252E-01    1.6064786579E-01    1.5904885470E-01
    1.5746461650E-01    1.5589503874E-01    1.5434000923E-01    1.5279941612E-01
    1.5127314782E-01    1.4976109312E-01    1.4826314113E-01    1.4677918130E-01
    1.4530910349E-01    1.4385279791E-01    1.4241015516E-01    1.4098106628E-01
    1.3956542270E-01    1.3816311627E-01    1.3677403930E-01    1.3539808453E-01
    1.3403514517E-01    1.3268511490E-01    1.3134788785E-01    1.3002335866E-01
    1.2871142244E-01    1.2741197483E-01    1.2612491194E-01    1.2485013042E-01
    1.2358752743E-01    1.2233700067E-01    1.2109844836E-01    1.1987176925E-01
    1.1865686266E-01    1.1745362845E-01    1.1626196703E-01    1.1508177937E-01
    1.1391296702E-01    1.1275543207E-01    1.1160907722E-01    1.1047380571E-01
    1.0934952138E-01    1.0823612864E-01    1.0713353252E-01    1.0604163859E-01
    1.0496035305E-01    1.0388958268E-01    1.0282923485E-01    1.0177921753E-01
    1.0073943931E-01    9.9709809355E-02    9.8690237446E-02    9.7680633967E-02
    9.6680909908E-02    9.5690976862E-02    9.4710747033E-02    9.3740133230E-02
    9.2779048870E-02    9.1827407980E-02    9.0885125194E-02    8.9952115754E-02
    8.9028295513E-02    8.8113580930E-02    8.7207889070E-02    8.6311137608E-02
    8.5423244824E-02    8.4544129605E-02    8.3673711440E-02    8.2811910424E-02
    8.1958647255E-02    8.1113843231E-02    8.0277420250E-02    7.9449300812E-02
    7.8629408009E-02    7.7817665534E-02    7.7013997671E-02    7.6218329296E-02
    7.5430585877E-02    7.4650693470E-02    7.3878578717E-02    7.3114168846E-02
    7.2357391666E-02    7.1608175566E-02    7.0866449515E-02    7.0132143054E-02
    6.9405186301E-02    6.8685509942E-02    6.7973045233E-02    6.7267723995E-02
    6.6569478612E-02    6.5878242029E-02    6.5193947749E-02    6.4516529829E-02
    6.3845922879E-02    6.3182062060E-02    6.2524883075E-02    6.1874322177E-02
    6.1230316155E-02    6.0592802338E-02    5.9961718590E-02    5.9337003305E-02
    5.8718595408E-02    5.8106434348E-02    5.7500460099E-02    5.6900613152E-02
    5.6306834517E-02    5.5719065713E-02    5.5137248775E-02    5.4561326239E-02
    5.3991241150E-02    5.3426937048E-02    5.2868357976E-02    5.2315448466E-02
    5.1768153544E-02    5.1226418722E-02    5.0690189996E-02    5.0159413843E-02
    4.9634037219E-02    4.9114007553E-02    4.8599272745E-02    4.8089781163E-02
    4.7585481639E-02    4.7086323467E-02    4.6592256398E-02    4.6103230638E-02
    4.5619196844E-02    4.5140106121E-02    4.4665910017E-02    4.4196560523E-02
    4.3732010069E-02    4.3272211517E-02    4.2817118163E-02    4.2366683728E-02
    4.1920862361E-02    4.1479608630E-02    4.1042877524E-02    4.0610624445E-02
    4.0182805207E-02    3.9759376034E-02    3.9340293554E-02    3.8925514798E-02
    3.8514997196E-02    3.8108698572E-02    3.7706577145E-02    3.7308591523E-02
    3.6914700698E-02    3.6524864049E-02    3.6139041333E-02    3.5757192682E-02
    3.5379278605E-02    3.5005259980E-02    3.4635098053E-02    3.4268754436E-02
    3.3906191100E-02    3.3547370377E-02    3.3192254952E-02    3.2840807865E-02
    3.2492992504E-02    3.2148772605E-02    3.1808112245E-02    3.1470975845E-02
    3.1137328162E-02    3.0807134289E-02    3.0480359649E-02    3.0156969996E-02
    2.9836931410E-02    2.9520210294E-02    2.9206773373E-02    2.8896587688E-02
    2.8589620597E-02    2.8285839769E-02    2.7985213184E-02    2.7687709127E-02
    2.7393296190E-02    2.7101943263E-02    2.6813619539E-02    2.6528294504E-02
    2.6245937939E-02    2.5966519916E-02    2.5690010795E-02    2.5416381222E-02
    2.5145602126E-02    2.4877644719E-02    2.4612480487E-02    2.4350081196E-02
    2.4090418883E-02    2.3833465856E-02    2.3579194692E-02    2.3327578233E-02
    2.3078589585E-02    2.2832202116E-02    2.2588389452E-02    2.2347125475E-02
    2.2108384322E-02    2.1872140381E-02    2.1638368290E-02    2.1407042934E-02
    2.1178139443E-02    2.0951633189E-02    2.0727499787E-02    2.0505715087E-02
    2.0286255176E-02    2.0069096377E-02    1.9854215242E-02    1.9641588554E-02
    1.9431193323E-02    1.9223006785E-02    1.9017006399E-02    1.8813169845E-02
    1.8611475022E-02    1.8411900047E-02    1.8214423252E-02    1.8019023180E-02
    1.7825678589E-02    1.7634368442E-02    1.7445071913E-02    1.7257768379E-02
    1.7072437421E-02    1.6889058822E-02    1.6707612563E-02    1.6528078824E-02
    1.6350437981E-02    1.6174670603E-02    1.6000757453E-02    1.5828679483E-02
    1.5658417833E-02    1.5489953831E-02    1.5323268991E-02    1.5158345007E-02
    1.4995163758E-02    1.4833707302E-02    1.4673957875E-02    1.4515897888E-02
    1.4359509929E-02    1.4204776758E-02    1.4051681307E-02    1.3900206679E-02
    1.3750336142E-02    1.3602053134E-02    1.3455341257E-02    1.3310184276E-02
    1.3166566120E-02    1.3024470875E-02    1.2883882788E-02    1.2744786265E-02
    1.2607165865E-02    1.2471006303E-02    1.2336292447E-02    1.2203009315E-02
    1.2071142077E-02    1.1940676050E-02    1.1811596700E-02    1.1683889638E-02
    1.1557540618E-02    1.1432535538E-02    1.1308860438E-02    1.1186501499E-02
    1.1065445039E-02    1.0945677515E-02    1.0827185519E-02    1.0709955779E-02
    1.0593975157E-02    1.0479230646E-02    1.0365709372E-02    1.0253398588E-02
    1.0142285678E-02    1.0032358154E-02    9.9236036502E-03    9.8160099297E-03
    9.7095648774E-03    9.6042565011E-03    9.5000729297E-03    9.3970024124E-03
    9.2950333174E-03    9.1941541304E-03    9.0943534542E-03    8.9956200068E-03
    8.8979426207E-03    8.8013102417E-03    8.7057119279E-03    8.6111368483E-03
    8.5175742821E-03    8.4250136173E-03    8.3334443499E-03    8.2428560827E-03
    8.1532385244E-03    8.0645814883E-03    7.9768748914E-03    7.8901087537E-03
    7.8042731968E-03    7.7193584428E-03    7.6353548138E-03    7.5522527307E-03
    7.4700427121E-03    7.3887153733E-03    7.3082614258E-03    7.2286716758E-03
    7.1499370237E-03    7.0720484628E-03    6.9949970787E-03    6.9187740483E-03
    6.8433706389E-03    6.7687782072E-03    6.6949881986E-03    6.6219921460E-03
    6.5497816696E-03    6.4783484751E-03    6.4076843538E-03    6.3377811812E-03
    6.2686309161E-03    6.2002256003E-03    6.1325573571E-03    6.0656183910E-03
    5.9994009869E-03    5.9338975088E-03    5.8691003998E-03    5.8050021804E-03
    5.7415954485E-03    5.6788728782E-03    5.6168272194E-03    5.5554512967E-03
    5.4947380086E-03    5.4346803272E-03    5.3752712972E-03    5.3165040351E-03
    5.2583717286E-03    5.2008676360E-03    5.1439850852E-03    5.0877174732E-03
    5.0320582655E-03    4.9770009953E-03    4.9225392627E-03    4.8686667343E-03
    4.8153771422E-03    4.7626642837E-03    4.7105220205E-03    4.6589442780E-03
    4.6079250446E-03    4.5574583713E-03    4.5075383709E-03    4.4581592175E-03
    4.4093151457E-03    4.3610004501E-03    4.3132094848E-03    4.2659366626E-03
    4.2191764545E-03    4.1729233893E-03    4.1271720526E-03    4.0819170867E-03
    4.0371531896E-03    3.9928751147E-03    3.9490776703E-03    3.9057557187E-03
    3.8629041761E-03    3.8205180117E-03    3.7785922474E-03    3.7371219570E-03
    3.6961022659E-03    3.6555283508E-03    3.6153954384E-03    3.5756988058E-03
    3.5364337793E-03    3.4975957345E-03    3.4591800952E-03    3.4211823332E-03
    3.3835979681E-03    3.3464225662E-03    3.3096517405E-03    3.2732811499E-03
    3.2373064992E-03    3.2017235382E-03    3.1665280612E-03    3.1317159069E-03
    3.0972829579E-03    3.0632251398E-03    3.0295384213E-03    2.9962188135E-03
    2.9632623696E-03    2.9306651842E-03    2.8984233932E-03    2.8665331732E-03
    2.8349907411E-03    2.8037923537E-03    2.7729343074E-03    2.7424129375E-03
    2.7122246181E-03    2.6823657618E-03    2.6528328187E-03    2.6236222767E-03
    2.5947306608E-03    2.5661545326E-03    2.5378904903E-03    2.5099351679E-03
    2.4822852351E-03    2.4549373969E-03    2.4278883931E-03    2.4011349982E-03
    2.3746740206E-03    2.3485023028E-03    2.3226167207E-03    2.2970141834E-03
    2.2716916325E-03    2.2466460425E-03    2.2218744196E-03    2.1973738021E-03
    2.1731412597E-03    2.1491738930E-03    2.1254688336E-03    2.1020232437E-03
    2.0788343154E-03    2.0558992710E-03    2.0332153620E-03    2.0107798695E-03
    1.9885901032E-03    1.9666434016E-03    1.9449371317E-03    1.9234686883E-03
    1.9022354941E-03    1.8812349992E-03    1.8604646811E-03    1.8399220439E-03
    1.8196046184E-03    1.7995099619E-03    1.7796356577E-03    1.7599793149E-03
    1.7405385681E-03    1.7213110771E-03    1.7022945268E-03    1.6834866270E-03
    1.6648851116E-03    1.6464877391E-03    1.6282922917E-03    1.6102965755E-03
    1.5924984201E-03    1.5748956781E-03    1.5574862253E-03    1.5402679602E-03
    1.5232388039E-03    1.5063966994E-03    1.4897396123E-03    1.4732655296E-03
    1.4569724600E-03    1.4408584335E-03    1.4249215014E-03    1.4091597358E-03
    1.3935712294E-03    1.3781540955E-03    1.3629064677E-03    1.3478264994E-03
    1.3329123641E-03    1.3181622548E-03    1.3035743840E-03    1.2891469833E-03
    1.2748783033E-03    1.2607666136E-03    1.2468102023E-03    1.2330073758E-03
    1.2193564589E-03    1.2058557943E-03    1.1925037427E-03    1.1792986824E-03
    1.1662390090E-03    1.1533231355E-03    1.1405494922E-03    1.1279165259E-03
    1.1154227005E-03    1.1030664963E-03    1.0908464100E-03    1.0787609546E-03
    1.0668086590E-03    1.0549880681E-03    1.0432977424E-03    1.0317362581E-03
    1.0203022066E-03    1.0089941946E-03    9.9781084381E-04    9.8675079088E-04
    9.7581268715E-04    9.6499519856E-04    9.5429700547E-04    9.4371680249E-04
    9.3325329837E-04    9.2290521581E-04    9.1267129134E-04    9.0255027516E-04
    8.9254093098E-04    8.8264203593E-04    8.7285238033E-04    8.6317076765E-04
    8.5359601428E-04    8.4412694946E-04    8.3476241509E-04    8.2550126565E-04
    8.1634236800E-04    8.0728460132E-04    7.9832685692E-04    7.8946803815E-04
    7.8070706023E-04    7.7204285018E-04    7.6347434664E-04    7.5500049977E-04
    7.4662027115E-04    7.3833263359E-04    7.3013657110E-04    7.2203107868E-04
    7.1401516229E-04    7.0608783866E-04    6.9824813520E-04    6.9049508992E-04
    6.8282775125E-04    6.7524517800E-04    6.6774643917E-04    6.6033061393E-04
    6.5299679145E-04    6.4574407078E-04    6.3857156082E-04    6.3147838012E-04
    6.2446365687E-04    6.1752652871E-04    6.1066614269E-04    6.0388165514E-04
    5.9717223159E-04    5.9053704664E-04    5.8397528389E-04    5.7748613584E-04
    5.7106880378E-04    5.6472249773E-04    5.5844643628E-04    5.5223984658E-04
    5.4610196418E-04    5.4003203297E-04    5.3402930510E-04    5.2809304088E-04
    5.2222250866E-04    5.1641698481E-04    5.1067575357E-04    5.0499810702E-04
    4.9938334494E-04    4.9383077478E-04    4.8833971152E-04    4.8290947767E-04
    4.7753940309E-04    4.7222882499E-04    4.6697708782E-04    4.6178354319E-04
    4.5664754978E-04    4.5156847331E-04    4.4654568641E-04    4.4157856857E-04
    4.3666650609E-04    4.3180889196E-04    4.2700512581E-04    4.2225461385E-04
    4.1755676876E-04    4.1291100969E-04    4.0831676210E-04    4.0377345777E-04
    3.9928053470E-04    3.9483743701E-04    3.9044361494E-04    3.8609852475E-04
    3.8180162863E-04    3.7755239468E-04    3.7335029683E-04    3.6919481475E-04
    3.6508543384E-04    3.6102164513E-04    3.5700294522E-04    3.5302883622E-04
    3.4909882574E-04    3.4521242674E-04    3.4136915755E-04    3.3756854176E-04
    3.3381010822E-04    3.3009339091E-04    3.2641792895E-04    3.2278326650E-04
    3.1918895274E-04    3.1563454177E-04    3.1211959261E-04    3.0864366910E-04
    3.0520633990E-04    3.0180717836E-04    2.9844576256E-04    2.9512167519E-04
    2.9183450351E-04    2.8858383935E-04    2.8536927899E-04    2.8219042318E-04
    2.7904687701E-04    2.7593824996E-04    2.7286415576E-04    2.6982421242E-04
    2.6681804213E-04    2.6384527122E-04    2.6090553017E-04    2.5799845348E-04
    2.5512367970E-04    2.5228085134E-04    2.4946961485E-04    2.4668962055E-04
    2.4394052263E-04    2.4122197909E-04    2.3853365166E-04    2.3587520582E-04
    2.3324631073E-04    2.3064663918E-04    2.2807586758E-04    2.2553367587E-04
    2.2301974756E-04    2.2053376960E-04    2.1807543241E-04    2.1564442983E-04
    2.1324045904E-04    2.1086322059E-04    2.0851241832E-04    2.0618775930E-04
    2.0388895388E-04    2.0161571556E-04    1.9936776103E-04    1.9714481007E-04
    1.9494658558E-04    1.9277281349E-04    1.9062322277E-04    1.8849754536E-04
    1.8639551617E-04    1.8431687303E-04    1.8226135666E-04    1.8022871065E-04
    1.7821868139E-04    1.7623101809E-04    1.7426547274E-04    1.7232180003E-04
    1.7039975738E-04    1.6849910490E-04    1.6661960531E-04    1.6476102398E-04
    1.6292312886E-04    1.6110569045E-04    1.5930848181E-04    1.5753127849E-04
    1.5577385850E-04    1.5403600234E-04    1.5231749290E-04    1.5061811549E-04
    1.4893765779E-04    1.4727590980E-04    1.4563266387E-04    1.4400771463E-04
    1.4240085898E-04    1.4081189607E-04    1.3924062726E-04    1.3768685612E-04
    1.3615038837E-04    1.3463103189E-04    1.3312859668E-04    1.3164289485E-04
    1.3017374058E-04    1.2872095010E-04    1.2728434168E-04    1.2586373559E-04
    1.2445895409E-04    1.2306982142E-04    1.2169616375E-04    1.2033780917E-04
    1.1899458769E-04    1.1766633117E-04    1.1635287335E-04    1.1505404982E-04
    1.1376969797E-04    1.1249965700E-04    1.1124376787E-04    1.1000187334E-04
    1.0877381787E-04    1.0755944765E-04    1.0635861060E-04    1.0517115629E-04
    1.0399693598E-04    1.0283580255E-04    1.0168761054E-04    1.0055221607E-04
    9.9429476884E-05    9.8319252279E-05    9.7221403118E-05    9.6135791804E-05
    9.5062282265E-05    9.4000739936E-05    9.2951031743E-05    9.1913026086E-05
    9.0886592821E-05    8.9871603250E-05    8.8867930099E-05    8.7875447503E-05
    8.6894030994E-05    8.5923557482E-05    8.4963905244E-05    8.4014953901E-05
    8.3076584414E-05    8.2148679060E-05    8.1231121422E-05    8.0323796374E-05
    7.9426590067E-05    7.8539389912E-05    7.7662084572E-05    7.6794563942E-05
    7.5936719138E-05    7.5088442485E-05    7.4249627502E-05    7.3420168888E-05
    7.2599962511E-05    7.1788905393E-05    7.0986895701E-05    7.0193832728E-05
    6.9409616888E-05    6.8634149697E-05    6.7867333766E-05    6.7109072785E-05
    6.6359271514E-05    6.5617835769E-05    6.4884672412E-05    6.4159689338E-05
    6.3442795466E-05    6.2733900723E-05    6.2032916039E-05    6.1339753332E-05
    6.0654325495E-05    5.9976546392E-05    5.9306330842E-05    5.8643594610E-05
    5.7988254394E-05    5.7340227820E-05    5.6699433428E-05    5.6065790663E-05
    5.5439219862E-05    5.4819642251E-05    5.4206979928E-05    5.3601155856E-05
    5.3002093857E-05    5.2409718596E-05    5.1823955577E-05    5.1244731129E-05
    5.0671972403E-05    5.0105607356E-05    4.9545564749E-05    4.8991774132E-05
    4.8444165838E-05    4.7902670975E-05    4.7367221418E-05    4.6837749796E-05
    4.6314189489E-05    4.5796474617E-05    4.5284540032E-05    4.4778321310E-05
    4.4277754745E-05    4.3782777336E-05    4.3293326786E-05    4.2809341487E-05
    4.2330760518E-05    4.1857523637E-05    4.1389571268E-05    4.0926844500E-05
    4.0469285077E-05    4.0016835390E-05    3.9569438471E-05    3.9127037986E-05
    3.8689578227E-05    3.8257004106E-05    3.7829261148E-05    3.7406295482E-05
    3.6988053839E-05    3.6574483542E-05    3.6165532497E-05    3.5761149195E-05
    3.5361282695E-05    3.4965882625E-05    3.4574899173E-05    3.4188283082E-05
    3.3805985643E-05    3.3427958688E-05    3.3054154586E-05    3.2684526236E-05
    3.2319027059E-05    3.1957610999E-05    3.1600232508E-05    3.1246846547E-05
    3.0897408579E-05    3.0551874562E-05    3.0210200943E-05    2.9872344656E-05
    2.9538263113E-05    2.9207914200E-05    2.8881256274E-05    2.8558248152E-05
    2.8238849113E-05    2.7923018887E-05    2.7610717654E-05    2.7301906037E-05
    2.6996545097E-05    2.6694596328E-05    2.6396021654E-05    2.6100783423E-05
    2.5808844402E-05    2.5520167772E-05    2.5234717126E-05    2.4952456460E-05
    2.4673350173E-05    2.4397363060E-05    2.4124460307E-05    2.3854607489E-05
    2.3587770566E-05    2.3323915873E-05    2.3063010124E-05    2.2805020402E-05
    2.2549914158E-05    2.2297659203E-05    2.2048223709E-05    2.1801576203E-05
    2.1557685561E-05    2.1316521006E-05    2.1078052106E-05    2.0842248765E-05
    2.0609081225E-05    2.0378520059E-05    2.0150536166E-05    1.9925100773E-05
    1.9702185424E-05    1.9481761982E-05    1.9263802624E-05    1.9048279836E-05
    1.8835166412E-05    1.8624435448E-05    1.8416060339E-05    1.8210014780E-05
    1.8006272756E-05    1.7804808544E-05    1.7605596707E-05    1.7408612090E-05
    1.7213829822E-05    1.7021225306E-05    1.6830774222E-05    1.6642452518E-05
    1.6456236413E-05    1.6272102390E-05    1.6090027194E-05    1.5909987829E-05
    1.5731961558E-05    1.5555925895E-05    1.5381858605E-05    1.5209737701E-05
   </PP_CHI.3>
   <PP_CHI.4
       type="real"
       size="1220"
       columns="4"
       index="4"
       occupation=" 2.667"
       pseudo_energy="   -0.4696128429E+00"
       label="4P"
       l="1" >
   -1.1847554188E-12    2.4286943892E-05    9.7205811914E-05    2.1893051607E-04
    3.8975025407E-04    6.1006852818E-04    8.8040177574E-04    1.2013776158E-03
    1.5737327175E-03    1.9983102958E-03    2.4760572443E-03    3.0080209118E-03
    3.5953455341E-03    4.2392683316E-03    4.9411152848E-03    5.7022966005E-03
    6.5243018831E-03    7.4086950253E-03    8.3571088345E-03    9.3712394109E-03
    1.0452840294E-02    1.1603716398E-02    1.2825717747E-02    1.4120733045E-02
    1.5490683073E-02    1.6937513970E-02    1.8463190379E-02    2.0069688508E-02
    2.1758989111E-02    2.3533070422E-02    2.5393901041E-02    2.7343432825E-02
    2.9383593772E-02    3.1516280946E-02    3.3743353441E-02    3.6066625425E-02
    3.8487859266E-02    4.1008758771E-02    4.3630962551E-02    4.6356037542E-02
    4.9185472676E-02    5.2120672750E-02    5.5162952488E-02    5.8313530820E-02
    6.1573525392E-02    6.4943947326E-02    6.8425696238E-02    7.2019555526E-02
    7.5726187955E-02    7.9546131528E-02    8.3479795666E-02    8.7527457713E-02
    9.1689259760E-02    9.5965205799E-02    1.0035515923E-01    1.0485884068E-01
    1.0947582624E-01    1.1420554597E-01    1.1904728280E-01    1.2400017181E-01
    1.2906319983E-01    1.3423520541E-01    1.3951487916E-01    1.4490076439E-01
    1.5039125819E-01    1.5598461274E-01    1.6167893706E-01    1.6747219906E-01
    1.7336222786E-01    1.7934671650E-01    1.8542322495E-01    1.9158918336E-01
    1.9784189567E-01    2.0417854346E-01    2.1059619006E-01    2.1709178494E-01
    2.2366216831E-01    2.3030407598E-01    2.3701414440E-01    2.4378891592E-01
    2.5062484421E-01    2.5751829991E-01    2.6446557634E-01    2.7146289541E-01
    2.7850641367E-01    2.8559222836E-01    2.9271638369E-01    2.9987487708E-01
    3.0706366554E-01    3.1427867198E-01    3.2151579168E-01    3.2877089866E-01
    3.3603985208E-01    3.4331850264E-01    3.5060269888E-01    3.5788829349E-01
    3.6517114949E-01    3.7244714638E-01    3.7971218614E-01    3.8696219917E-01
    3.9419315004E-01    4.0140104318E-01    4.0858192835E-01    4.1573190599E-01
    4.2284713237E-01    4.2992382460E-01    4.3695826537E-01    4.4394680761E-01
    4.5088587881E-01    4.5777198521E-01    4.6460171576E-01    4.7137174579E-01
    4.7807884054E-01    4.8471985837E-01    4.9129175378E-01    4.9779158017E-01
    5.0421649235E-01    5.1056374880E-01    5.1683071371E-01    5.2301485873E-01
    5.2911376454E-01    5.3512512207E-01    5.4104673362E-01    5.4687651361E-01
    5.5261248916E-01    5.5825280046E-01    5.6379570087E-01    5.6923955681E-01
    5.7458284745E-01    5.7982416419E-01    5.8496220995E-01    5.8999579824E-01
    5.9492385207E-01    5.9974540267E-01    6.0445958807E-01    6.0906565148E-01
    6.1356293952E-01    6.1795090040E-01    6.2222908183E-01    6.2639712890E-01
    6.3045478183E-01    6.3440187361E-01    6.3823832753E-01    6.4196415466E-01
    6.4557945123E-01    6.4908439597E-01    6.5247924733E-01    6.5576434072E-01
    6.5894008572E-01    6.6200696315E-01    6.6496552225E-01    6.6781637778E-01
    6.7056020707E-01    6.7319774717E-01    6.7572979190E-01    6.7815718902E-01
    6.8048083730E-01    6.8270168371E-01    6.8482072059E-01    6.8683898285E-01
    6.8875754526E-01    6.9057751969E-01    6.9230005251E-01    6.9392632192E-01
    6.9545753546E-01    6.9689492742E-01    6.9823975647E-01    6.9949330323E-01
    7.0065686796E-01    7.0173176828E-01    7.0271933700E-01    7.0362091994E-01
    7.0443787391E-01    7.0517156467E-01    7.0582336500E-01    7.0639465285E-01
    7.0688680952E-01    7.0730121793E-01    7.0763926096E-01    7.0790231985E-01
    7.0809177272E-01    7.0820899311E-01    7.0825534859E-01    7.0823219933E-01
    7.0814089690E-01    7.0798278301E-01    7.0775918840E-01    7.0747143181E-01
    7.0712081883E-01    7.0670864019E-01    7.0623617040E-01    7.0570466801E-01
    7.0511537551E-01    7.0446951857E-01    7.0376830668E-01    7.0301293289E-01
    7.0220457395E-01    7.0134439028E-01    7.0043352613E-01    6.9947310952E-01
    6.9846425243E-01    6.9740805078E-01    6.9630558457E-01    6.9515791796E-01
    6.9396609935E-01    6.9273116150E-01    6.9145412164E-01    6.9013598155E-01
    6.8877772771E-01    6.8738033143E-01    6.8594474893E-01    6.8447192149E-01
    6.8296277561E-01    6.8141822310E-01    6.7983916124E-01    6.7822647293E-01
    6.7658102681E-01    6.7490367742E-01    6.7319526534E-01    6.7145661734E-01
    6.6968854655E-01    6.6789185256E-01    6.6606732164E-01    6.6421572684E-01
    6.6233782816E-01    6.6043437272E-01    6.5850609491E-01    6.5655371652E-01
    6.5457794695E-01    6.5257948331E-01    6.5055901060E-01    6.4851720188E-01
    6.4645471840E-01    6.4437220979E-01    6.4227031417E-01    6.4014965835E-01
    6.3801085795E-01    6.3585451758E-01    6.3368123096E-01    6.3149158112E-01
    6.2928614051E-01    6.2706547116E-01    6.2483012484E-01    6.2258064320E-01
    6.2031755792E-01    6.1804139085E-01    6.1575265416E-01    6.1345185047E-01
    6.1113947304E-01    6.0881600584E-01    6.0648192373E-01    6.0413769260E-01
    6.0178376949E-01    5.9942060274E-01    5.9704863212E-01    5.9466828894E-01
    5.9227999621E-01    5.8988416878E-01    5.8748121339E-01    5.8507152891E-01
    5.8265550637E-01    5.8023352914E-01    5.7780597300E-01    5.7537320631E-01
    5.7293559012E-01    5.7049347824E-01    5.6804721742E-01    5.6559714741E-01
    5.6314360110E-01    5.6068690463E-01    5.5822737749E-01    5.5576533263E-01
    5.5330107655E-01    5.5083490946E-01    5.4836712529E-01    5.4589801188E-01
    5.4342785104E-01    5.4095691864E-01    5.3848548471E-01    5.3601381356E-01
    5.3354216386E-01    5.3107078872E-01    5.2859993577E-01    5.2612984732E-01
    5.2366076034E-01    5.2119290666E-01    5.1872651295E-01    5.1626180090E-01
    5.1379898721E-01    5.1133828377E-01    5.0887989765E-01    5.0642403124E-01
    5.0397088229E-01    5.0152064402E-01    4.9907350518E-01    4.9662965009E-01
    4.9418925879E-01    4.9175250704E-01    4.8931956643E-01    4.8689060443E-01
    4.8446578447E-01    4.8204526603E-01    4.7962920463E-01    4.7721775200E-01
    4.7481105605E-01    4.7240926101E-01    4.7001250744E-01    4.6762093230E-01
    4.6523466903E-01    4.6285384762E-01    4.6047859461E-01    4.5810903321E-01
    4.5574528334E-01    4.5338746167E-01    4.5103568167E-01    4.4869005371E-01
    4.4635068507E-01    4.4401768000E-01    4.4169113979E-01    4.3937116279E-01
    4.3705784452E-01    4.3475127763E-01    4.3245155205E-01    4.3015875495E-01
    4.2787297084E-01    4.2559428160E-01    4.2332276655E-01    4.2105850244E-01
    4.1880156355E-01    4.1655202171E-01    4.1430994636E-01    4.1207540456E-01
    4.0984846107E-01    4.0762917837E-01    4.0541761670E-01    4.0321383413E-01
    4.0101788655E-01    3.9882982775E-01    3.9664970945E-01    3.9447758133E-01
    3.9231349108E-01    3.9015748441E-01    3.8800960513E-01    3.8586989516E-01
    3.8373839455E-01    3.8161514156E-01    3.7950017265E-01    3.7739352255E-01
    3.7529522426E-01    3.7320530911E-01    3.7112380678E-01    3.6905074536E-01
    3.6698615131E-01    3.6493004959E-01    3.6288246361E-01    3.6084341530E-01
    3.5881292514E-01    3.5679101216E-01    3.5477769402E-01    3.5277298698E-01
    3.5077690598E-01    3.4878946464E-01    3.4681067530E-01    3.4484054901E-01
    3.4287909564E-01    3.4092632381E-01    3.3898224099E-01    3.3704685347E-01
    3.3512016644E-01    3.3320218397E-01    3.3129290905E-01    3.2939234363E-01
    3.2750048861E-01    3.2561734389E-01    3.2374290839E-01    3.2187718007E-01
    3.2002015594E-01    3.1817183212E-01    3.1633220379E-01    3.1450126530E-01
    3.1267901012E-01    3.1086543090E-01    3.0906051947E-01    3.0726426688E-01
    3.0547666339E-01    3.0369769853E-01    3.0192736108E-01    3.0016563910E-01
    2.9841251998E-01    2.9666799040E-01    2.9493203640E-01    2.9320464336E-01
    2.9148579606E-01    2.8977547865E-01    2.8807367470E-01    2.8638036718E-01
    2.8469553853E-01    2.8301917064E-01    2.8135124485E-01    2.7969174200E-01
    2.7804064245E-01    2.7639792605E-01    2.7476357218E-01    2.7313755979E-01
    2.7151986736E-01    2.6991047296E-01    2.6830935424E-01    2.6671648846E-01
    2.6513185246E-01    2.6355542274E-01    2.6198717541E-01    2.6042708625E-01
    2.5887513068E-01    2.5733128382E-01    2.5579552044E-01    2.5426781503E-01
    2.5274814177E-01    2.5123647457E-01    2.4973278706E-01    2.4823705260E-01
    2.4674924432E-01    2.4526933509E-01    2.4379729754E-01    2.4233310410E-01
    2.4087672697E-01    2.3942813815E-01    2.3798730944E-01    2.3655421246E-01
    2.3512881864E-01    2.3371109925E-01    2.3230102540E-01    2.3089856803E-01
    2.2950369796E-01    2.2811638583E-01    2.2673660220E-01    2.2536431746E-01
    2.2399950191E-01    2.2264212574E-01    2.2129215902E-01    2.1994957173E-01
    2.1861433377E-01    2.1728641495E-01    2.1596578499E-01    2.1465241356E-01
    2.1334627025E-01    2.1204732459E-01    2.1075554606E-01    2.0947090409E-01
    2.0819336807E-01    2.0692290735E-01    2.0565949123E-01    2.0440308900E-01
    2.0315366993E-01    2.0191120326E-01    2.0067565820E-01    1.9944700399E-01
    1.9822520983E-01    1.9701024492E-01    1.9580207848E-01    1.9460067973E-01
    1.9340601790E-01    1.9221806222E-01    1.9103678195E-01    1.8986214637E-01
    1.8869412478E-01    1.8753268652E-01    1.8637780095E-01    1.8522943745E-01
    1.8408756547E-01    1.8295215447E-01    1.8182317398E-01    1.8070059354E-01
    1.7958438276E-01    1.7847451132E-01    1.7737094891E-01    1.7627366531E-01
    1.7518263034E-01    1.7409781388E-01    1.7301918589E-01    1.7194671638E-01
    1.7088037543E-01    1.6982013318E-01    1.6876595985E-01    1.6771782574E-01
    1.6667570121E-01    1.6563955670E-01    1.6460936272E-01    1.6358508988E-01
    1.6256670884E-01    1.6155419038E-01    1.6054750533E-01    1.5954662462E-01
    1.5855151926E-01    1.5756216036E-01    1.5657851910E-01    1.5560056676E-01
    1.5462827471E-01    1.5366161441E-01    1.5270055741E-01    1.5174507536E-01
    1.5079514001E-01    1.4985072318E-01    1.4891179682E-01    1.4797833295E-01
    1.4705030370E-01    1.4612768129E-01    1.4521043806E-01    1.4429854642E-01
    1.4339197890E-01    1.4249070812E-01    1.4159470682E-01    1.4070394782E-01
    1.3981840406E-01    1.3893804856E-01    1.3806285446E-01    1.3719279501E-01
    1.3632784354E-01    1.3546797351E-01    1.3461315847E-01    1.3376337207E-01
    1.3291858808E-01    1.3207878036E-01    1.3124392288E-01    1.3041398972E-01
    1.2958895507E-01    1.2876879322E-01    1.2795347854E-01    1.2714298556E-01
    1.2633728887E-01    1.2553636318E-01    1.2474018331E-01    1.2394872418E-01
    1.2316196083E-01    1.2237986838E-01    1.2160242209E-01    1.2082959728E-01
    1.2006136943E-01    1.1929771408E-01    1.1853860690E-01    1.1778402365E-01
    1.1703394021E-01    1.1628833257E-01    1.1554717679E-01    1.1481044908E-01
    1.1407812572E-01    1.1335018311E-01    1.1262659776E-01    1.1190734626E-01
    1.1119240533E-01    1.1048175179E-01    1.0977536255E-01    1.0907321462E-01
    1.0837528514E-01    1.0768155133E-01    1.0699199051E-01    1.0630658011E-01
    1.0562529768E-01    1.0494812083E-01    1.0427502731E-01    1.0360599496E-01
    1.0294100170E-01    1.0228002558E-01    1.0162304473E-01    1.0097003739E-01
    1.0032098191E-01    9.9675856706E-02    9.9034640325E-02    9.8397311399E-02
    9.7763848661E-02    9.7134230940E-02    9.6508437166E-02    9.5886446364E-02
    9.5268237657E-02    9.4653790265E-02    9.4043083503E-02    9.3436096785E-02
    9.2832809617E-02    9.2233201605E-02    9.1637252445E-02    9.1044941931E-02
    9.0456249953E-02    8.9871156490E-02    8.9289641620E-02    8.8711685512E-02
    8.8137268427E-02    8.7566370722E-02    8.6998972843E-02    8.6435055331E-02
    8.5874598816E-02    8.5317584023E-02    8.4763991764E-02    8.4213802945E-02
    8.3666998562E-02    8.3123559698E-02    8.2583467530E-02    8.2046703322E-02
    8.1513248428E-02    8.0983084289E-02    8.0456192438E-02    7.9932554491E-02
    7.9412152157E-02    7.8894967230E-02    7.8380981589E-02    7.7870177204E-02
    7.7362536129E-02    7.6858040504E-02    7.6356672555E-02    7.5858414594E-02
    7.5363249018E-02    7.4871158309E-02    7.4382125033E-02    7.3896131840E-02
    7.3413161464E-02    7.2933196723E-02    7.2456220518E-02    7.1982215832E-02
    7.1511165733E-02    7.1043053368E-02    7.0577861969E-02    7.0115574847E-02
    6.9656175396E-02    6.9199647091E-02    6.8745973487E-02    6.8295138220E-02
    6.7847125005E-02    6.7401917637E-02    6.6959499993E-02    6.6519856027E-02
    6.6082969770E-02    6.5648825336E-02    6.5217406914E-02    6.4788698771E-02
    6.4362685255E-02    6.3939350787E-02    6.3518679868E-02    6.3100657075E-02
    6.2685267062E-02    6.2272494557E-02    6.1862324366E-02    6.1454741372E-02
    6.1049730530E-02    6.0647276871E-02    6.0247365503E-02    5.9849981606E-02
    5.9455110436E-02    5.9062737321E-02    5.8672847664E-02    5.8285426942E-02
    5.7900460702E-02    5.7517934568E-02    5.7137834233E-02    5.6760145464E-02
    5.6384854101E-02    5.6011946052E-02    5.5641407301E-02    5.5273223899E-02
    5.4907381972E-02    5.4543867712E-02    5.4182667385E-02    5.3823767326E-02
    5.3467153939E-02    5.3112813698E-02    5.2760733147E-02    5.2410898897E-02
    5.2063297631E-02    5.1717916097E-02    5.1374741113E-02    5.1033759565E-02
    5.0694958406E-02    5.0358324656E-02    5.0023845404E-02    4.9691507804E-02
    4.9361299078E-02    4.9033206513E-02    4.8707217463E-02    4.8383319348E-02
    4.8061499652E-02    4.7741745927E-02    4.7424045788E-02    4.7108386915E-02
    4.6794757053E-02    4.6483144012E-02    4.6173535665E-02    4.5865919948E-02
    4.5560284864E-02    4.5256618475E-02    4.4954908908E-02    4.4655144354E-02
    4.4357313065E-02    4.4061403355E-02    4.3767403601E-02    4.3475302242E-02
    4.3185087777E-02    4.2896748767E-02    4.2610273836E-02    4.2325651666E-02
    4.2042871001E-02    4.1761920644E-02    4.1482789461E-02    4.1205466374E-02
    4.0929940367E-02    4.0656200484E-02    4.0384235825E-02    4.0114035552E-02
    3.9845588883E-02    3.9578885097E-02    3.9313913530E-02    3.9050663575E-02
    3.8789124683E-02    3.8529286362E-02    3.8271138180E-02    3.8014669759E-02
    3.7759870778E-02    3.7506730972E-02    3.7255240135E-02    3.7005388114E-02
    3.6757164814E-02    3.6510560192E-02    3.6265564265E-02    3.6022167101E-02
    3.5780358825E-02    3.5540129615E-02    3.5301469706E-02    3.5064369384E-02
    3.4828818991E-02    3.4594808921E-02    3.4362329623E-02    3.4131371598E-02
    3.3901925400E-02    3.3673981636E-02    3.3447530966E-02    3.3222564102E-02
    3.2999071806E-02    3.2777044895E-02    3.2556474235E-02    3.2337350745E-02
    3.2119665394E-02    3.1903409203E-02    3.1688573242E-02    3.1475148632E-02
    3.1263126546E-02    3.1052498205E-02    3.0843254879E-02    3.0635387890E-02
    3.0428888608E-02    3.0223748451E-02    3.0019958887E-02    2.9817511434E-02
    2.9616397655E-02    2.9416609165E-02    2.9218137623E-02    2.9020974740E-02
    2.8825112270E-02    2.8630542018E-02    2.8437255834E-02    2.8245245616E-02
    2.8054503308E-02    2.7865020901E-02    2.7676790430E-02    2.7489803980E-02
    2.7304053678E-02    2.7119531698E-02    2.6936230260E-02    2.6754141629E-02
    2.6573258113E-02    2.6393572068E-02    2.6215075891E-02    2.6037762025E-02
    2.5861622958E-02    2.5686651220E-02    2.5512839385E-02    2.5340180072E-02
    2.5168665941E-02    2.4998289697E-02    2.4829044086E-02    2.4660921898E-02
    2.4493915964E-02    2.4328019159E-02    2.4163224399E-02    2.3999524642E-02
    2.3836912886E-02    2.3675382172E-02    2.3514925583E-02    2.3355536240E-02
    2.3197207308E-02    2.3039931991E-02    2.2883703532E-02    2.2728515216E-02
    2.2574360368E-02    2.2421232353E-02    2.2269124573E-02    2.2118030471E-02
    2.1967943530E-02    2.1818857272E-02    2.1670765255E-02    2.1523661079E-02
    2.1377538380E-02    2.1232390832E-02    2.1088212150E-02    2.0944996083E-02
    2.0802736420E-02    2.0661426986E-02    2.0521061645E-02    2.0381634296E-02
    2.0243138875E-02    2.0105569356E-02    1.9968919748E-02    1.9833184098E-02
    1.9698356486E-02    1.9564431032E-02    1.9431401889E-02    1.9299263244E-02
    1.9168009324E-02    1.9037634386E-02    1.8908132726E-02    1.8779498672E-02
    1.8651726587E-02    1.8524810871E-02    1.8398745954E-02    1.8273526304E-02
    1.8149146420E-02    1.8025600835E-02    1.7902884118E-02    1.7780990868E-02
    1.7659915719E-02    1.7539653337E-02    1.7420198422E-02    1.7301545705E-02
    1.7183689951E-02    1.7066625956E-02    1.6950348549E-02    1.6834852590E-02
    1.6720132971E-02    1.6606184616E-02    1.6493002480E-02    1.6380581550E-02
    1.6268916841E-02    1.6158003403E-02    1.6047836315E-02    1.5938410685E-02
    1.5829721653E-02    1.5721764389E-02    1.5614534094E-02    1.5508025996E-02
    1.5402235356E-02    1.5297157462E-02    1.5192787632E-02    1.5089121214E-02
    1.4986153584E-02    1.4883880149E-02    1.4782296341E-02    1.4681397624E-02
    1.4581179488E-02    1.4481637453E-02    1.4382767067E-02    1.4284563904E-02
    1.4187023567E-02    1.4090141688E-02    1.3993913923E-02    1.3898335960E-02
    1.3803403509E-02    1.3709112310E-02    1.3615458131E-02    1.3522436763E-02
    1.3430044026E-02    1.3338275766E-02    1.3247127855E-02    1.3156596191E-02
    1.3066676699E-02    1.2977365328E-02    1.2888658053E-02    1.2800550876E-02
    1.2713039823E-02    1.2626120945E-02    1.2539790319E-02    1.2454044046E-02
    1.2368878252E-02    1.2284289089E-02    1.2200272730E-02    1.2116825377E-02
    1.2033943252E-02    1.1951622604E-02    1.1869859703E-02    1.1788650847E-02
    1.1707992352E-02    1.1627880563E-02    1.1548311845E-02    1.1469282586E-02
    1.1390789201E-02    1.1312828122E-02    1.1235395809E-02    1.1158488742E-02
    1.1082103424E-02    1.1006236380E-02    1.0930884159E-02    1.0856043330E-02
    1.0781710486E-02    1.0707882240E-02    1.0634555228E-02    1.0561726107E-02
    1.0489391555E-02    1.0417548274E-02    1.0346192983E-02    1.0275322426E-02
    1.0204933366E-02    1.0135022587E-02    1.0065586895E-02    9.9966231142E-03
    9.9281280914E-03    9.8600986930E-03    9.7925318058E-03    9.7254243364E-03
    9.6587732118E-03    9.5925753787E-03    9.5268278035E-03    9.4615274723E-03
    9.3966713908E-03    9.3322565840E-03    9.2682800961E-03    9.2047389908E-03
    9.1416303505E-03    9.0789512766E-03    9.0166988896E-03    8.9548703284E-03
    8.8934627506E-03    8.8324733322E-03    8.7718992679E-03    8.7117377702E-03
    8.6519860700E-03    8.5926414162E-03    8.5337010756E-03    8.4751623329E-03
    8.4170224904E-03    8.3592788680E-03    8.3019288032E-03    8.2449696507E-03
    8.1883987827E-03    8.1322135884E-03    8.0764114741E-03    8.0209898630E-03
    7.9659461954E-03    7.9112779280E-03    7.8569825345E-03    7.8030575048E-03
    7.7495003455E-03    7.6963085794E-03    7.6434797457E-03    7.5910113995E-03
    7.5389011121E-03    7.4871464707E-03    7.4357450784E-03    7.3846945539E-03
    7.3339925316E-03    7.2836366616E-03    7.2336246092E-03    7.1839540552E-03
    7.1346226957E-03    7.0856282418E-03    7.0369684198E-03    6.9886409709E-03
    6.9406436513E-03    6.8929742318E-03    6.8456304979E-03    6.7986102500E-03
    6.7519113027E-03    6.7055314851E-03    6.6594686407E-03    6.6137206271E-03
    6.5682853161E-03    6.5231605938E-03    6.4783443598E-03    6.4338345280E-03
    6.3896290260E-03    6.3457257948E-03    6.3021227895E-03    6.2588179785E-03
    6.2158093435E-03    6.1730948798E-03    6.1306725959E-03    6.0885405135E-03
    6.0466966674E-03    6.0051391055E-03    5.9638658885E-03    5.9228750900E-03
    5.8821647966E-03    5.8417331073E-03    5.8015781339E-03    5.7616980007E-03
    5.7220908444E-03    5.6827548143E-03    5.6436880716E-03    5.6048887901E-03
    5.5663551557E-03    5.5280853661E-03    5.4900776313E-03    5.4523301729E-03
    5.4148412248E-03    5.3776090322E-03    5.3406318522E-03    5.3039079535E-03
    5.2674356163E-03    5.2312131323E-03    5.1952388046E-03    5.1595109476E-03
    5.1240278869E-03    5.0887879593E-03    5.0537895128E-03    5.0190309063E-03
    4.9845105097E-03    4.9502267037E-03    4.9161778801E-03    4.8823624411E-03
    4.8487787998E-03    4.8154253798E-03    4.7823006153E-03    4.7494029510E-03
    4.7167308419E-03    4.6842827534E-03    4.6520571613E-03    4.6200525513E-03
    4.5882674196E-03    4.5567002721E-03    4.5253496250E-03    4.4942140044E-03
    4.4632919461E-03    4.4325819959E-03    4.4020827092E-03    4.3717926513E-03
    4.3417103970E-03    4.3118345306E-03    4.2821636459E-03    4.2526963463E-03
    4.2234312444E-03    4.1943669623E-03    4.1655021312E-03    4.1368353914E-03
    4.1083653927E-03    4.0800907936E-03    4.0520102618E-03    4.0241224740E-03
    3.9964261156E-03    3.9689198811E-03    3.9416024735E-03    3.9144726048E-03
    3.8875289955E-03    3.8607703747E-03    3.8341954802E-03    3.8078030581E-03
    3.7815918631E-03    3.7555606583E-03    3.7297082149E-03    3.7040333128E-03
    3.6785347397E-03    3.6532112917E-03    3.6280617730E-03    3.6030849957E-03
    3.5782797802E-03    3.5536449546E-03    3.5291793550E-03    3.5048818254E-03
    3.4807512175E-03    3.4567863908E-03    3.4329862126E-03    3.4093495578E-03
    3.3858753086E-03    3.3625623553E-03    3.3394095952E-03    3.3164159334E-03
    3.2935802821E-03    3.2709015611E-03    3.2483786974E-03    3.2260106252E-03
    3.2037962861E-03    3.1817346286E-03    3.1598246085E-03    3.1380651886E-03
    3.1164553387E-03    3.0949940356E-03    3.0736802630E-03    3.0525130116E-03
    3.0314912787E-03    3.0106140686E-03    2.9898803922E-03    2.9692892673E-03
    2.9488397181E-03    2.9285307756E-03    2.9083614772E-03    2.8883308670E-03
    2.8684379956E-03    2.8486819197E-03    2.8290617028E-03    2.8095764146E-03
    2.7902251310E-03    2.7710069343E-03    2.7519209130E-03    2.7329661618E-03
    2.7141417814E-03    2.6954468788E-03    2.6768805671E-03    2.6584419651E-03
    2.6401301979E-03    2.6219443963E-03    2.6038836973E-03    2.5859472435E-03
    2.5681341835E-03    2.5504436714E-03    2.5328748674E-03    2.5154269373E-03
    2.4980990523E-03    2.4808903897E-03    2.4638001320E-03    2.4468274675E-03
    2.4299715899E-03    2.4132316983E-03    2.3966069975E-03    2.3800966975E-03
    2.3637000138E-03    2.3474161671E-03    2.3312443835E-03    2.3151838943E-03
    2.2992339362E-03    2.2833937509E-03    2.2676625853E-03    2.2520396915E-03
    2.2365243267E-03    2.2211157531E-03    2.2058132379E-03    2.1906160533E-03
    2.1755234765E-03    2.1605347897E-03    2.1456492798E-03    2.1308662388E-03
    2.1161849632E-03    2.1016047546E-03    2.0871249192E-03    2.0727447681E-03
    2.0584636167E-03    2.0442807856E-03    2.0301955996E-03    2.0162073884E-03
    2.0023154861E-03    1.9885192313E-03    1.9748179673E-03    1.9612110417E-03
    1.9476978068E-03    1.9342776189E-03    1.9209498392E-03    1.9077138328E-03
    1.8945689694E-03    1.8815146231E-03    1.8685501718E-03    1.8556749983E-03
    1.8428884890E-03    1.8301900349E-03    1.8175790310E-03    1.8050548764E-03
    1.7926169745E-03    1.7802647325E-03    1.7679975618E-03    1.7558148779E-03
    1.7437161002E-03    1.7317006519E-03    1.7197679605E-03    1.7079174572E-03
    1.6961485769E-03    1.6844607589E-03    1.6728534458E-03    1.6613260842E-03
    1.6498781246E-03    1.6385090212E-03    1.6272182317E-03    1.6160052179E-03
    1.6048694450E-03    1.5938103819E-03    1.5828275012E-03    1.5719202792E-03
    1.5610881955E-03    1.5503307335E-03    1.5396473801E-03    1.5290376256E-03
    1.5185009639E-03    1.5080368922E-03    1.4976449115E-03    1.4873245258E-03
    1.4770752428E-03    1.4668965734E-03    1.4567880318E-03    1.4467491357E-03
    1.4367794061E-03    1.4268783671E-03    1.4170455462E-03    1.4072804742E-03
    1.3975826848E-03    1.3879517153E-03    1.3783871059E-03    1.3688884000E-03
    1.3594551442E-03    1.3500868882E-03    1.3407831847E-03    1.3315435895E-03
    1.3223676616E-03    1.3132549627E-03    1.3042050577E-03    1.2952175146E-03
    1.2862919042E-03    1.2774278002E-03    1.2686247793E-03    1.2598824211E-03
    1.2512003082E-03    1.2425780258E-03    1.2340151621E-03    1.2255113082E-03
    1.2170660579E-03    1.2086790077E-03    1.2003497571E-03    1.1920779081E-03
    1.1838630656E-03    1.1757048371E-03    1.1676028330E-03    1.1595566661E-03
   </PP_CHI.4>
   <PP_CHI.5
       type="real"
       size="1220"
       columns="4"
       index="5"
       occupation=" 1.333"
       pseudo_energy="   -0.4971869651E+00"
       label="4P"
       l="1" >
   -1.3693302135E-12    2.5870987666E-05    1.0354637808E-04    2.3321323322E-04
    4.1518259017E-04    6.4988836437E-04    9.3788581903E-04    1.2798496058E-03
    1.6765713828E-03    2.1289570178E-03    2.6380233857E-03    3.2048947698E-03
    3.8307988797E-03    4.5170624973E-03    5.2651067658E-03    6.0764421356E-03
    6.9526629845E-03    7.8954419286E-03    8.9065238418E-03    9.9877196028E-03
    1.1140899591E-02    1.2367986947E-02    1.3670950627E-02    1.5051798266E-02
    1.6512568870E-02    1.8055325373E-02    1.9682147064E-02    2.1395121924E-02
    2.3196338883E-02    2.5087880030E-02    2.7071812799E-02    2.9150182144E-02
    3.1325002746E-02    3.3598251258E-02    3.5971858618E-02    3.8447702456E-02
    4.1027599609E-02    4.3713298783E-02    4.6506473354E-02    4.9408714367E-02
    5.2421523716E-02    5.5546307553E-02    5.8784369930E-02    6.2136906695E-02
    6.5604999661E-02    6.9189611060E-02    7.2891578307E-02    7.6711609071E-02
    8.0650276686E-02    8.4708015899E-02    8.8885118972E-02    9.3181732152E-02
    9.7597852503E-02    1.0213332513E-01    1.0678784078E-01    1.1156093383E-01
    1.1645198069E-01    1.2146019858E-01    1.2658464474E-01    1.3182421596E-01
    1.3717764864E-01    1.4264351912E-01    1.4822024449E-01    1.5390608373E-01
    1.5969913930E-01    1.6559735903E-01    1.7159853847E-01    1.7770032351E-01
    1.8390021343E-01    1.9019556428E-01    1.9658359253E-01    2.0306137912E-01
    2.0962587380E-01    2.1627389970E-01    2.2300215827E-01    2.2980723445E-01
    2.3668560205E-01    2.4363362942E-01    2.5064758532E-01    2.5772364497E-01
    2.6485789631E-01    2.7204634640E-01    2.7928492798E-01    2.8656950618E-01
    2.9389588527E-01    3.0125981559E-01    3.0865700050E-01    3.1608310338E-01
    3.2353375467E-01    3.3100455899E-01    3.3849110214E-01    3.4598895818E-01
    3.5349369643E-01    3.6100088841E-01    3.6850611476E-01    3.7600497197E-01
    3.8349307913E-01    3.9096608444E-01    3.9841967168E-01    4.0584956648E-01
    4.1325154242E-01    4.2062142698E-01    4.2795510730E-01    4.3524853570E-01
    4.4249773504E-01    4.4969880380E-01    4.5684792100E-01    4.6394135080E-01
    4.7097544691E-01    4.7794665671E-01    4.8485152514E-01    4.9168669830E-01
    4.9844892677E-01    5.0513506870E-01    5.1174209258E-01    5.1826707976E-01
    5.2470722666E-01    5.3105984678E-01    5.3732237229E-01    5.4349235552E-01
    5.4956747004E-01    5.5554551153E-01    5.6142439841E-01    5.6720217216E-01
    5.7287699738E-01    5.7844716170E-01    5.8391107531E-01    5.8926727038E-01
    5.9451440019E-01    5.9965123806E-01    6.0467667606E-01    6.0958972358E-01
    6.1438950561E-01    6.1907526097E-01    6.2364634026E-01    6.2810220372E-01
    6.3244241891E-01    6.3666665830E-01    6.4077469670E-01    6.4476640858E-01
    6.4864176527E-01    6.5240083216E-01    6.5604376568E-01    6.5957081034E-01
    6.6298229564E-01    6.6627863293E-01    6.6946031226E-01    6.7252789921E-01
    6.7548203163E-01    6.7832341646E-01    6.8105282650E-01    6.8367109715E-01
    6.8617912326E-01    6.8857785588E-01    6.9086829915E-01    6.9305150714E-01
    6.9512858076E-01    6.9710066474E-01    6.9896894458E-01    7.0073464365E-01
    7.0239902030E-01    7.0396336500E-01    7.0542899758E-01    7.0679726455E-01
    7.0806953646E-01    7.0924720533E-01    7.1033168215E-01    7.1132439448E-01
    7.1222678408E-01    7.1304030465E-01    7.1376641963E-01    7.1440660005E-01
    7.1496232248E-01    7.1543506706E-01    7.1582631557E-01    7.1613754960E-01
    7.1637024875E-01    7.1652588896E-01    7.1660594086E-01    7.1661186819E-01
    7.1654512637E-01    7.1640716103E-01    7.1619940666E-01    7.1592328523E-01
    7.1558020493E-01    7.1517155902E-01    7.1469872466E-01    7.1416306187E-01
    7.1356591276E-01    7.1290860185E-01    7.1219243598E-01    7.1141870303E-01
    7.1058867254E-01    7.0970359726E-01    7.0876471188E-01    7.0777323365E-01
    7.0673036232E-01    7.0563728022E-01    7.0449515238E-01    7.0330512655E-01
    7.0206833338E-01    7.0078588648E-01    6.9945888254E-01    6.9808840143E-01
    6.9667550635E-01    6.9522124395E-01    6.9372664445E-01    6.9219272178E-01
    6.9062047374E-01    6.8901088210E-01    6.8736491281E-01    6.8568351608E-01
    6.8396762660E-01    6.8221816363E-01    6.8043603124E-01    6.7862211839E-01
    6.7677729914E-01    6.7490243279E-01    6.7299836407E-01    6.7106592331E-01
    6.6910592656E-01    6.6711917581E-01    6.6510645914E-01    6.6306855091E-01
    6.6100621188E-01    6.5892018945E-01    6.5681121777E-01    6.5468001796E-01
    6.5252729826E-01    6.5035375418E-01    6.4816006871E-01    6.4594691247E-01
    6.4371494389E-01    6.4146480936E-01    6.3919714341E-01    6.3691256888E-01
    6.3461169710E-01    6.3229512802E-01    6.2996345040E-01    6.2761724197E-01
    6.2525706960E-01    6.2288348944E-01    6.2049704710E-01    6.1809827778E-01
    6.1568770648E-01    6.1326584809E-01    6.1083320761E-01    6.0839028023E-01
    6.0593755155E-01    6.0347549770E-01    6.0100458546E-01    5.9852527246E-01
    5.9603800728E-01    5.9354322964E-01    5.9104137048E-01    5.8853285215E-01
    5.8601808851E-01    5.8349748512E-01    5.8097143930E-01    5.7844034033E-01
    5.7590456956E-01    5.7336450049E-01    5.7082049899E-01    5.6827292334E-01
    5.6572212441E-01    5.6316844576E-01    5.6061222375E-01    5.5805378767E-01
    5.5549345988E-01    5.5293155589E-01    5.5036838447E-01    5.4780424782E-01
    5.4523944160E-01    5.4267425509E-01    5.4010897130E-01    5.3754386705E-01
    5.3497921308E-01    5.3241527416E-01    5.2985230918E-01    5.2729057128E-01
    5.2473030790E-01    5.2217176091E-01    5.1961516669E-01    5.1706075623E-01
    5.1450875522E-01    5.1195938414E-01    5.0941285834E-01    5.0686938815E-01
    5.0432917893E-01    5.0179243120E-01    4.9925934068E-01    4.9673009838E-01
    4.9420489073E-01    4.9168389959E-01    4.8916730235E-01    4.8665527205E-01
    4.8414797738E-01    4.8164558283E-01    4.7914824870E-01    4.7665613121E-01
    4.7416938256E-01    4.7168815100E-01    4.6921258090E-01    4.6674281281E-01
    4.6427898354E-01    4.6182122621E-01    4.5936967031E-01    4.5692444181E-01
    4.5448566316E-01    4.5205345337E-01    4.4962792810E-01    4.4720919969E-01
    4.4479737723E-01    4.4239256660E-01    4.3999487056E-01    4.3760438877E-01
    4.3522121787E-01    4.3284545152E-01    4.3047718046E-01    4.2811649257E-01
    4.2576347290E-01    4.2341820373E-01    4.2108076465E-01    4.1875123254E-01
    4.1642968171E-01    4.1411618385E-01    4.1181080817E-01    4.0951362137E-01
    4.0722468774E-01    4.0494406917E-01    4.0267182521E-01    4.0040801312E-01
    3.9815268790E-01    3.9590590232E-01    3.9366770702E-01    3.9143815046E-01
    3.8921727905E-01    3.8700513712E-01    3.8480176703E-01    3.8260720912E-01
    3.8042150184E-01    3.7824468171E-01    3.7607678342E-01    3.7391783982E-01
    3.7176788199E-01    3.6962693924E-01    3.6749503919E-01    3.6537220775E-01
    3.6325846921E-01    3.6115384625E-01    3.5905835993E-01    3.5697202981E-01
    3.5489487392E-01    3.5282690878E-01    3.5076814950E-01    3.4871860974E-01
    3.4667830178E-01    3.4464723653E-01    3.4262542357E-01    3.4061287118E-01
    3.3860958637E-01    3.3661557488E-01    3.3463084127E-01    3.3265538886E-01
    3.3068921983E-01    3.2873233524E-01    3.2678473499E-01    3.2484641793E-01
    3.2291738183E-01    3.2099762343E-01    3.1908713844E-01    3.1718592161E-01
    3.1529396670E-01    3.1341126653E-01    3.1153781300E-01    3.0967359712E-01
    3.0781860903E-01    3.0597283799E-01    3.0413627245E-01    3.0230890005E-01
    3.0049070763E-01    2.9868168125E-01    2.9688180625E-01    2.9509106721E-01
    2.9330944801E-01    2.9153693185E-01    2.8977350124E-01    2.8801913803E-01
    2.8627382346E-01    2.8453753813E-01    2.8281026203E-01    2.8109197460E-01
    2.7938265467E-01    2.7768228056E-01    2.7599083001E-01    2.7430828029E-01
    2.7263460813E-01    2.7096978979E-01    2.6931380104E-01    2.6766661722E-01
    2.6602821320E-01    2.6439856343E-01    2.6277764195E-01    2.6116542240E-01
    2.5956187801E-01    2.5796698167E-01    2.5638070588E-01    2.5480302281E-01
    2.5323390427E-01    2.5167332177E-01    2.5012124649E-01    2.4857764932E-01
    2.4704250085E-01    2.4551577141E-01    2.4399743105E-01    2.4248744955E-01
    2.4098579648E-01    2.3949244115E-01    2.3800735263E-01    2.3653049982E-01
    2.3506185137E-01    2.3360137576E-01    2.3214904127E-01    2.3070481602E-01
    2.2926866793E-01    2.2784056479E-01    2.2642047422E-01    2.2500836371E-01
    2.2360420061E-01    2.2220795213E-01    2.2081958539E-01    2.1943906736E-01
    2.1806636493E-01    2.1670144489E-01    2.1534427393E-01    2.1399481868E-01
    2.1265304567E-01    2.1131892135E-01    2.0999241215E-01    2.0867348440E-01
    2.0736210439E-01    2.0605823838E-01    2.0476185258E-01    2.0347291315E-01
    2.0219138625E-01    2.0091723800E-01    1.9965043450E-01    1.9839094185E-01
    1.9713872612E-01    1.9589375341E-01    1.9465598979E-01    1.9342540136E-01
    1.9220195420E-01    1.9098561444E-01    1.8977634821E-01    1.8857412166E-01
    1.8737890098E-01    1.8619065238E-01    1.8500934210E-01    1.8383493644E-01
    1.8266740172E-01    1.8150670432E-01    1.8035281065E-01    1.7920568719E-01
    1.7806530047E-01    1.7693161707E-01    1.7580460364E-01    1.7468422689E-01
    1.7357045359E-01    1.7246325059E-01    1.7136258481E-01    1.7026842322E-01
    1.6918073291E-01    1.6809948101E-01    1.6702463475E-01    1.6595616143E-01
    1.6489402846E-01    1.6383820330E-01    1.6278865354E-01    1.6174534681E-01
    1.6070825089E-01    1.5967733362E-01    1.5865256293E-01    1.5763390687E-01
    1.5662133357E-01    1.5561481127E-01    1.5461430833E-01    1.5361979317E-01
    1.5263123434E-01    1.5164860051E-01    1.5067186042E-01    1.4970098296E-01
    1.4873593709E-01    1.4777669191E-01    1.4682321661E-01    1.4587548050E-01
    1.4493345301E-01    1.4399710367E-01    1.4306640214E-01    1.4214131818E-01
    1.4122182167E-01    1.4030788261E-01    1.3939947112E-01    1.3849655743E-01
    1.3759911190E-01    1.3670710498E-01    1.3582050727E-01    1.3493928948E-01
    1.3406342244E-01    1.3319287710E-01    1.3232762452E-01    1.3146763590E-01
    1.3061288255E-01    1.2976333590E-01    1.2891896751E-01    1.2807974905E-01
    1.2724565232E-01    1.2641664925E-01    1.2559271188E-01    1.2477381236E-01
    1.2395992300E-01    1.2315101620E-01    1.2234706450E-01    1.2154804055E-01
    1.2075391712E-01    1.1996466712E-01    1.1918026358E-01    1.1840067963E-01
    1.1762588855E-01    1.1685586372E-01    1.1609057866E-01    1.1533000700E-01
    1.1457412249E-01    1.1382289901E-01    1.1307631057E-01    1.1233433127E-01
    1.1159693536E-01    1.1086409720E-01    1.1013579127E-01    1.0941199217E-01
    1.0869267462E-01    1.0797781347E-01    1.0726738368E-01    1.0656136031E-01
    1.0585971859E-01    1.0516243381E-01    1.0446948141E-01    1.0378083696E-01
    1.0309647611E-01    1.0241637467E-01    1.0174050852E-01    1.0106885370E-01
    1.0040138633E-01    9.9738082686E-02    9.9078919121E-02    9.8423872125E-02
    9.7772918294E-02    9.7126034342E-02    9.6483197096E-02    9.5844383498E-02
    9.5209570599E-02    9.4578735568E-02    9.3951855684E-02    9.3328908336E-02
    9.2709871027E-02    9.2094721372E-02    9.1483437095E-02    9.0875996030E-02
    9.0272376122E-02    8.9672555426E-02    8.9076512104E-02    8.8484224430E-02
    8.7895670782E-02    8.7310829650E-02    8.6729679629E-02    8.6152199421E-02
    8.5578367835E-02    8.5008163788E-02    8.4441566299E-02    8.3878554496E-02
    8.3319107608E-02    8.2763204973E-02    8.2210826029E-02    8.1661950321E-02
    8.1116557493E-02    8.0574627296E-02    8.0036139581E-02    7.9501074302E-02
    7.8969411513E-02    7.8441131370E-02    7.7916214129E-02    7.7394640149E-02
    7.6876389884E-02    7.6361443892E-02    7.5849782826E-02    7.5341387441E-02
    7.4836238589E-02    7.4334317217E-02    7.3835604373E-02    7.3340081201E-02
    7.2847728940E-02    7.2358528926E-02    7.1872462591E-02    7.1389511462E-02
    7.0909657160E-02    7.0432881402E-02    6.9959165998E-02    6.9488492851E-02
    6.9020843959E-02    6.8556201411E-02    6.8094547391E-02    6.7635864171E-02
    6.7180134119E-02    6.6727339691E-02    6.6277463436E-02    6.5830487992E-02
    6.5386396087E-02    6.4945170541E-02    6.4506794261E-02    6.4071250243E-02
    6.3638521572E-02    6.3208591423E-02    6.2781443055E-02    6.2357059818E-02
    6.1935425148E-02    6.1516522565E-02    6.1100335680E-02    6.0686848186E-02
    6.0276043863E-02    5.9867906578E-02    5.9462420279E-02    5.9059569001E-02
    5.8659336862E-02    5.8261708067E-02    5.7866666899E-02    5.7474197727E-02
    5.7084285004E-02    5.6696913262E-02    5.6312067118E-02    5.5929731269E-02
    5.5549890493E-02    5.5172529650E-02    5.4797633679E-02    5.4425187602E-02
    5.4055176517E-02    5.3687585605E-02    5.3322400125E-02    5.2959605414E-02
    5.2599186888E-02    5.2241130042E-02    5.1885420448E-02    5.1532043755E-02
    5.1180985690E-02    5.0832232057E-02    5.0485768736E-02    5.0141581684E-02
    4.9799656931E-02    4.9459980587E-02    4.9122538834E-02    4.8787317930E-02
    4.8454304206E-02    4.8123484070E-02    4.7794844001E-02    4.7468370554E-02
    4.7144050356E-02    4.6821870107E-02    4.6501816579E-02    4.6183876618E-02
    4.5868037141E-02    4.5554285136E-02    4.5242607663E-02    4.4932991854E-02
    4.4625424911E-02    4.4319894105E-02    4.4016386779E-02    4.3714890345E-02
    4.3415392285E-02    4.3117880150E-02    4.2822341560E-02    4.2528764203E-02
    4.2237135836E-02    4.1947444284E-02    4.1659677438E-02    4.1373823260E-02
    4.1089869775E-02    4.0807805077E-02    4.0527617327E-02    4.0249294751E-02
    3.9972825641E-02    3.9698198355E-02    3.9425401317E-02    3.9154423014E-02
    3.8885251999E-02    3.8617876891E-02    3.8352286371E-02    3.8088469183E-02
    3.7826414138E-02    3.7566110107E-02    3.7307546026E-02    3.7050710893E-02
    3.6795593768E-02    3.6542183775E-02    3.6290470097E-02    3.6040441981E-02
    3.5792088734E-02    3.5545399724E-02    3.5300364381E-02    3.5056972195E-02
    3.4815212715E-02    3.4575075551E-02    3.4336550373E-02    3.4099626909E-02
    3.3864294947E-02    3.3630544333E-02    3.3398364974E-02    3.3167746832E-02
    3.2938679928E-02    3.2711154343E-02    3.2485160212E-02    3.2260687729E-02
    3.2037727146E-02    3.1816268768E-02    3.1596302961E-02    3.1377820144E-02
    3.1160810792E-02    3.0945265437E-02    3.0731174665E-02    3.0518529118E-02
    3.0307319493E-02    3.0097536539E-02    2.9889171063E-02    2.9682213924E-02
    2.9476656034E-02    2.9272488360E-02    2.9069701921E-02    2.8868287791E-02
    2.8668237093E-02    2.8469541007E-02    2.8272190762E-02    2.8076177640E-02
    2.7881492974E-02    2.7688128150E-02    2.7496074603E-02    2.7305323821E-02
    2.7115867341E-02    2.6927696753E-02    2.6740803693E-02    2.6555179851E-02
    2.6370816965E-02    2.6187706821E-02    2.6005841257E-02    2.5825212159E-02
    2.5645811459E-02    2.5467631142E-02    2.5290663238E-02    2.5114899826E-02
    2.4940333032E-02    2.4766955031E-02    2.4594758044E-02    2.4423734340E-02
    2.4253876233E-02    2.4085176086E-02    2.3917626305E-02    2.3751219345E-02
    2.3585947707E-02    2.3421803934E-02    2.3258780618E-02    2.3096870395E-02
    2.2936065946E-02    2.2776359995E-02    2.2617745313E-02    2.2460214713E-02
    2.2303761054E-02    2.2148377236E-02    2.1994056206E-02    2.1840790951E-02
    2.1688574503E-02    2.1537399936E-02    2.1387260367E-02    2.1238148955E-02
    2.1090058902E-02    2.0942983450E-02    2.0796915885E-02    2.0651849532E-02
    2.0507777761E-02    2.0364693979E-02    2.0222591636E-02    2.0081464222E-02
    1.9941305267E-02    1.9802108343E-02    1.9663867059E-02    1.9526575067E-02
    1.9390226056E-02    1.9254813754E-02    1.9120331931E-02    1.8986774394E-02
    1.8854134987E-02    1.8722407597E-02    1.8591586144E-02    1.8461664589E-02
    1.8332636932E-02    1.8204497207E-02    1.8077239489E-02    1.7950857888E-02
    1.7825346550E-02    1.7700699662E-02    1.7576911444E-02    1.7453976153E-02
    1.7331888083E-02    1.7210641563E-02    1.7090230959E-02    1.6970650672E-02
    1.6851895138E-02    1.6733958829E-02    1.6616836252E-02    1.6500521947E-02
    1.6385010490E-02    1.6270296493E-02    1.6156374600E-02    1.6043239489E-02
    1.5930885872E-02    1.5819308497E-02    1.5708502143E-02    1.5598461621E-02
    1.5489181779E-02    1.5380657496E-02    1.5272883682E-02    1.5165855281E-02
    1.5059567271E-02    1.4954014659E-02    1.4849192486E-02    1.4745095824E-02
    1.4641719777E-02    1.4539059481E-02    1.4437110101E-02    1.4335866835E-02
    1.4235324912E-02    1.4135479591E-02    1.4036326161E-02    1.3937859942E-02
    1.3840076284E-02    1.3742970567E-02    1.3646538202E-02    1.3550774627E-02
    1.3455675312E-02    1.3361235755E-02    1.3267451483E-02    1.3174318053E-02
    1.3081831050E-02    1.2989986087E-02    1.2898778806E-02    1.2808204879E-02
    1.2718260003E-02    1.2628939906E-02    1.2540240341E-02    1.2452157090E-02
    1.2364685963E-02    1.2277822795E-02    1.2191563452E-02    1.2105903824E-02
    1.2020839827E-02    1.1936367407E-02    1.1852482533E-02    1.1769181204E-02
    1.1686459441E-02    1.1604313294E-02    1.1522738839E-02    1.1441732174E-02
    1.1361289428E-02    1.1281406751E-02    1.1202080321E-02    1.1123306338E-02
    1.1045081031E-02    1.0967400650E-02    1.0890261472E-02    1.0813659798E-02
    1.0737591953E-02    1.0662054285E-02    1.0587043169E-02    1.0512555002E-02
    1.0438586204E-02    1.0365133220E-02    1.0292192518E-02    1.0219760590E-02
    1.0147833949E-02    1.0076409134E-02    1.0005482704E-02    9.9350512436E-03
    9.8651113579E-03    9.7956596751E-03    9.7266928460E-03    9.6582075431E-03
    9.5902004615E-03    9.5226683179E-03    9.4556078507E-03    9.3890158202E-03
    9.3228890080E-03    9.2572242174E-03    9.1920182726E-03    9.1272680191E-03
    9.0629703234E-03    8.9991220727E-03    8.9357201752E-03    8.8727615594E-03
    8.8102431745E-03    8.7481619899E-03    8.6865149953E-03    8.6252992004E-03
    8.5645116351E-03    8.5041493488E-03    8.4442094108E-03    8.3846889101E-03
    8.3255849549E-03    8.2668946729E-03    8.2086152111E-03    8.1507437354E-03
    8.0932774308E-03    8.0362135013E-03    7.9795491694E-03    7.9232816763E-03
    7.8674082818E-03    7.8119262640E-03    7.7568329193E-03    7.7021255623E-03
    7.6478015255E-03    7.5938581596E-03    7.5402928328E-03    7.4871029312E-03
    7.4342858585E-03    7.3818390357E-03    7.3297599014E-03    7.2780459114E-03
    7.2266945383E-03    7.1757032724E-03    7.1250696202E-03    7.0747911056E-03
    7.0248652690E-03    6.9752896672E-03    6.9260618738E-03    6.8771794787E-03
    6.8286400880E-03    6.7804413241E-03    6.7325808254E-03    6.6850562463E-03
    6.6378652571E-03    6.5910055439E-03    6.5444748083E-03    6.4982707676E-03
    6.4523911546E-03    6.4068337174E-03    6.3615962194E-03    6.3166764392E-03
    6.2720721703E-03    6.2277812214E-03    6.1838014159E-03    6.1401305922E-03
    6.0967666031E-03    6.0537073163E-03    6.0109506136E-03    5.9684943917E-03
    5.9263365611E-03    5.8844750469E-03    5.8429077881E-03    5.8016327378E-03
    5.7606478632E-03    5.7199511449E-03    5.6795405778E-03    5.6394141702E-03
    5.5995699438E-03    5.5600059342E-03    5.5207201900E-03    5.4817107735E-03
    5.4429757598E-03    5.4045132375E-03    5.3663213081E-03    5.3283980861E-03
    5.2907416988E-03    5.2533502864E-03    5.2162220018E-03    5.1793550105E-03
    5.1427474906E-03    5.1063976325E-03    5.0703036392E-03    5.0344637259E-03
    4.9988761201E-03    4.9635390612E-03    4.9284508009E-03    4.8936096029E-03
    4.8590137426E-03    4.8246615074E-03    4.7905511964E-03    4.7566811202E-03
    4.7230496013E-03    4.6896549734E-03    4.6564955819E-03    4.6235697834E-03
    4.5908759459E-03    4.5584124484E-03    4.5261776813E-03    4.4941700458E-03
    4.4623879544E-03    4.4308298302E-03    4.3994941074E-03    4.3683792308E-03
    4.3374836560E-03    4.3068058491E-03    4.2763442869E-03    4.2460974567E-03
    4.2160638560E-03    4.1862419929E-03    4.1566303857E-03    4.1272275627E-03
    4.0980320628E-03    4.0690424345E-03    4.0402572366E-03    4.0116750378E-03
    3.9832944165E-03    3.9551139610E-03    3.9271322695E-03    3.8993479498E-03
    3.8717596190E-03    3.8443659043E-03    3.8171654419E-03    3.7901568777E-03
    3.7633388668E-03    3.7367100738E-03    3.7102691722E-03    3.6840148450E-03
    3.6579457841E-03    3.6320606906E-03    3.6063582744E-03    3.5808372545E-03
    3.5554963586E-03    3.5303343234E-03    3.5053498942E-03    3.4805418250E-03
    3.4559088786E-03    3.4314498260E-03    3.4071634471E-03    3.3830485301E-03
    3.3591038715E-03    3.3353282764E-03    3.3117205578E-03    3.2882795373E-03
    3.2650040444E-03    3.2418929170E-03    3.2189450008E-03    3.1961591497E-03
    3.1735342253E-03    3.1510690974E-03    3.1287626435E-03    3.1066137489E-03
    3.0846213066E-03    3.0627842174E-03    3.0411013896E-03    3.0195717393E-03
    2.9981941898E-03    2.9769676722E-03    2.9558911248E-03    2.9349634935E-03
    2.9141837314E-03    2.8935507988E-03    2.8730636634E-03    2.8527213000E-03
    2.8325226905E-03    2.8124668239E-03    2.7925526963E-03    2.7727793108E-03
    2.7531456773E-03    2.7336508127E-03    2.7142937408E-03    2.6950734920E-03
    2.6759891037E-03    2.6570396198E-03    2.6382240910E-03    2.6195415746E-03
    2.6009911343E-03    2.5825718406E-03    2.5642827702E-03    2.5461230065E-03
    2.5280916391E-03    2.5101877641E-03    2.4924104837E-03    2.4747589066E-03
    2.4572321475E-03    2.4398293275E-03    2.4225495737E-03    2.4053920193E-03
    2.3883558035E-03    2.3714400716E-03    2.3546439748E-03    2.3379666704E-03
    2.3214073213E-03    2.3049650966E-03    2.2886391708E-03    2.2724287244E-03
    2.2563329438E-03    2.2403510206E-03    2.2244821526E-03    2.2087255428E-03
    2.1930803999E-03    2.1775459382E-03    2.1621213775E-03    2.1468059429E-03
    2.1315988650E-03    2.1164993799E-03    2.1015067289E-03    2.0866201587E-03
    2.0718389212E-03    2.0571622736E-03    2.0425894781E-03    2.0281198024E-03
    2.0137525191E-03    1.9994869060E-03    1.9853222458E-03    1.9712578263E-03
    1.9572929405E-03    1.9434268860E-03    1.9296589656E-03    1.9159884868E-03
    1.9024147620E-03    1.8889371086E-03    1.8755548484E-03    1.8622673083E-03
    1.8490738199E-03    1.8359737192E-03    1.8229663471E-03    1.8100510491E-03
    1.7972271753E-03    1.7844940801E-03    1.7718511229E-03    1.7592976672E-03
    1.7468330810E-03    1.7344567370E-03    1.7221680121E-03    1.7099662875E-03
    1.6978509490E-03    1.6858213864E-03    1.6738769940E-03    1.6620171704E-03
    1.6502413181E-03    1.6385488442E-03    1.6269391596E-03    1.6154116797E-03
    1.6039658237E-03    1.5926010150E-03    1.5813166811E-03    1.5701122534E-03
    1.5589871673E-03    1.5479408624E-03    1.5369727819E-03    1.5260823732E-03
    1.5152690874E-03    1.5045323795E-03    1.4938717084E-03    1.4832865368E-03
    1.4727763310E-03    1.4623405612E-03    1.4519787014E-03    1.4416902291E-03
    1.4314746256E-03    1.4213313759E-03    1.4112599686E-03    1.4012598956E-03
    1.3913306529E-03    1.3814717396E-03    1.3716826585E-03    1.3619629159E-03
    1.3523120217E-03    1.3427294889E-03    1.3332148342E-03    1.3237675777E-03
    1.3143872428E-03    1.3050733563E-03    1.2958254482E-03    1.2866430520E-03
    1.2775257044E-03    1.2684729453E-03    1.2594843180E-03    1.2505593688E-03
    1.2416976473E-03    1.2328987064E-03    1.2241621019E-03    1.2154873930E-03
    1.2068741417E-03    1.1983219134E-03    1.1898302764E-03    1.1813988019E-03
    1.1730270645E-03    1.1647146413E-03    1.1564611129E-03    1.1482660625E-03
    1.1401290764E-03    1.1320497437E-03    1.1240276564E-03    1.1160624096E-03
    1.1081536009E-03    1.1003008311E-03    1.0925037036E-03    1.0847618245E-03
    1.0770748030E-03    1.0694422508E-03    1.0618637823E-03    1.0543390149E-03
    1.0468675684E-03    1.0394490654E-03    1.0320831313E-03    1.0247693939E-03
    1.0175074838E-03    1.0102970340E-03    1.0031376804E-03    9.9602906130E-04
    9.8897081745E-04    9.8196259229E-04    9.7500403171E-04    9.6809478413E-04
    9.6123450042E-04    9.5442283394E-04    9.4765944048E-04    9.4094397826E-04
   </PP_CHI.5>
 </PP_PSWFC>
 <PP_NLCC type="real"  size="1220" columns="4">
    8.8889389662E+00    8.8859630306E+00    8.8770408205E+00    8.8621891107E+00
    8.8414358039E+00    8.8148198493E+00    8.7823911278E+00    8.7442103058E+00
    8.7003486576E+00    8.6508878568E+00    8.5959197387E+00    8.5355460324E+00
    8.4698780662E+00    8.3990364455E+00    8.3231507055E+00    8.2423589394E+00
    8.1568074038E+00    8.0666501031E+00    7.9720483536E+00    7.8731703298E+00
    7.7701905938E+00    7.6632896110E+00    7.5526532515E+00    7.4384722813E+00
    7.3209418439E+00    7.2002609348E+00    7.0766318700E+00    6.9502597513E+00
    6.8213519295E+00    6.6901174679E+00    6.5567666077E+00    6.4215102373E+00
    6.2845593668E+00    6.1461246098E+00    6.0064156749E+00    5.8656408666E+00
    5.7240065990E+00    5.5817169235E+00    5.4389730705E+00    5.2959730085E+00
    5.1529110205E+00    5.0099772988E+00    4.8673575603E+00    4.7252326823E+00
    4.5837783603E+00    4.4431647878E+00    4.3035563599E+00    4.1651114003E+00
    4.0279819124E+00    3.8923133557E+00    3.7582444460E+00    3.6259069812E+00
    3.4954256924E+00    3.3669181195E+00    3.2404945116E+00    3.1162577524E+00
    2.9943033101E+00    2.8747192101E+00    2.7575860322E+00    2.6429769300E+00
    2.5309576726E+00    2.4215867071E+00    2.3149152428E+00    2.2109873539E+00
    2.1098401018E+00    2.0115036746E+00    1.9160015441E+00    1.8233506375E+00
    1.7335615249E+00    1.6466386194E+00    1.5625803901E+00    1.4813795862E+00
    1.4030234706E+00    1.3274940637E+00    1.2547683932E+00    1.1848187519E+00
    1.1176129599E+00    1.0531146317E+00    9.9128344567E-01    9.3207541633E-01
    8.7544316701E-01    8.2133620260E-01    7.6970118118E-01    7.2048218359E-01
    6.7362098001E-01    6.2905729272E-01    5.8672905411E-01    5.4657265931E-01
    5.0852321264E-01    4.7251476715E-01    4.3848055681E-01    4.0635322060E-01
    3.7606501811E-01    3.4754803623E-01    3.2073438639E-01    2.9555639219E-01
    2.7194676709E-01    2.4983878183E-01    2.2916642153E-01    2.0986453240E-01
    1.9186895776E-01    1.7511666362E-01    1.5954585367E-01    1.4509607385E-01
    1.3170830654E-01    1.1932505458E-01    1.0789041530E-01    9.7350144771E-02
    8.7651712543E-02    7.8744347198E-02    7.0579072961E-02    6.3108737769E-02
    5.6288033140E-02    5.0073506214E-02    4.4423564379E-02    3.9298472873E-02
    3.4660345789E-02    3.0473130912E-02    2.6702588816E-02    2.3316266653E-02
    2.0283467068E-02    1.7575212687E-02    1.5164206585E-02    1.3024789170E-02
    1.1132891900E-02    9.4659882298E-03    8.0030421899E-03    6.7244549753E-03
    5.6120099148E-03    4.6488161722E-03    3.8192515192E-03    3.1089044993E-03
    2.5045162856E-03    1.9939225186E-03    1.5659953896E-03    1.2105862183E-03
    9.1846875210E-04    6.8128339707E-04    4.9148257168E-04    3.4227735337E-04
    2.2758557194E-04    1.4198148356E-04    8.0647142280E-05    3.9325568250E-05
    1.4275794904E-05    2.2298616477E-06    3.5180280649E-07    6.1986691677E-06
    1.7683604458E-05    3.3040986161E-05    5.0793627896E-05    6.9722029290E-05
    8.8835648940E-05    1.0734616650E-04    1.2464269146E-04    1.4026886839E-04
    1.5390182164E-04    1.6533287667E-04    1.7444998981E-04    1.8122181434E-04
    1.8568332696E-04    1.8792293616E-04    1.8807099200E-04    1.8628961528E-04
    1.8276376380E-04    1.7769345269E-04    1.7128704689E-04    1.6375554448E-04
    1.5530777088E-04    1.4614640618E-04    1.3646476977E-04    1.2644428905E-04
    1.1625258190E-04    1.0604208569E-04    9.5949168740E-05    8.6093663696E-05
    7.6578765908E-05    6.7491243332E-05    5.8901908375E-05    5.0866305713E-05
    4.3425573849E-05    3.6607441827E-05    3.0427326144E-05    2.4889496387E-05
    1.9988281555E-05    1.5709292314E-05    1.2030637562E-05    8.9241166738E-06
    6.3563716582E-06    4.2899860819E-06    2.6845201202E-06    1.4974733848E-06
    6.8516929278E-07    2.0355667576E-07    8.9260645923E-09    5.8539668303E-08
    3.1117540399E-07    7.2758660583E-07    1.2708800433E-06    1.9068157774E-06
    2.6040331140E-06    3.3342075056E-06    4.0721437048E-06    4.7958107997E-06
    5.4863249916E-06    6.1278860713E-06    6.7076735768E-06    7.2157085417E-06
    7.6446866091E-06    7.9897880808E-06    8.2484702041E-06    8.4202466979E-06
    8.5064591739E-06    8.5100447389E-06    8.4353036872E-06    8.2876707520E-06
    8.0734930078E-06    7.7998170681E-06    7.4741878659E-06    7.1044608531E-06
    6.6986290958E-06    6.2646663701E-06    5.8103870267E-06    5.3433230732E-06
    4.8706185966E-06    4.3989414100E-06    3.9344115578E-06    3.4825461073E-06
    3.0482194452E-06    2.6356381674E-06    2.2483295211E-06    1.8891422470E-06
    1.5602585951E-06    1.2632162494E-06    9.9893886060E-07    7.6777387782E-07
    5.6953639103E-07    4.0355772967E-07    2.6873758648E-07    1.6359852372E-07
    8.6341786691E-08    3.4903393824E-08    7.0096051881E-09    2.3095221319E-10
    1.2034085413E-08    3.9830811143E-08    8.1023807761E-08    1.3304857871E-07
    1.9341129008E-07    2.5972228121E-07    3.2972508244E-07    4.0132084325E-07
    4.7258821164E-07    5.4179872472E-07    6.0742782705E-07    6.6816174180E-07
    7.2290041753E-07    7.7075682244E-07    8.1105292013E-07    8.4331264797E-07
    8.6725225965E-07    8.8276840289E-07    8.8992429674E-07    8.8893439023E-07
    8.8014785418E-07    8.6403126951E-07    8.4115085034E-07    8.1215449836E-07
    7.7775401850E-07    7.3870773327E-07    6.9580374343E-07    6.4984407070E-07
    6.0162982373E-07    5.5194757570E-07    5.0155706293E-07    4.5118027267E-07
    4.0149203425E-07    3.5311209319E-07    3.0659871187E-07    2.6244377880E-07
    2.2106936287E-07    1.8282569822E-07    1.4799048322E-07    1.1676942995E-07
    8.9297954796E-08    6.5643937185E-08    4.5811180742E-08    2.9752027213E-08
    1.7334705117E-08    8.3522974549E-09    2.8408344465E-09    4.5734141768E-10
   -1.1710783513E-10   -5.0169045212E-11    4.3776775705E-11    6.7863386545E-12
   -8.9858003871E-12    0.0000000000E+00    0.0000000000E+00    0.0000000000E+00
    0.0000000000E+00    0.0000000000E+00    0.0000000000E+00    0.0000000000E+00
    0.0000000000E+00    0.0000000000E+00    0.0000000000E+00    0.0000000000E+00
    0.0000000000E+00    0.0000000000E+00    0.0000000000E+00    0.0000000000E+00
    0.0000000000E+00    0.0000000000E+00    0.0000000000E+00    0.0000000000E+00
    0.0000000000E+00    0.0000000000E+00    0.0000000000E+00    0.0000000000E+00
    0.0000000000E+00    0.0000000000E+00    0.0000000000E+00    0.0000000000E+00
    0.0000000000E+00    0.0000000000E+00    0.0000000000E+00    0.0000000000E+00
    0.0000000000E+00    0.0000000000E+00    0.0000000000E+00    0.0000000000E+00
    0.0000000000E+00    0.0000000000E+00    0.0000000000E+00    0.0000000000E+00
    0.0000000000E+00    0.0000000000E+00    0.0000000000E+00    0.0000000000E+00
    0.0000000000E+00    0.0000000000E+00    0.0000000000E+00    0.0000000000E+00
    0.0000000000E+00    0.0000000000E+00    0.0000000000E+00    0.0000000000E+00
    0.0000000000E+00    0.0000000000E+00    0.0000000000E+00    0.0000000000E+00
    0.0000000000E+00    0.0000000000E+00    0.0000000000E+00    0.0000000000E+00
    0.0000000000E+00    0.0000000000E+00    0.0000000000E+00    0.0000000000E+00
    0.0000000000E+00    0.0000000000E+00    0.0000000000E+00    0.0000000000E+00
    0.0000000000E+00    0.0000000000E+00    0.0000000000E+00    0.0000000000E+00
    0.0000000000E+00    0.0000000000E+00    0.0000000000E+00    0.0000000000E+00
    0.0000000000E+00    0.0000000000E+00    0.0000000000E+00    0.0000000000E+00
    0.0000000000E+00    0.0000000000E+00    0.0000000000E+00    0.0000000000E+00
    0.0000000000E+00    0.0000000000E+00    0.0000000000E+00    0.0000000000E+00
    0.0000000000E+00    0.0000000000E+00    0.0000000000E+00    0.0000000000E+00
    0.0000000000E+00    0.0000000000E+00    0.0000000000E+00    0.0000000000E+00
    0.0000000000E+00    0.0000000000E+00    0.0000000000E+00    0.0000000000E+00
    0.0000000000E+00    0.0000000000E+00    0.0000000000E+00    0.0000000000E+00
    0.0000000000E+00    0.0000000000E+00    0.0000000000E+00    0.0000000000E+00
    0.0000000000E+00    0.0000000000E+00    0.0000000000E+00    0.0000000000E+00
    0.0000000000E+00    0.0000000000E+00    0.0000000000E+00    0.0000000000E+00
    0.0000000000E+00    0.0000000000E+00    0.0000000000E+00    0.0000000000E+00
    0.0000000000E+00    0.0000000000E+00    0.0000000000E+00    0.0000000000E+00
    0.0000000000E+00    0.0000000000E+00    0.0000000000E+00    0.0000000000E+00
    0.0000000000E+00    0.0000000000E+00    0.0000000000E+00    0.0000000000E+00
    0.0000000000E+00    0.0000000000E+00    0.0000000000E+00    0.0000000000E+00
    0.0000000000E+00    0.0000000000E+00    0.0000000000E+00    0.0000000000E+00
    0.0000000000E+00    0.0000000000E+00    0.0000000000E+00    0.0000000000E+00
    0.0000000000E+00    0.0000000000E+00    0.0000000000E+00    0.0000000000E+00
    0.0000000000E+00    0.0000000000E+00    0.0000000000E+00    0.0000000000E+00
    0.0000000000E+00    0.0000000000E+00    0.0000000000E+00    0.0000000000E+00
    0.0000000000E+00    0.0000000000E+00    0.0000000000E+00    0.0000000000E+00
    0.0000000000E+00    0.0000000000E+00    0.0000000000E+00    0.0000000000E+00
    0.0000000000E+00    0.0000000000E+00    0.0000000000E+00    0.0000000000E+00
    0.0000000000E+00    0.0000000000E+00    0.0000000000E+00    0.0000000000E+00
    0.0000000000E+00    0.0000000000E+00    0.0000000000E+00    0.0000000000E+00
    0.0000000000E+00    0.0000000000E+00    0.0000000000E+00    0.0000000000E+00
    0.0000000000E+00    0.0000000000E+00    0.0000000000E+00    0.0000000000E+00
    0.0000000000E+00    0.0000000000E+00    0.0000000000E+00    0.0000000000E+00
    0.0000000000E+00    0.0000000000E+00    0.0000000000E+00    0.0000000000E+00
    0.0000000000E+00    0.0000000000E+00    0.0000000000E+00    0.0000000000E+00
    0.0000000000E+00    0.0000000000E+00    0.0000000000E+00    0.0000000000E+00
    0.0000000000E+00    0.0000000000E+00    0.0000000000E+00    0.0000000000E+00
    0.0000000000E+00    0.0000000000E+00    0.0000000000E+00    0.0000000000E+00
    0.0000000000E+00    0.0000000000E+00    0.0000000000E+00    0.0000000000E+00
    0.0000000000E+00    0.0000000000E+00    0.0000000000E+00    0.0000000000E+00
    0.0000000000E+00    0.0000000000E+00    0.0000000000E+00    0.0000000000E+00
    0.0000000000E+00    0.0000000000E+00    0.0000000000E+00    0.0000000000E+00
    0.0000000000E+00    0.0000000000E+00    0.0000000000E+00    0.0000000000E+00
    0.0000000000E+00    0.0000000000E+00    0.0000000000E+00    0.0000000000E+00
    0.0000000000E+00    0.0000000000E+00    0.0000000000E+00    0.0000000000E+00
    0.0000000000E+00    0.0000000000E+00    0.0000000000E+00    0.0000000000E+00
    0.0000000000E+00    0.0000000000E+00    0.0000000000E+00    0.0000000000E+00
    0.0000000000E+00    0.0000000000E+00    0.0000000000E+00    0.0000000000E+00
    0.0000000000E+00    0.0000000000E+00    0.0000000000E+00    0.0000000000E+00
    0.0000000000E+00    0.0000000000E+00    0.0000000000E+00    0.0000000000E+00
    0.0000000000E+00    0.0000000000E+00    0.0000000000E+00    0.0000000000E+00
    0.0000000000E+00    0.0000000000E+00    0.0000000000E+00    0.0000000000E+00
    0.0000000000E+00    0.0000000000E+00    0.0000000000E+00    0.0000000000E+00
    0.0000000000E+00    0.0000000000E+00    0.0000000000E+00    0.0000000000E+00
    0.0000000000E+00    0.0000000000E+00    0.0000000000E+00    0.0000000000E+00
    0.0000000000E+00    0.0000000000E+00    0.0000000000E+00    0.0000000000E+00
    0.0000000000E+00    0.0000000000E+00    0.0000000000E+00    0.0000000000E+00
    0.0000000000E+00    0.0000000000E+00    0.0000000000E+00    0.0000000000E+00
    0.0000000000E+00    0.0000000000E+00    0.0000000000E+00    0.0000000000E+00
    0.0000000000E+00    0.0000000000E+00    0.0000000000E+00    0.0000000000E+00
    0.0000000000E+00    0.0000000000E+00    0.0000000000E+00    0.0000000000E+00
    0.0000000000E+00    0.0000000000E+00    0.0000000000E+00    0.0000000000E+00
    0.0000000000E+00    0.0000000000E+00    0.0000000000E+00    0.0000000000E+00
    0.0000000000E+00    0.0000000000E+00    0.0000000000E+00    0.0000000000E+00
    0.0000000000E+00    0.0000000000E+00    0.0000000000E+00    0.0000000000E+00
    0.0000000000E+00    0.0000000000E+00    0.0000000000E+00    0.0000000000E+00
    0.0000000000E+00    0.0000000000E+00    0.0000000000E+00    0.0000000000E+00
    0.0000000000E+00    0.0000000000E+00    0.0000000000E+00    0.0000000000E+00
    0.0000000000E+00    0.0000000000E+00    0.0000000000E+00    0.0000000000E+00
    0.0000000000E+00    0.0000000000E+00    0.0000000000E+00    0.0000000000E+00
    0.0000000000E+00    0.0000000000E+00    0.0000000000E+00    0.0000000000E+00
    0.0000000000E+00    0.0000000000E+00    0.0000000000E+00    0.0000000000E+00
    0.0000000000E+00    0.0000000000E+00    0.0000000000E+00    0.0000000000E+00
    0.0000000000E+00    0.0000000000E+00    0.0000000000E+00    0.0000000000E+00
    0.0000000000E+00    0.0000000000E+00    0.0000000000E+00    0.0000000000E+00
    0.0000000000E+00    0.0000000000E+00    0.0000000000E+00    0.0000000000E+00
    0.0000000000E+00    0.0000000000E+00    0.0000000000E+00    0.0000000000E+00
    0.0000000000E+00    0.0000000000E+00    0.0000000000E+00    0.0000000000E+00
    0.0000000000E+00    0.0000000000E+00    0.0000000000E+00    0.0000000000E+00
    0.0000000000E+00    0.0000000000E+00    0.0000000000E+00    0.0000000000E+00
    0.0000000000E+00    0.0000000000E+00    0.0000000000E+00    0.0000000000E+00
    0.0000000000E+00    0.0000000000E+00    0.0000000000E+00    0.0000000000E+00
    0.0000000000E+00    0.0000000000E+00    0.0000000000E+00    0.0000000000E+00
    0.0000000000E+00    0.0000000000E+00    0.0000000000E+00    0.0000000000E+00
    0.0000000000E+00    0.0000000000E+00    0.0000000000E+00    0.0000000000E+00
    0.0000000000E+00    0.0000000000E+00    0.0000000000E+00    0.0000000000E+00
    0.0000000000E+00    0.0000000000E+00    0.0000000000E+00    0.0000000000E+00
    0.0000000000E+00    0.0000000000E+00    0.0000000000E+00    0.0000000000E+00
    0.0000000000E+00    0.0000000000E+00    0.0000000000E+00    0.0000000000E+00
    0.0000000000E+00    0.0000000000E+00    0.0000000000E+00    0.0000000000E+00
    0.0000000000E+00    0.0000000000E+00    0.0000000000E+00    0.0000000000E+00
    0.0000000000E+00    0.0000000000E+00    0.0000000000E+00    0.0000000000E+00
    0.0000000000E+00    0.0000000000E+00    0.0000000000E+00    0.0000000000E+00
    0.0000000000E+00    0.0000000000E+00    0.0000000000E+00    0.0000000000E+00
    0.0000000000E+00    0.0000000000E+00    0.0000000000E+00    0.0000000000E+00
    0.0000000000E+00    0.0000000000E+00    0.0000000000E+00    0.0000000000E+00
    0.0000000000E+00    0.0000000000E+00    0.0000000000E+00    0.0000000000E+00
    0.0000000000E+00    0.0000000000E+00    0.0000000000E+00    0.0000000000E+00
    0.0000000000E+00    0.0000000000E+00    0.0000000000E+00    0.0000000000E+00
    0.0000000000E+00    0.0000000000E+00    0.0000000000E+00    0.0000000000E+00
    0.0000000000E+00    0.0000000000E+00    0.0000000000E+00    0.0000000000E+00
    0.0000000000E+00    0.0000000000E+00    0.0000000000E+00    0.0000000000E+00
    0.0000000000E+00    0.0000000000E+00    0.0000000000E+00    0.0000000000E+00
    0.0000000000E+00    0.0000000000E+00    0.0000000000E+00    0.0000000000E+00
    0.0000000000E+00    0.0000000000E+00    0.0000000000E+00    0.0000000000E+00
    0.0000000000E+00    0.0000000000E+00    0.0000000000E+00    0.0000000000E+00
    0.0000000000E+00    0.0000000000E+00    0.0000000000E+00    0.0000000000E+00
    0.0000000000E+00    0.0000000000E+00    0.0000000000E+00    0.0000000000E+00
    0.0000000000E+00    0.0000000000E+00    0.0000000000E+00    0.0000000000E+00
    0.0000000000E+00    0.0000000000E+00    0.0000000000E+00    0.0000000000E+00
    0.0000000000E+00    0.0000000000E+00    0.0000000000E+00    0.0000000000E+00
    0.0000000000E+00    0.0000000000E+00    0.0000000000E+00    0.0000000000E+00
    0.0000000000E+00    0.0000000000E+00    0.0000000000E+00    0.0000000000E+00
    0.0000000000E+00    0.0000000000E+00    0.0000000000E+00    0.0000000000E+00
    0.0000000000E+00    0.0000000000E+00    0.0000000000E+00    0.0000000000E+00
    0.0000000000E+00    0.0000000000E+00    0.0000000000E+00    0.0000000000E+00
    0.0000000000E+00    0.0000000000E+00    0.0000000000E+00    0.0000000000E+00
    0.0000000000E+00    0.0000000000E+00    0.0000000000E+00    0.0000000000E+00
    0.0000000000E+00    0.0000000000E+00    0.0000000000E+00    0.0000000000E+00
    0.0000000000E+00    0.0000000000E+00    0.0000000000E+00    0.0000000000E+00
    0.0000000000E+00    0.0000000000E+00    0.0000000000E+00    0.0000000000E+00
    0.0000000000E+00    0.0000000000E+00    0.0000000000E+00    0.0000000000E+00
    0.0000000000E+00    0.0000000000E+00    0.0000000000E+00    0.0000000000E+00
    0.0000000000E+00    0.0000000000E+00    0.0000000000E+00    0.0000000000E+00
    0.0000000000E+00    0.0000000000E+00    0.0000000000E+00    0.0000000000E+00
    0.0000000000E+00    0.0000000000E+00    0.0000000000E+00    0.0000000000E+00
    0.0000000000E+00    0.0000000000E+00    0.0000000000E+00    0.0000000000E+00
    0.0000000000E+00    0.0000000000E+00    0.0000000000E+00    0.0000000000E+00
    0.0000000000E+00    0.0000000000E+00    0.0000000000E+00    0.0000000000E+00
    0.0000000000E+00    0.0000000000E+00    0.0000000000E+00    0.0000000000E+00
    0.0000000000E+00    0.0000000000E+00    0.0000000000E+00    0.0000000000E+00
    0.0000000000E+00    0.0000000000E+00    0.0000000000E+00    0.0000000000E+00
    0.0000000000E+00    0.0000000000E+00    0.0000000000E+00    0.0000000000E+00
    0.0000000000E+00    0.0000000000E+00    0.0000000000E+00    0.0000000000E+00
    0.0000000000E+00    0.0000000000E+00    0.0000000000E+00    0.0000000000E+00
    0.0000000000E+00    0.0000000000E+00    0.0000000000E+00    0.0000000000E+00
    0.0000000000E+00    0.0000000000E+00    0.0000000000E+00    0.0000000000E+00
    0.0000000000E+00    0.0000000000E+00    0.0000000000E+00    0.0000000000E+00
    0.0000000000E+00    0.0000000000E+00    0.0000000000E+00    0.0000000000E+00
    0.0000000000E+00    0.0000000000E+00    0.0000000000E+00    0.0000000000E+00
    0.0000000000E+00    0.0000000000E+00    0.0000000000E+00    0.0000000000E+00
    0.0000000000E+00    0.0000000000E+00    0.0000000000E+00    0.0000000000E+00
    0.0000000000E+00    0.0000000000E+00    0.0000000000E+00    0.0000000000E+00
    0.0000000000E+00    0.0000000000E+00    0.0000000000E+00    0.0000000000E+00
    0.0000000000E+00    0.0000000000E+00    0.0000000000E+00    0.0000000000E+00
    0.0000000000E+00    0.0000000000E+00    0.0000000000E+00    0.0000000000E+00
    0.0000000000E+00    0.0000000000E+00    0.0000000000E+00    0.0000000000E+00
    0.0000000000E+00    0.0000000000E+00    0.0000000000E+00    0.0000000000E+00
    0.0000000000E+00    0.0000000000E+00    0.0000000000E+00    0.0000000000E+00
    0.0000000000E+00    0.0000000000E+00    0.0000000000E+00    0.0000000000E+00
    0.0000000000E+00    0.0000000000E+00    0.0000000000E+00    0.0000000000E+00
    0.0000000000E+00    0.0000000000E+00    0.0000000000E+00    0.0000000000E+00
    0.0000000000E+00    0.0000000000E+00    0.0000000000E+00    0.0000000000E+00
    0.0000000000E+00    0.0000000000E+00    0.0000000000E+00    0.0000000000E+00
    0.0000000000E+00    0.0000000000E+00    0.0000000000E+00    0.0000000000E+00
    0.0000000000E+00    0.0000000000E+00    0.0000000000E+00    0.0000000000E+00
    0.0000000000E+00    0.0000000000E+00    0.0000000000E+00    0.0000000000E+00
    0.0000000000E+00    0.0000000000E+00    0.0000000000E+00    0.0000000000E+00
    0.0000000000E+00    0.0000000000E+00    0.0000000000E+00    0.0000000000E+00
    0.0000000000E+00    0.0000000000E+00    0.0000000000E+00    0.0000000000E+00
    0.0000000000E+00    0.0000000000E+00    0.0000000000E+00    0.0000000000E+00
    0.0000000000E+00    0.0000000000E+00    0.0000000000E+00    0.0000000000E+00
    0.0000000000E+00    0.0000000000E+00    0.0000000000E+00    0.0000000000E+00
    0.0000000000E+00    0.0000000000E+00    0.0000000000E+00    0.0000000000E+00
    0.0000000000E+00    0.0000000000E+00    0.0000000000E+00    0.0000000000E+00
    0.0000000000E+00    0.0000000000E+00    0.0000000000E+00    0.0000000000E+00
    0.0000000000E+00    0.0000000000E+00    0.0000000000E+00    0.0000000000E+00
    0.0000000000E+00    0.0000000000E+00    0.0000000000E+00    0.0000000000E+00
    0.0000000000E+00    0.0000000000E+00    0.0000000000E+00    0.0000000000E+00
    0.0000000000E+00    0.0000000000E+00    0.0000000000E+00    0.0000000000E+00
    0.0000000000E+00    0.0000000000E+00    0.0000000000E+00    0.0000000000E+00
    0.0000000000E+00    0.0000000000E+00    0.0000000000E+00    0.0000000000E+00
    0.0000000000E+00    0.0000000000E+00    0.0000000000E+00    0.0000000000E+00
    0.0000000000E+00    0.0000000000E+00    0.0000000000E+00    0.0000000000E+00
    0.0000000000E+00    0.0000000000E+00    0.0000000000E+00    0.0000000000E+00
    0.0000000000E+00    0.0000000000E+00    0.0000000000E+00    0.0000000000E+00
    0.0000000000E+00    0.0000000000E+00    0.0000000000E+00    0.0000000000E+00
    0.0000000000E+00    0.0000000000E+00    0.0000000000E+00    0.0000000000E+00
    0.0000000000E+00    0.0000000000E+00    0.0000000000E+00    0.0000000000E+00
    0.0000000000E+00    0.0000000000E+00    0.0000000000E+00    0.0000000000E+00
    0.0000000000E+00    0.0000000000E+00    0.0000000000E+00    0.0000000000E+00
    0.0000000000E+00    0.0000000000E+00    0.0000000000E+00    0.0000000000E+00
    0.0000000000E+00    0.0000000000E+00    0.0000000000E+00    0.0000000000E+00
    0.0000000000E+00    0.0000000000E+00    0.0000000000E+00    0.0000000000E+00
    0.0000000000E+00    0.0000000000E+00    0.0000000000E+00    0.0000000000E+00
    0.0000000000E+00    0.0000000000E+00    0.0000000000E+00    0.0000000000E+00
    0.0000000000E+00    0.0000000000E+00    0.0000000000E+00    0.0000000000E+00
    0.0000000000E+00    0.0000000000E+00    0.0000000000E+00    0.0000000000E+00
    0.0000000000E+00    0.0000000000E+00    0.0000000000E+00    0.0000000000E+00
    0.0000000000E+00    0.0000000000E+00    0.0000000000E+00    0.0000000000E+00
    0.0000000000E+00    0.0000000000E+00    0.0000000000E+00    0.0000000000E+00
    0.0000000000E+00    0.0000000000E+00    0.0000000000E+00    0.0000000000E+00
    0.0000000000E+00    0.0000000000E+00    0.0000000000E+00    0.0000000000E+00
    0.0000000000E+00    0.0000000000E+00    0.0000000000E+00    0.0000000000E+00
    0.0000000000E+00    0.0000000000E+00    0.0000000000E+00    0.0000000000E+00
    0.0000000000E+00    0.0000000000E+00    0.0000000000E+00    0.0000000000E+00
    0.0000000000E+00    0.0000000000E+00    0.0000000000E+00    0.0000000000E+00
    0.0000000000E+00    0.0000000000E+00    0.0000000000E+00    0.0000000000E+00
    0.0000000000E+00    0.0000000000E+00    0.0000000000E+00    0.0000000000E+00
    0.0000000000E+00    0.0000000000E+00    0.0000000000E+00    0.0000000000E+00
    0.0000000000E+00    0.0000000000E+00    0.0000000000E+00    0.0000000000E+00
    0.0000000000E+00    0.0000000000E+00    0.0000000000E+00    0.0000000000E+00
    0.0000000000E+00    0.0000000000E+00    0.0000000000E+00    0.0000000000E+00
    0.0000000000E+00    0.0000000000E+00    0.0000000000E+00    0.0000000000E+00
    0.0000000000E+00    0.0000000000E+00    0.0000000000E+00    0.0000000000E+00
    0.0000000000E+00    0.0000000000E+00    0.0000000000E+00    0.0000000000E+00
    0.0000000000E+00    0.0000000000E+00    0.0000000000E+00    0.0000000000E+00
    0.0000000000E+00    0.0000000000E+00    0.0000000000E+00    0.0000000000E+00
    0.0000000000E+00    0.0000000000E+00    0.0000000000E+00    0.0000000000E+00
    0.0000000000E+00    0.0000000000E+00    0.0000000000E+00    0.0000000000E+00
    0.0000000000E+00    0.0000000000E+00    0.0000000000E+00    0.0000000000E+00
    0.0000000000E+00    0.0000000000E+00    0.0000000000E+00    0.0000000000E+00
    0.0000000000E+00    0.0000000000E+00    0.0000000000E+00    0.0000000000E+00
    0.0000000000E+00    0.0000000000E+00    0.0000000000E+00    0.0000000000E+00
    0.0000000000E+00    0.0000000000E+00    0.0000000000E+00    0.0000000000E+00
    0.0000000000E+00    0.0000000000E+00    0.0000000000E+00    0.0000000000E+00
    0.0000000000E+00    0.0000000000E+00    0.0000000000E+00    0.0000000000E+00
 </PP_NLCC>
 <PP_RHOATOM type="real"  size="1220" columns="4">
    0.0000000000E+00    4.2972229683E-05    1.7203403757E-04    3.8778955159E-04
    6.9180508513E-04    1.0874373499E-03    1.5809712433E-03    2.1830458812E-03
    2.9103419902E-03    3.7874986107E-03    4.8492223708E-03    6.1425484325E-03
    7.7292086619E-03    9.6880596728E-03    1.2117521192E-02    1.5137973732E-02
    1.8894063833E-02    2.3556865225E-02    2.9325845062E-02    3.6430586021E-02
    4.5132217386E-02    5.5724511322E-02    6.8534604315E-02    8.3923308108E-02
    1.0228497948E-01    1.2404692367E-01    1.4966831215E-01    1.7963860181E-01
    2.1447544915E-01    2.5472211969E-01    3.0094440010E-01    3.5372702681E-01
    4.1366965233E-01    4.8138237655E-01    5.5748087722E-01    6.4258117930E-01
    7.3729410905E-01    8.4221948335E-01    9.5794008978E-01    1.0850155164E+00
    1.2239758940E+00    1.3753156158E+00    1.5394871008E+00    1.7168946702E+00
    1.9078886022E+00    2.1127594359E+00    2.3317325869E+00    2.5649633412E+00
    2.8125322859E+00    3.0744412360E+00    3.3506097074E+00    3.6408719869E+00
    3.9449748380E+00    4.2625758816E+00    4.5932426781E+00    4.9364525359E+00
    5.2915930600E+00    5.6579634489E+00    6.0347765409E+00    6.4211616009E+00
    6.8161678349E+00    7.2187686087E+00    7.6278663422E+00    8.0422980426E+00
    8.4608414351E+00    8.8822216408E+00    9.3051183490E+00    9.7281734251E+00
    1.0149998889E+01    1.0569185201E+01    1.0984309775E+01    1.1393945670E+01
    1.1796670349E+01    1.2191074474E+01    1.2575770631E+01    1.2949401922E+01
    1.3310650358E+01    1.3658244974E+01    1.3990969608E+01    1.4307670277E+01
    1.4607262083E+01    1.4888735619E+01    1.5151162795E+01    1.5393702066E+01
    1.5615603013E+01    1.5816210252E+01    1.5994966634E+01    1.6151415742E+01
    1.6285203647E+01    1.6396079940E+01    1.6483898029E+01    1.6548614721E+01
    1.6590289092E+01    1.6609080678E+01    1.6605247002E+01    1.6579140483E+01
    1.6531204753E+01    1.6461970425E+01    1.6372050363E+01    1.6262134501E+01
    1.6132984254E+01    1.5985426588E+01    1.5820347794E+01    1.5638687028E+01
    1.5441429676E+01    1.5229600585E+01    1.5004257246E+01    1.4766482948E+01
    1.4517379992E+01    1.4258062985E+01    1.3989652282E+01    1.3713267622E+01
    1.3430021985E+01    1.3141015726E+01    1.2847331015E+01    1.2550026602E+01
    1.2250132965E+01    1.1948647824E+01    1.1646532071E+01    1.1344706117E+01
    1.1044046665E+01    1.0745383917E+01    1.0449499221E+01    1.0157123145E+01
    9.8689339851E+00    9.5855566889E+00    9.3075621832E+00    9.0354670952E+00
    8.7697338443E+00    8.5107710864E+00    8.2589344875E+00    8.0145278032E+00
    7.7778042381E+00    7.5489680597E+00    7.3281764376E+00    7.1155414838E+00
    6.9111324630E+00    6.7149781474E+00    6.5270692893E+00    6.3473611829E+00
    6.1757762924E+00    6.0122069204E+00    5.8565178932E+00    5.7085492425E+00
    5.5681188616E+00    5.4350251190E+00    5.3090494104E+00    5.1899586361E+00
    5.0775075883E+00    4.9714412375E+00    4.8714969082E+00    4.7774063345E+00
    4.6888975902E+00    4.6056968885E+00    4.5275302457E+00    4.4541250105E+00
    4.3852112550E+00    4.3205230299E+00    4.2597994852E+00    4.2027858591E+00
    4.1492343393E+00    4.0989048008E+00    4.0515654258E+00    4.0069932116E+00
    3.9649743722E+00    3.9253046419E+00    3.8877894856E+00    3.8522442250E+00
    3.8184940870E+00    3.7863741812E+00    3.7557294149E+00    3.7264143510E+00
    3.6982930176E+00    3.6712386739E+00    3.6451335401E+00    3.6198684970E+00
    3.5953427604E+00    3.5714635364E+00    3.5481456620E+00    3.5253112351E+00
    3.5028892394E+00    3.4808151661E+00    3.4590306365E+00    3.4374830286E+00
    3.4161251093E+00    3.3949146757E+00    3.3738142070E+00    3.3527905270E+00
    3.3318144803E+00    3.3108606219E+00    3.2899069205E+00    3.2689344814E+00
    3.2479272849E+00    3.2268719406E+00    3.2057574539E+00    3.1845750092E+00
    3.1633177659E+00    3.1419806678E+00    3.1205602664E+00    3.0990545556E+00
    3.0774628187E+00    3.0557854859E+00    3.0340240030E+00    3.0121807086E+00
    2.9902587215E+00    2.9682618357E+00    2.9461944242E+00    2.9240613491E+00
    2.9018678790E+00    2.8796196126E+00    2.8573224082E+00    2.8349823189E+00
    2.8126055199E+00    2.7901982065E+00    2.7677664841E+00    2.7453163269E+00
    2.7228535884E+00    2.7003840145E+00    2.6779132295E+00    2.6554467361E+00
    2.6329899156E+00    2.6105480266E+00    2.5881262044E+00    2.5657294606E+00
    2.5433626832E+00    2.5210306360E+00    2.4987379592E+00    2.4764891696E+00
    2.4542886608E+00    2.4321407042E+00    2.4100494492E+00    2.3880189243E+00
    2.3660530382E+00    2.3441555801E+00    2.3223302217E+00    2.3005805178E+00
    2.2789099078E+00    2.2573217169E+00    2.2358191576E+00    2.2144053311E+00
    2.1930832291E+00    2.1718557347E+00    2.1507256248E+00    2.1296955712E+00
    2.1087681425E+00    2.0879458057E+00    2.0672309280E+00    2.0466257785E+00
    2.0261325302E+00    2.0057532613E+00    1.9854899574E+00    1.9653445134E+00
    1.9453187348E+00    1.9254143399E+00    1.9056329617E+00    1.8859761493E+00
    1.8664453701E+00    1.8470420114E+00    1.8277673824E+00    1.8086227155E+00
    1.7896091686E+00    1.7707278268E+00    1.7519797039E+00    1.7333657440E+00
    1.7148868239E+00    1.6965437542E+00    1.6783372809E+00    1.6602680876E+00
    1.6423367967E+00    1.6245439713E+00    1.6068901166E+00    1.5893756814E+00
    1.5720010600E+00    1.5547665935E+00    1.5376725712E+00    1.5207192324E+00
    1.5039067676E+00    1.4872353199E+00    1.4707049869E+00    1.4543158214E+00
    1.4380678331E+00    1.4219609902E+00    1.4059952201E+00    1.3901704112E+00
    1.3744864142E+00    1.3589430426E+00    1.3435400751E+00    1.3282772557E+00
    1.3131542954E+00    1.2981708735E+00    1.2833266381E+00    1.2686212079E+00
    1.2540541727E+00    1.2396250949E+00    1.2253335101E+00    1.2111789286E+00
    1.1971608359E+00    1.1832786938E+00    1.1695319417E+00    1.1559199968E+00
    1.1424422558E+00    1.1290980950E+00    1.1158868719E+00    1.1028079252E+00
    1.0898605766E+00    1.0770441305E+00    1.0643578758E+00    1.0518010857E+00
    1.0393730194E+00    1.0270729218E+00    1.0149000251E+00    1.0028535489E+00
    9.9093270103E-01    9.7913667826E-01    9.6746466681E-01    9.5591584301E-01
    9.4448937391E-01    9.3318441780E-01    9.2200012481E-01    9.1093563742E-01
    8.9999009102E-01    8.8916261439E-01    8.7845233022E-01    8.6785835560E-01
    8.5737980243E-01    8.4701577795E-01    8.3676538514E-01    8.2662772316E-01
    8.1660188774E-01    8.0668697164E-01    7.9688206496E-01    7.8718625559E-01
    7.7759862953E-01    7.6811827129E-01    7.5874426415E-01    7.4947569060E-01
    7.4031163258E-01    7.3125117180E-01    7.2229339010E-01    7.1343736966E-01
    7.0468219332E-01    6.9602694486E-01    6.8747070925E-01    6.7901257287E-01
    6.7065162382E-01    6.6238695210E-01    6.5421764983E-01    6.4614281152E-01
    6.3816153422E-01    6.3027291777E-01    6.2247606496E-01    6.1477008172E-01
    6.0715407731E-01    5.9962716448E-01    5.9218845965E-01    5.8483708305E-01
    5.7757215887E-01    5.7039281540E-01    5.6329818521E-01    5.5628740522E-01
    5.4935961687E-01    5.4251396621E-01    5.3574960403E-01    5.2906568597E-01
    5.2246137262E-01    5.1593582962E-01    5.0948822773E-01    5.0311774295E-01
    4.9682355659E-01    4.9060485534E-01    4.8446083135E-01    4.7839068230E-01
    4.7239361148E-01    4.6646882781E-01    4.6061554594E-01    4.5483298626E-01
    4.4912037501E-01    4.4347694426E-01    4.3790193198E-01    4.3239458209E-01
    4.2695414447E-01    4.2157987501E-01    4.1627103564E-01    4.1102689432E-01
    4.0584672512E-01    4.0072980818E-01    3.9567542978E-01    3.9068288231E-01
    3.8575146431E-01    3.8088048046E-01    3.7606924160E-01    3.7131706472E-01
    3.6662327298E-01    3.6198719570E-01    3.5740816835E-01    3.5288553254E-01
    3.4841863606E-01    3.4400683280E-01    3.3964948279E-01    3.3534595218E-01
    3.3109561321E-01    3.2689784421E-01    3.2275202958E-01    3.1865755977E-01
    3.1461383124E-01    3.1062024648E-01    3.0667621396E-01    3.0278114810E-01
    2.9893446926E-01    2.9513560373E-01    2.9138398365E-01    2.8767904703E-01
    2.8402023771E-01    2.8040700532E-01    2.7683880523E-01    2.7331509857E-01
    2.6983535216E-01    2.6639903848E-01    2.6300563563E-01    2.5965462732E-01
    2.5634550281E-01    2.5307775687E-01    2.4985088977E-01    2.4666440722E-01
    2.4351782034E-01    2.4041064562E-01    2.3734240487E-01    2.3431262521E-01
    2.3132083898E-01    2.2836658376E-01    2.2544940230E-01    2.2256884244E-01
    2.1972445716E-01    2.1691580444E-01    2.1414244730E-01    2.1140395370E-01
    2.0869989652E-01    2.0602985353E-01    2.0339340734E-01    2.0079014533E-01
    1.9821965964E-01    1.9568154713E-01    1.9317540932E-01    1.9070085233E-01
    1.8825748689E-01    1.8584492825E-01    1.8346279616E-01    1.8111071481E-01
    1.7878831281E-01    1.7649522314E-01    1.7423108309E-01    1.7199553423E-01
    1.6978822238E-01    1.6760879755E-01    1.6545691390E-01    1.6333222970E-01
    1.6123440731E-01    1.5916311310E-01    1.5711801742E-01    1.5509879459E-01
    1.5310512280E-01    1.5113668413E-01    1.4919316449E-01    1.4727425354E-01
    1.4537964470E-01    1.4350903509E-01    1.4166212549E-01    1.3983862030E-01
    1.3803822752E-01    1.3626065866E-01    1.3450562875E-01    1.3277285630E-01
    1.3106206322E-01    1.2937297484E-01    1.2770531981E-01    1.2605883011E-01
    1.2443324100E-01    1.2282829097E-01    1.2124372171E-01    1.1967927809E-01
    1.1813470809E-01    1.1660976281E-01    1.1510419639E-01    1.1361776599E-01
    1.1215023177E-01    1.1070135685E-01    1.0927090724E-01    1.0785865186E-01
    1.0646436249E-01    1.0508781370E-01    1.0372878286E-01    1.0238705009E-01
    1.0106239824E-01    9.9754612824E-02    9.8463482039E-02    9.7188796688E-02
    9.5930350173E-02    9.4687938457E-02    9.3461360034E-02    9.2250415899E-02
    9.1054909518E-02    8.9874646798E-02    8.8709436060E-02    8.7559088004E-02
    8.6423415686E-02    8.5302234487E-02    8.4195362085E-02    8.3102618428E-02
    8.2023825706E-02    8.0958808321E-02    7.9907392865E-02    7.8869408089E-02
    7.7844684879E-02    7.6833056230E-02    7.5834357219E-02    7.4848424977E-02
    7.3875098671E-02    7.2914219471E-02    7.1965630531E-02    7.1029176961E-02
    7.0104705806E-02    6.9192066019E-02    6.8291108440E-02    6.7401685770E-02
    6.6523652552E-02    6.5656865144E-02    6.4801181698E-02    6.3956462140E-02
    6.3122568145E-02    6.2299363116E-02    6.1486712163E-02    6.0684482083E-02
    5.9892541337E-02    5.9110760029E-02    5.8339009888E-02    5.7577164247E-02
    5.6825098021E-02    5.6082687689E-02    5.5349811275E-02    5.4626348327E-02
    5.3912179901E-02    5.3207188539E-02    5.2511258250E-02    5.1824274497E-02
    5.1146124173E-02    5.0476695585E-02    4.9815878437E-02    4.9163563815E-02
    4.8519644163E-02    4.7884013274E-02    4.7256566265E-02    4.6637199569E-02
    4.6025810912E-02    4.5422299299E-02    4.4826564998E-02    4.4238509527E-02
    4.3658035632E-02    4.3085047278E-02    4.2519449631E-02    4.1961149042E-02
    4.1410053034E-02    4.0866070286E-02    4.0329110622E-02    3.9799084991E-02
    3.9275905456E-02    3.8759485183E-02    3.8249738422E-02    3.7746580495E-02
    3.7249927785E-02    3.6759697721E-02    3.6275808764E-02    3.5798180397E-02
    3.5326733107E-02    3.4861388379E-02    3.4402068681E-02    3.3948697448E-02
    3.3501199074E-02    3.3059498903E-02    3.2623523207E-02    3.2193199186E-02
    3.1768454949E-02    3.1349219504E-02    3.0935422749E-02    3.0526995460E-02
    3.0123869278E-02    2.9725976701E-02    2.9333251072E-02    2.8945626568E-02
    2.8563038192E-02    2.8185421758E-02    2.7812713887E-02    2.7444851993E-02
    2.7081774272E-02    2.6723419697E-02    2.6369728003E-02    2.6020639684E-02
    2.5676095976E-02    2.5336038852E-02    2.5000411015E-02    2.4669155883E-02
    2.4342217585E-02    2.4019540951E-02    2.3701071502E-02    2.3386755442E-02
    2.3076539650E-02    2.2770371672E-02    2.2468199713E-02    2.2169972625E-02
    2.1875639904E-02    2.1585151680E-02    2.1298458709E-02    2.1015512364E-02
    2.0736264631E-02    2.0460668097E-02    2.0188675945E-02    1.9920241947E-02
    1.9655320455E-02    1.9393866397E-02    1.9135835263E-02    1.8881183107E-02
    1.8629866535E-02    1.8381842696E-02    1.8137069281E-02    1.7895504512E-02
    1.7657107137E-02    1.7421836424E-02    1.7189652152E-02    1.6960514609E-02
    1.6734384582E-02    1.6511223351E-02    1.6290992684E-02    1.6073654834E-02
    1.5859172526E-02    1.5647508957E-02    1.5438627788E-02    1.5232493137E-02
    1.5029069577E-02    1.4828322127E-02    1.4630216247E-02    1.4434717835E-02
    1.4241793217E-02    1.4051409147E-02    1.3863532797E-02    1.3678131757E-02
    1.3495174022E-02    1.3314627997E-02    1.3136462483E-02    1.2960646676E-02
    1.2787150164E-02    1.2615942919E-02    1.2446995293E-02    1.2280278012E-02
    1.2115762176E-02    1.1953419250E-02    1.1793221059E-02    1.1635139787E-02
    1.1479147972E-02    1.1325218497E-02    1.1173324592E-02    1.1023439827E-02
    1.0875538105E-02    1.0729593663E-02    1.0585581064E-02    1.0443475196E-02
    1.0303251263E-02    1.0164884787E-02    1.0028351601E-02    9.8936278455E-03
    9.7606899641E-03    9.6295147008E-03    9.5000790957E-03    9.3723604814E-03
    9.2463364793E-03    9.1219849963E-03    8.9992842210E-03    8.8782126200E-03
    8.7587489350E-03    8.6408721788E-03    8.5245616323E-03    8.4097968409E-03
    8.2965576115E-03    8.1848240091E-03    8.0745763534E-03    7.9657952158E-03
    7.8584614163E-03    7.7525560205E-03    7.6480603362E-03    7.5449559104E-03
    7.4432245269E-03    7.3428482026E-03    7.2438091849E-03    7.1460899490E-03
    7.0496731947E-03    6.9545418438E-03    6.8606790375E-03    6.7680681331E-03
    6.6766927020E-03    6.5865365263E-03    6.4975835968E-03    6.4098181099E-03
    6.3232244655E-03    6.2377872639E-03    6.1534913037E-03    6.0703215792E-03
    5.9882632778E-03    5.9073017779E-03    5.8274226462E-03    5.7486116354E-03
    5.6708546820E-03    5.5941379037E-03    5.5184475976E-03    5.4437702374E-03
    5.3700924717E-03    5.2974011212E-03    5.2256831772E-03    5.1549257989E-03
    5.0851163116E-03    5.0162422046E-03    4.9482911288E-03    4.8812508951E-03
    4.8151094722E-03    4.7498549844E-03    4.6854757102E-03    4.6219600796E-03
    4.5592966728E-03    4.4974742180E-03    4.4364815896E-03    4.3763078064E-03
    4.3169420296E-03    4.2583735614E-03    4.2005918426E-03    4.1435864515E-03
    4.0873471015E-03    4.0318636401E-03    3.9771260466E-03    3.9231244306E-03
    3.8698490306E-03    3.8172902121E-03    3.7654384660E-03    3.7142844070E-03
    3.6638187724E-03    3.6140324198E-03    3.5649163263E-03    3.5164615866E-03
    3.4686594115E-03    3.4215011267E-03    3.3749781709E-03    3.3290820948E-03
    3.2838045593E-03    3.2391373344E-03    3.1950722976E-03    3.1516014327E-03
    3.1087168282E-03    3.0664106763E-03    3.0246752711E-03    2.9835030079E-03
    2.9428863814E-03    2.9028179846E-03    2.8632905077E-03    2.8242967366E-03
    2.7858295517E-03    2.7478819271E-03    2.7104469287E-03    2.6735177136E-03
    2.6370875287E-03    2.6011497096E-03    2.5656976795E-03    2.5307249477E-03
    2.4962251092E-03    2.4621918431E-03    2.4286189114E-03    2.3955001584E-03
    2.3628295093E-03    2.3306009694E-03    2.2988086227E-03    2.2674466312E-03
    2.2365092340E-03    2.2059907458E-03    2.1758855564E-03    2.1461881297E-03
    2.1168930024E-03    2.0879947834E-03    2.0594881526E-03    2.0313678604E-03
    2.0036287262E-03    1.9762656380E-03    1.9492735514E-03    1.9226474885E-03
    1.8963825373E-03    1.8704738507E-03    1.8449166458E-03    1.8197062028E-03
    1.7948378645E-03    1.7703070354E-03    1.7461091806E-03    1.7222398255E-03
    1.6986945548E-03    1.6754690114E-03    1.6525588963E-03    1.6299599674E-03
    1.6076680386E-03    1.5856789797E-03    1.5639887151E-03    1.5425932234E-03
    1.5214885364E-03    1.5006707387E-03    1.4801359671E-03    1.4598804094E-03
    1.4399003042E-03    1.4201919401E-03    1.4007516551E-03    1.3815758359E-03
    1.3626609171E-03    1.3440033809E-03    1.3255997562E-03    1.3074466184E-03
    1.2895405881E-03    1.2718783311E-03    1.2544565577E-03    1.2372720219E-03
    1.2203215210E-03    1.2036018951E-03    1.1871100263E-03    1.1708428382E-03
    1.1547972959E-03    1.1389704044E-03    1.1233592090E-03    1.1079607945E-03
    1.0927722845E-03    1.0777908411E-03    1.0630136642E-03    1.0484379912E-03
    1.0340610964E-03    1.0198802905E-03    1.0058929204E-03    9.9209636811E-04
    9.7848805095E-04    9.6506542069E-04    9.5182596321E-04    9.3876719807E-04
    9.2588667801E-04    9.1318198858E-04    9.0065074765E-04    8.8829060502E-04
    8.7609924199E-04    8.6407437093E-04    8.5221373488E-04    8.4051510716E-04
    8.2897629094E-04    8.1759511888E-04    8.0636945270E-04    7.9529718284E-04
    7.8437622804E-04    7.7360453501E-04    7.6298007802E-04    7.5250085853E-04
    7.4216490490E-04    7.3197027193E-04    7.2191504060E-04    7.1199731768E-04
    7.0221523539E-04    6.9256695107E-04    6.8305064685E-04    6.7366452931E-04
    6.6440682918E-04    6.5527580098E-04    6.4626972273E-04    6.3738689566E-04
    6.2862564384E-04    6.1998431393E-04    6.1146127488E-04    6.0305491759E-04
    5.9476365466E-04    5.8658592008E-04    5.7852016895E-04    5.7056487722E-04
    5.6271854137E-04    5.5497967817E-04    5.4734682440E-04    5.3981853660E-04
    5.3239339077E-04    5.2506998214E-04    5.1784692490E-04    5.1072285196E-04
    5.0369641470E-04    4.9676628269E-04    4.8993114350E-04    4.8318970244E-04
    4.7654068228E-04    4.6998282310E-04    4.6351488198E-04    4.5713563282E-04
    4.5084386610E-04    4.4463838865E-04    4.3851802347E-04    4.3248160945E-04
    4.2652800122E-04    4.2065606889E-04    4.1486469789E-04    4.0915278872E-04
    4.0351925677E-04    3.9796303214E-04    3.9248305939E-04    3.8707829741E-04
    3.8174771918E-04    3.7649031160E-04    3.7130507530E-04    3.6619102447E-04
    3.6114718664E-04    3.5617260255E-04    3.5126632595E-04    3.4642742340E-04
    3.4165497415E-04    3.3694806994E-04    3.3230581482E-04    3.2772732501E-04
    3.2321172871E-04    3.1875816600E-04    3.1436578858E-04    3.1003375970E-04
    3.0576125398E-04    3.0154745723E-04    2.9739156635E-04    2.9329278911E-04
    2.8925034409E-04    2.8526346047E-04    2.8133137790E-04    2.7745334638E-04
    2.7362862610E-04    2.6985648731E-04    2.6613621020E-04    2.6246708473E-04
    2.5884841053E-04    2.5527949676E-04    2.5175966198E-04    2.4828823400E-04
    2.4486454983E-04    2.4148795546E-04    2.3815780579E-04    2.3487346453E-04
    2.3163430403E-04    2.2843970520E-04    2.2528905737E-04    2.2218175821E-04
    2.1911721357E-04    2.1609483741E-04    2.1311405169E-04    2.1017428622E-04
    2.0727497861E-04    2.0441557411E-04    2.0159552556E-04    1.9881429323E-04
    1.9607134479E-04    1.9336615513E-04    1.9069820632E-04    1.8806698751E-04
    1.8547199481E-04    1.8291273118E-04    1.8038870641E-04    1.7789943694E-04
    1.7544444582E-04    1.7302326264E-04    1.7063542337E-04    1.6828047033E-04
    1.6595795212E-04    1.6366742346E-04    1.6140844517E-04    1.5918058407E-04
    1.5698341291E-04    1.5481651026E-04    1.5267946046E-04    1.5057185351E-04
    1.4849328503E-04    1.4644335617E-04    1.4442167353E-04    1.4242784908E-04
    1.4046150010E-04    1.3852224911E-04    1.3660972378E-04    1.3472355687E-04
    1.3286338619E-04    1.3102885447E-04    1.2921960935E-04    1.2743530327E-04
    1.2567559346E-04    1.2394014181E-04    1.2222861484E-04    1.2054068365E-04
    1.1887602383E-04    1.1723431542E-04    1.1561524283E-04    1.1401849479E-04
    1.1244376431E-04    1.1089074858E-04    1.0935914896E-04    1.0784867088E-04
    1.0635902382E-04    1.0488992123E-04    1.0344108049E-04    1.0201222285E-04
    1.0060307340E-04    9.9213360951E-05    9.7842818076E-05    9.6491180993E-05
    9.5158189537E-05    9.3843587113E-05    9.2547120640E-05    9.1268540508E-05
    9.0007600532E-05    8.8764057900E-05    8.7537673132E-05    8.6328210031E-05
    8.5135435639E-05    8.3959120195E-05    8.2799037089E-05    8.1654962821E-05
    8.0526676956E-05    7.9413962085E-05    7.8316603781E-05    7.7234390561E-05
    7.6167113842E-05    7.5114567907E-05    7.4076549862E-05    7.3052859596E-05
    7.2043299748E-05    7.1047675664E-05    7.0065795364E-05    6.9097469504E-05
    6.8142511341E-05    6.7200736696E-05    6.6271963919E-05    6.5356013854E-05
    6.4452709807E-05    6.3561877513E-05    6.2683345099E-05    6.1816943053E-05
    6.0962504193E-05    6.0119863634E-05    5.9288858755E-05    5.8469329174E-05
    5.7661116709E-05    5.6864065354E-05    5.6078021248E-05    5.5302832642E-05
    5.4538349876E-05    5.3784425346E-05    5.3040913479E-05    5.2307670702E-05
    5.1584555415E-05    5.0871427968E-05    5.0168150629E-05    4.9474587562E-05
    4.8790604798E-05    4.8116070212E-05    4.7450853494E-05    4.6794826129E-05
    4.6147861369E-05    4.5509834208E-05    4.4880621363E-05    4.4260101245E-05
    4.3648153940E-05    4.3044661182E-05    4.2449506333E-05    4.1862574361E-05
    4.1283751816E-05    4.0712926811E-05    4.0149988998E-05    3.9594829548E-05
    3.9047341131E-05    3.8507417892E-05    3.7974955436E-05    3.7449850805E-05
    3.6932002458E-05    3.6421310251E-05    3.5917675422E-05    3.5421000565E-05
    3.4931189619E-05    3.4448147844E-05    3.3971781806E-05    3.3501999356E-05
    3.3038709617E-05    3.2581822961E-05    3.2131250997E-05    3.1686906550E-05
    3.1248703647E-05    3.0816557499E-05    3.0390384485E-05    2.9970102137E-05
    2.9555629122E-05    2.9146885230E-05    2.8743791354E-05    2.8346269478E-05
    2.7954242662E-05    2.7567635026E-05    2.7186371734E-05    2.6810378984E-05
    2.6439583990E-05    2.6073914971E-05    2.5713301132E-05    2.5357672658E-05
    2.5006960694E-05    2.4661097334E-05    2.4320015610E-05    2.3983649477E-05
    2.3651933800E-05    2.3324804342E-05    2.3002197753E-05    2.2684051555E-05
    2.2370304132E-05    2.2060894719E-05    2.1755763388E-05    2.1454851037E-05
    2.1158099382E-05    2.0865450940E-05    2.0576849020E-05    2.0292237717E-05
    2.0011561895E-05    1.9734767177E-05    1.9461799940E-05    1.9192607297E-05
    1.8927137093E-05    1.8665337892E-05    1.8407158967E-05    1.8152550292E-05
    1.7901462531E-05    1.7653847029E-05    1.7409655802E-05    1.7168841528E-05
    1.6931357537E-05    1.6697157807E-05    1.6466196947E-05    1.6238430195E-05
    1.6013813406E-05    1.5792303043E-05    1.5573856173E-05    1.5358430452E-05
    1.5145984124E-05    1.4936476007E-05    1.4729865488E-05    1.4526112516E-05
    1.4325177591E-05    1.4127021760E-05    1.3931606607E-05    1.3738894246E-05
    1.3548847316E-05    1.3361428969E-05    1.3176602867E-05    1.2994333176E-05
    1.2814584553E-05    1.2637322146E-05    1.2462511583E-05    1.2290118967E-05
    1.2120110869E-05    1.1952454322E-05    1.1787116815E-05    1.1624066283E-05
    1.1463271107E-05    1.1304700104E-05    1.1148322521E-05    1.0994108031E-05
    1.0842026724E-05    1.0692049106E-05    1.0544146087E-05    1.0398288982E-05
    1.0254449499E-05    1.0112599741E-05    9.9727121934E-06    9.8347597220E-06
    9.6987155683E-06    9.5645533429E-06    9.4322470216E-06    9.3017709393E-06
    9.1730997859E-06    9.0462086007E-06    8.9210727680E-06    8.7976680124E-06
    8.6759703934E-06    8.5559563020E-06    8.4376024553E-06    8.3208858919E-06
    8.2057839680E-06    8.0922743526E-06    7.9803350232E-06    7.8699442616E-06
    7.7610806502E-06    7.6537230671E-06    7.5478506824E-06    7.4434429542E-06
    7.3404796242E-06    7.2389407146E-06    7.1388065230E-06    7.0400576201E-06
    6.9426748449E-06    6.8466393012E-06    6.7519323541E-06    6.6585356262E-06
    6.5664309942E-06    6.4756005852E-06    6.3860267735E-06    6.2976921773E-06
    6.2105796548E-06    6.1246723013E-06    6.0399534457E-06    5.9564066474E-06
    5.8740156933E-06    5.7927645942E-06    5.7126375821E-06    5.6336191071E-06
    5.5556938342E-06    5.4788466405E-06    5.4030626121E-06    5.3283270413E-06
    5.2546254237E-06    5.1819434558E-06    5.1102670316E-06    5.0395822404E-06
    4.9698753635E-06    4.9011328723E-06    4.8333414250E-06    4.7664878641E-06
 </PP_RHOATOM>
 <PP_SPIN_ORB>
   <PP_RELBETA.1  index="1"  lll="0" jjj="0.5"/>
   <PP_RELBETA.2  index="2"  lll="0" jjj="0.5"/>
   <PP_RELBETA.3  index="3"  lll="1" jjj="0.5"/>
   <PP_RELBETA.4  index="4"  lll="1" jjj="1.5"/>
   <PP_RELBETA.5  index="5"  lll="1" jjj="0.5"/>
   <PP_RELBETA.6  index="6"  lll="1" jjj="1.5"/>
   <PP_RELBETA.7  index="7"  lll="2" jjj="1.5"/>
   <PP_RELBETA.8  index="8"  lll="2" jjj="2.5"/>
   <PP_RELBETA.9  index="9"  lll="2" jjj="1.5"/>
   <PP_RELBETA.10 index="10" lll="2" jjj="2.5"/>
   <PP_RELWFC.1  index="1"  lchi="2" jchi="2.5" nn="1"/>
   <PP_RELWFC.2  index="2"  lchi="2" jchi="1.5" nn="1"/>
   <PP_RELWFC.3  index="3"  lchi="0" jchi="0.5" nn="2"/>
   <PP_RELWFC.4  index="4"  lchi="1" jchi="1.5" nn="3"/>
   <PP_RELWFC.5  index="5"  lchi="1" jchi="0.5" nn="3"/>
 </PP_SPIN_ORB>
</UPF>

