<UPF version="2.0.1">
  <PP_INFO>

 This pseudopotential file has been produced using the code
 ONCVPSP  (Optimized Norm-Conservinng Vanderbilt PSeudopotential)
 fully-relativistic version 4.0.1 06/20/2107 by D. R. Hamann
 The code is available through a link at URL www.mat-simresearch.com.
 Documentation with the package provides a full discription of the
 input data below.


 While it is not required under the terms of the GNU GPL, it is
 suggested that you cite D. R. Hamann, Phys. Rev. B 88, 085117 (2013)
 in any publication using these pseudopotentials.

    <PP_INPUTFILE>
# ATOM AND REFERENCE CONFIGURATION
# atsym  z   nc   nv     iexc    psfile
  V 23.00    3    4       4      upf
#
#   n    l    f        energy (Ha)
    1    0    2.00
    2    0    2.00
    2    1    6.00
    3    0    2.00
    3    1    6.00
    3    2    3.00
    4    0    2.00
#
# PSEUDOPOTENTIAL AND OPTIMIZATION
# lmax
    2
#
#   l,   rc,     ep,   ncon, nbas, qcut
    0   1.65000  -2.58111    4    7   8.50000
    1   1.90000  -1.61849    4    8   7.14102
    2   1.90000  -0.18980    4    8   8.25439
#
# LOCAL POTENTIAL
# lloc, lpopt,  rc(5),   dvloc0
    4    5   1.47294      0.00000
#
# VANDERBILT-KLEINMAN-BYLANDER PROJECTORs
# l, nproj, debl
    0    2   2.40830
    1    2   1.56543
    2    2   1.50000
#
# MODEL CORE CHARGE
# icmod, fcfact, rcfact
    3   5.00000   1.30000
#
# LOG DERIVATIVE ANALYSIS
# epsh1, epsh2, depsh
  -12.00   12.00    0.02
#
# OUTPUT GRID
# rlmax, drl
    6.00    0.01
#
# TEST CONFIGURATIONS
# ncnf
    0
# nvcnf
#   n    l    f
    </PP_INPUTFILE>
  </PP_INFO>
  <!--                               -->
  <!-- END OF HUMAN READABLE SECTION -->
  <!--                               -->
    <PP_HEADER
       generated="Generated using ONCVPSP code by D. R. Hamann"
       author="anonymous"
       date="260612"
       comment=""
       element="V "
       pseudo_type="NC"
       relativistic="full"
       is_ultrasoft="F"
       is_paw="F"
       is_coulomb="F"
       has_so="T"
       has_wfc="F"
       has_gipaw="F"
       core_correction="T"
       functional="PBE"
       z_valence="   13.00"
       total_psenergy="  -1.41370199073E+02"
       rho_cutoff="   1.53300000000E+01"
       l_max="2"
       l_local="-1"
       mesh_size="  1534"
       number_of_wfc="6"
       number_of_proj="10"/>
 <PP_MESH>
   <PP_R type="real"  size="1534" columns="8">
    0.0000    0.0100    0.0200    0.0300    0.0400    0.0500    0.0600    0.0700
    0.0800    0.0900    0.1000    0.1100    0.1200    0.1300    0.1400    0.1500
    0.1600    0.1700    0.1800    0.1900    0.2000    0.2100    0.2200    0.2300
    0.2400    0.2500    0.2600    0.2700    0.2800    0.2900    0.3000    0.3100
    0.3200    0.3300    0.3400    0.3500    0.3600    0.3700    0.3800    0.3900
    0.4000    0.4100    0.4200    0.4300    0.4400    0.4500    0.4600    0.4700
    0.4800    0.4900    0.5000    0.5100    0.5200    0.5300    0.5400    0.5500
    0.5600    0.5700    0.5800    0.5900    0.6000    0.6100    0.6200    0.6300
    0.6400    0.6500    0.6600    0.6700    0.6800    0.6900    0.7000    0.7100
    0.7200    0.7300    0.7400    0.7500    0.7600    0.7700    0.7800    0.7900
    0.8000    0.8100    0.8200    0.8300    0.8400    0.8500    0.8600    0.8700
    0.8800    0.8900    0.9000    0.9100    0.9200    0.9300    0.9400    0.9500
    0.9600    0.9700    0.9800    0.9900    1.0000    1.0100    1.0200    1.0300
    1.0400    1.0500    1.0600    1.0700    1.0800    1.0900    1.1000    1.1100
    1.1200    1.1300    1.1400    1.1500    1.1600    1.1700    1.1800    1.1900
    1.2000    1.2100    1.2200    1.2300    1.2400    1.2500    1.2600    1.2700
    1.2800    1.2900    1.3000    1.3100    1.3200    1.3300    1.3400    1.3500
    1.3600    1.3700    1.3800    1.3900    1.4000    1.4100    1.4200    1.4300
    1.4400    1.4500    1.4600    1.4700    1.4800    1.4900    1.5000    1.5100
    1.5200    1.5300    1.5400    1.5500    1.5600    1.5700    1.5800    1.5900
    1.6000    1.6100    1.6200    1.6300    1.6400    1.6500    1.6600    1.6700
    1.6800    1.6900    1.7000    1.7100    1.7200    1.7300    1.7400    1.7500
    1.7600    1.7700    1.7800    1.7900    1.8000    1.8100    1.8200    1.8300
    1.8400    1.8500    1.8600    1.8700    1.8800    1.8900    1.9000    1.9100
    1.9200    1.9300    1.9400    1.9500    1.9600    1.9700    1.9800    1.9900
    2.0000    2.0100    2.0200    2.0300    2.0400    2.0500    2.0600    2.0700
    2.0800    2.0900    2.1000    2.1100    2.1200    2.1300    2.1400    2.1500
    2.1600    2.1700    2.1800    2.1900    2.2000    2.2100    2.2200    2.2300
    2.2400    2.2500    2.2600    2.2700    2.2800    2.2900    2.3000    2.3100
    2.3200    2.3300    2.3400    2.3500    2.3600    2.3700    2.3800    2.3900
    2.4000    2.4100    2.4200    2.4300    2.4400    2.4500    2.4600    2.4700
    2.4800    2.4900    2.5000    2.5100    2.5200    2.5300    2.5400    2.5500
    2.5600    2.5700    2.5800    2.5900    2.6000    2.6100    2.6200    2.6300
    2.6400    2.6500    2.6600    2.6700    2.6800    2.6900    2.7000    2.7100
    2.7200    2.7300    2.7400    2.7500    2.7600    2.7700    2.7800    2.7900
    2.8000    2.8100    2.8200    2.8300    2.8400    2.8500    2.8600    2.8700
    2.8800    2.8900    2.9000    2.9100    2.9200    2.9300    2.9400    2.9500
    2.9600    2.9700    2.9800    2.9900    3.0000    3.0100    3.0200    3.0300
    3.0400    3.0500    3.0600    3.0700    3.0800    3.0900    3.1000    3.1100
    3.1200    3.1300    3.1400    3.1500    3.1600    3.1700    3.1800    3.1900
    3.2000    3.2100    3.2200    3.2300    3.2400    3.2500    3.2600    3.2700
    3.2800    3.2900    3.3000    3.3100    3.3200    3.3300    3.3400    3.3500
    3.3600    3.3700    3.3800    3.3900    3.4000    3.4100    3.4200    3.4300
    3.4400    3.4500    3.4600    3.4700    3.4800    3.4900    3.5000    3.5100
    3.5200    3.5300    3.5400    3.5500    3.5600    3.5700    3.5800    3.5900
    3.6000    3.6100    3.6200    3.6300    3.6400    3.6500    3.6600    3.6700
    3.6800    3.6900    3.7000    3.7100    3.7200    3.7300    3.7400    3.7500
    3.7600    3.7700    3.7800    3.7900    3.8000    3.8100    3.8200    3.8300
    3.8400    3.8500    3.8600    3.8700    3.8800    3.8900    3.9000    3.9100
    3.9200    3.9300    3.9400    3.9500    3.9600    3.9700    3.9800    3.9900
    4.0000    4.0100    4.0200    4.0300    4.0400    4.0500    4.0600    4.0700
    4.0800    4.0900    4.1000    4.1100    4.1200    4.1300    4.1400    4.1500
    4.1600    4.1700    4.1800    4.1900    4.2000    4.2100    4.2200    4.2300
    4.2400    4.2500    4.2600    4.2700    4.2800    4.2900    4.3000    4.3100
    4.3200    4.3300    4.3400    4.3500    4.3600    4.3700    4.3800    4.3900
    4.4000    4.4100    4.4200    4.4300    4.4400    4.4500    4.4600    4.4700
    4.4800    4.4900    4.5000    4.5100    4.5200    4.5300    4.5400    4.5500
    4.5600    4.5700    4.5800    4.5900    4.6000    4.6100    4.6200    4.6300
    4.6400    4.6500    4.6600    4.6700    4.6800    4.6900    4.7000    4.7100
    4.7200    4.7300    4.7400    4.7500    4.7600    4.7700    4.7800    4.7900
    4.8000    4.8100    4.8200    4.8300    4.8400    4.8500    4.8600    4.8700
    4.8800    4.8900    4.9000    4.9100    4.9200    4.9300    4.9400    4.9500
    4.9600    4.9700    4.9800    4.9900    5.0000    5.0100    5.0200    5.0300
    5.0400    5.0500    5.0600    5.0700    5.0800    5.0900    5.1000    5.1100
    5.1200    5.1300    5.1400    5.1500    5.1600    5.1700    5.1800    5.1900
    5.2000    5.2100    5.2200    5.2300    5.2400    5.2500    5.2600    5.2700
    5.2800    5.2900    5.3000    5.3100    5.3200    5.3300    5.3400    5.3500
    5.3600    5.3700    5.3800    5.3900    5.4000    5.4100    5.4200    5.4300
    5.4400    5.4500    5.4600    5.4700    5.4800    5.4900    5.5000    5.5100
    5.5200    5.5300    5.5400    5.5500    5.5600    5.5700    5.5800    5.5900
    5.6000    5.6100    5.6200    5.6300    5.6400    5.6500    5.6600    5.6700
    5.6800    5.6900    5.7000    5.7100    5.7200    5.7300    5.7400    5.7500
    5.7600    5.7700    5.7800    5.7900    5.8000    5.8100    5.8200    5.8300
    5.8400    5.8500    5.8600    5.8700    5.8800    5.8900    5.9000    5.9100
    5.9200    5.9300    5.9400    5.9500    5.9600    5.9700    5.9800    5.9900
    6.0000    6.0100    6.0200    6.0300    6.0400    6.0500    6.0600    6.0700
    6.0800    6.0900    6.1000    6.1100    6.1200    6.1300    6.1400    6.1500
    6.1600    6.1700    6.1800    6.1900    6.2000    6.2100    6.2200    6.2300
    6.2400    6.2500    6.2600    6.2700    6.2800    6.2900    6.3000    6.3100
    6.3200    6.3300    6.3400    6.3500    6.3600    6.3700    6.3800    6.3900
    6.4000    6.4100    6.4200    6.4300    6.4400    6.4500    6.4600    6.4700
    6.4800    6.4900    6.5000    6.5100    6.5200    6.5300    6.5400    6.5500
    6.5600    6.5700    6.5800    6.5900    6.6000    6.6100    6.6200    6.6300
    6.6400    6.6500    6.6600    6.6700    6.6800    6.6900    6.7000    6.7100
    6.7200    6.7300    6.7400    6.7500    6.7600    6.7700    6.7800    6.7900
    6.8000    6.8100    6.8200    6.8300    6.8400    6.8500    6.8600    6.8700
    6.8800    6.8900    6.9000    6.9100    6.9200    6.9300    6.9400    6.9500
    6.9600    6.9700    6.9800    6.9900    7.0000    7.0100    7.0200    7.0300
    7.0400    7.0500    7.0600    7.0700    7.0800    7.0900    7.1000    7.1100
    7.1200    7.1300    7.1400    7.1500    7.1600    7.1700    7.1800    7.1900
    7.2000    7.2100    7.2200    7.2300    7.2400    7.2500    7.2600    7.2700
    7.2800    7.2900    7.3000    7.3100    7.3200    7.3300    7.3400    7.3500
    7.3600    7.3700    7.3800    7.3900    7.4000    7.4100    7.4200    7.4300
    7.4400    7.4500    7.4600    7.4700    7.4800    7.4900    7.5000    7.5100
    7.5200    7.5300    7.5400    7.5500    7.5600    7.5700    7.5800    7.5900
    7.6000    7.6100    7.6200    7.6300    7.6400    7.6500    7.6600    7.6700
    7.6800    7.6900    7.7000    7.7100    7.7200    7.7300    7.7400    7.7500
    7.7600    7.7700    7.7800    7.7900    7.8000    7.8100    7.8200    7.8300
    7.8400    7.8500    7.8600    7.8700    7.8800    7.8900    7.9000    7.9100
    7.9200    7.9300    7.9400    7.9500    7.9600    7.9700    7.9800    7.9900
    8.0000    8.0100    8.0200    8.0300    8.0400    8.0500    8.0600    8.0700
    8.0800    8.0900    8.1000    8.1100    8.1200    8.1300    8.1400    8.1500
    8.1600    8.1700    8.1800    8.1900    8.2000    8.2100    8.2200    8.2300
    8.2400    8.2500    8.2600    8.2700    8.2800    8.2900    8.3000    8.3100
    8.3200    8.3300    8.3400    8.3500    8.3600    8.3700    8.3800    8.3900
    8.4000    8.4100    8.4200    8.4300    8.4400    8.4500    8.4600    8.4700
    8.4800    8.4900    8.5000    8.5100    8.5200    8.5300    8.5400    8.5500
    8.5600    8.5700    8.5800    8.5900    8.6000    8.6100    8.6200    8.6300
    8.6400    8.6500    8.6600    8.6700    8.6800    8.6900    8.7000    8.7100
    8.7200    8.7300    8.7400    8.7500    8.7600    8.7700    8.7800    8.7900
    8.8000    8.8100    8.8200    8.8300    8.8400    8.8500    8.8600    8.8700
    8.8800    8.8900    8.9000    8.9100    8.9200    8.9300    8.9400    8.9500
    8.9600    8.9700    8.9800    8.9900    9.0000    9.0100    9.0200    9.0300
    9.0400    9.0500    9.0600    9.0700    9.0800    9.0900    9.1000    9.1100
    9.1200    9.1300    9.1400    9.1500    9.1600    9.1700    9.1800    9.1900
    9.2000    9.2100    9.2200    9.2300    9.2400    9.2500    9.2600    9.2700
    9.2800    9.2900    9.3000    9.3100    9.3200    9.3300    9.3400    9.3500
    9.3600    9.3700    9.3800    9.3900    9.4000    9.4100    9.4200    9.4300
    9.4400    9.4500    9.4600    9.4700    9.4800    9.4900    9.5000    9.5100
    9.5200    9.5300    9.5400    9.5500    9.5600    9.5700    9.5800    9.5900
    9.6000    9.6100    9.6200    9.6300    9.6400    9.6500    9.6600    9.6700
    9.6800    9.6900    9.7000    9.7100    9.7200    9.7300    9.7400    9.7500
    9.7600    9.7700    9.7800    9.7900    9.8000    9.8100    9.8200    9.8300
    9.8400    9.8500    9.8600    9.8700    9.8800    9.8900    9.9000    9.9100
    9.9200    9.9300    9.9400    9.9500    9.9600    9.9700    9.9800    9.9900
   10.0000   10.0100   10.0200   10.0300   10.0400   10.0500   10.0600   10.0700
   10.0800   10.0900   10.1000   10.1100   10.1200   10.1300   10.1400   10.1500
   10.1600   10.1700   10.1800   10.1900   10.2000   10.2100   10.2200   10.2300
   10.2400   10.2500   10.2600   10.2700   10.2800   10.2900   10.3000   10.3100
   10.3200   10.3300   10.3400   10.3500   10.3600   10.3700   10.3800   10.3900
   10.4000   10.4100   10.4200   10.4300   10.4400   10.4500   10.4600   10.4700
   10.4800   10.4900   10.5000   10.5100   10.5200   10.5300   10.5400   10.5500
   10.5600   10.5700   10.5800   10.5900   10.6000   10.6100   10.6200   10.6300
   10.6400   10.6500   10.6600   10.6700   10.6800   10.6900   10.7000   10.7100
   10.7200   10.7300   10.7400   10.7500   10.7600   10.7700   10.7800   10.7900
   10.8000   10.8100   10.8200   10.8300   10.8400   10.8500   10.8600   10.8700
   10.8800   10.8900   10.9000   10.9100   10.9200   10.9300   10.9400   10.9500
   10.9600   10.9700   10.9800   10.9900   11.0000   11.0100   11.0200   11.0300
   11.0400   11.0500   11.0600   11.0700   11.0800   11.0900   11.1000   11.1100
   11.1200   11.1300   11.1400   11.1500   11.1600   11.1700   11.1800   11.1900
   11.2000   11.2100   11.2200   11.2300   11.2400   11.2500   11.2600   11.2700
   11.2800   11.2900   11.3000   11.3100   11.3200   11.3300   11.3400   11.3500
   11.3600   11.3700   11.3800   11.3900   11.4000   11.4100   11.4200   11.4300
   11.4400   11.4500   11.4600   11.4700   11.4800   11.4900   11.5000   11.5100
   11.5200   11.5300   11.5400   11.5500   11.5600   11.5700   11.5800   11.5900
   11.6000   11.6100   11.6200   11.6300   11.6400   11.6500   11.6600   11.6700
   11.6800   11.6900   11.7000   11.7100   11.7200   11.7300   11.7400   11.7500
   11.7600   11.7700   11.7800   11.7900   11.8000   11.8100   11.8200   11.8300
   11.8400   11.8500   11.8600   11.8700   11.8800   11.8900   11.9000   11.9100
   11.9200   11.9300   11.9400   11.9500   11.9600   11.9700   11.9800   11.9900
   12.0000   12.0100   12.0200   12.0300   12.0400   12.0500   12.0600   12.0700
   12.0800   12.0900   12.1000   12.1100   12.1200   12.1300   12.1400   12.1500
   12.1600   12.1700   12.1800   12.1900   12.2000   12.2100   12.2200   12.2300
   12.2400   12.2500   12.2600   12.2700   12.2800   12.2900   12.3000   12.3100
   12.3200   12.3300   12.3400   12.3500   12.3600   12.3700   12.3800   12.3900
   12.4000   12.4100   12.4200   12.4300   12.4400   12.4500   12.4600   12.4700
   12.4800   12.4900   12.5000   12.5100   12.5200   12.5300   12.5400   12.5500
   12.5600   12.5700   12.5800   12.5900   12.6000   12.6100   12.6200   12.6300
   12.6400   12.6500   12.6600   12.6700   12.6800   12.6900   12.7000   12.7100
   12.7200   12.7300   12.7400   12.7500   12.7600   12.7700   12.7800   12.7900
   12.8000   12.8100   12.8200   12.8300   12.8400   12.8500   12.8600   12.8700
   12.8800   12.8900   12.9000   12.9100   12.9200   12.9300   12.9400   12.9500
   12.9600   12.9700   12.9800   12.9900   13.0000   13.0100   13.0200   13.0300
   13.0400   13.0500   13.0600   13.0700   13.0800   13.0900   13.1000   13.1100
   13.1200   13.1300   13.1400   13.1500   13.1600   13.1700   13.1800   13.1900
   13.2000   13.2100   13.2200   13.2300   13.2400   13.2500   13.2600   13.2700
   13.2800   13.2900   13.3000   13.3100   13.3200   13.3300   13.3400   13.3500
   13.3600   13.3700   13.3800   13.3900   13.4000   13.4100   13.4200   13.4300
   13.4400   13.4500   13.4600   13.4700   13.4800   13.4900   13.5000   13.5100
   13.5200   13.5300   13.5400   13.5500   13.5600   13.5700   13.5800   13.5900
   13.6000   13.6100   13.6200   13.6300   13.6400   13.6500   13.6600   13.6700
   13.6800   13.6900   13.7000   13.7100   13.7200   13.7300   13.7400   13.7500
   13.7600   13.7700   13.7800   13.7900   13.8000   13.8100   13.8200   13.8300
   13.8400   13.8500   13.8600   13.8700   13.8800   13.8900   13.9000   13.9100
   13.9200   13.9300   13.9400   13.9500   13.9600   13.9700   13.9800   13.9900
   14.0000   14.0100   14.0200   14.0300   14.0400   14.0500   14.0600   14.0700
   14.0800   14.0900   14.1000   14.1100   14.1200   14.1300   14.1400   14.1500
   14.1600   14.1700   14.1800   14.1900   14.2000   14.2100   14.2200   14.2300
   14.2400   14.2500   14.2600   14.2700   14.2800   14.2900   14.3000   14.3100
   14.3200   14.3300   14.3400   14.3500   14.3600   14.3700   14.3800   14.3900
   14.4000   14.4100   14.4200   14.4300   14.4400   14.4500   14.4600   14.4700
   14.4800   14.4900   14.5000   14.5100   14.5200   14.5300   14.5400   14.5500
   14.5600   14.5700   14.5800   14.5900   14.6000   14.6100   14.6200   14.6300
   14.6400   14.6500   14.6600   14.6700   14.6800   14.6900   14.7000   14.7100
   14.7200   14.7300   14.7400   14.7500   14.7600   14.7700   14.7800   14.7900
   14.8000   14.8100   14.8200   14.8300   14.8400   14.8500   14.8600   14.8700
   14.8800   14.8900   14.9000   14.9100   14.9200   14.9300   14.9400   14.9500
   14.9600   14.9700   14.9800   14.9900   15.0000   15.0100   15.0200   15.0300
   15.0400   15.0500   15.0600   15.0700   15.0800   15.0900   15.1000   15.1100
   15.1200   15.1300   15.1400   15.1500   15.1600   15.1700   15.1800   15.1900
   15.2000   15.2100   15.2200   15.2300   15.2400   15.2500   15.2600   15.2700
   15.2800   15.2900   15.3000   15.3100   15.3200   15.3300
   </PP_R>
   <PP_RAB type="real"  size="1534" columns="8">
    0.0100    0.0100    0.0100    0.0100    0.0100    0.0100    0.0100    0.0100
    0.0100    0.0100    0.0100    0.0100    0.0100    0.0100    0.0100    0.0100
    0.0100    0.0100    0.0100    0.0100    0.0100    0.0100    0.0100    0.0100
    0.0100    0.0100    0.0100    0.0100    0.0100    0.0100    0.0100    0.0100
    0.0100    0.0100    0.0100    0.0100    0.0100    0.0100    0.0100    0.0100
    0.0100    0.0100    0.0100    0.0100    0.0100    0.0100    0.0100    0.0100
    0.0100    0.0100    0.0100    0.0100    0.0100    0.0100    0.0100    0.0100
    0.0100    0.0100    0.0100    0.0100    0.0100    0.0100    0.0100    0.0100
    0.0100    0.0100    0.0100    0.0100    0.0100    0.0100    0.0100    0.0100
    0.0100    0.0100    0.0100    0.0100    0.0100    0.0100    0.0100    0.0100
    0.0100    0.0100    0.0100    0.0100    0.0100    0.0100    0.0100    0.0100
    0.0100    0.0100    0.0100    0.0100    0.0100    0.0100    0.0100    0.0100
    0.0100    0.0100    0.0100    0.0100    0.0100    0.0100    0.0100    0.0100
    0.0100    0.0100    0.0100    0.0100    0.0100    0.0100    0.0100    0.0100
    0.0100    0.0100    0.0100    0.0100    0.0100    0.0100    0.0100    0.0100
    0.0100    0.0100    0.0100    0.0100    0.0100    0.0100    0.0100    0.0100
    0.0100    0.0100    0.0100    0.0100    0.0100    0.0100    0.0100    0.0100
    0.0100    0.0100    0.0100    0.0100    0.0100    0.0100    0.0100    0.0100
    0.0100    0.0100    0.0100    0.0100    0.0100    0.0100    0.0100    0.0100
    0.0100    0.0100    0.0100    0.0100    0.0100    0.0100    0.0100    0.0100
    0.0100    0.0100    0.0100    0.0100    0.0100    0.0100    0.0100    0.0100
    0.0100    0.0100    0.0100    0.0100    0.0100    0.0100    0.0100    0.0100
    0.0100    0.0100    0.0100    0.0100    0.0100    0.0100    0.0100    0.0100
    0.0100    0.0100    0.0100    0.0100    0.0100    0.0100    0.0100    0.0100
    0.0100    0.0100    0.0100    0.0100    0.0100    0.0100    0.0100    0.0100
    0.0100    0.0100    0.0100    0.0100    0.0100    0.0100    0.0100    0.0100
    0.0100    0.0100    0.0100    0.0100    0.0100    0.0100    0.0100    0.0100
    0.0100    0.0100    0.0100    0.0100    0.0100    0.0100    0.0100    0.0100
    0.0100    0.0100    0.0100    0.0100    0.0100    0.0100    0.0100    0.0100
    0.0100    0.0100    0.0100    0.0100    0.0100    0.0100    0.0100    0.0100
    0.0100    0.0100    0.0100    0.0100    0.0100    0.0100    0.0100    0.0100
    0.0100    0.0100    0.0100    0.0100    0.0100    0.0100    0.0100    0.0100
    0.0100    0.0100    0.0100    0.0100    0.0100    0.0100    0.0100    0.0100
    0.0100    0.0100    0.0100    0.0100    0.0100    0.0100    0.0100    0.0100
    0.0100    0.0100    0.0100    0.0100    0.0100    0.0100    0.0100    0.0100
    0.0100    0.0100    0.0100    0.0100    0.0100    0.0100    0.0100    0.0100
    0.0100    0.0100    0.0100    0.0100    0.0100    0.0100    0.0100    0.0100
    0.0100    0.0100    0.0100    0.0100    0.0100    0.0100    0.0100    0.0100
    0.0100    0.0100    0.0100    0.0100    0.0100    0.0100    0.0100    0.0100
    0.0100    0.0100    0.0100    0.0100    0.0100    0.0100    0.0100    0.0100
    0.0100    0.0100    0.0100    0.0100    0.0100    0.0100    0.0100    0.0100
    0.0100    0.0100    0.0100    0.0100    0.0100    0.0100    0.0100    0.0100
    0.0100    0.0100    0.0100    0.0100    0.0100    0.0100    0.0100    0.0100
    0.0100    0.0100    0.0100    0.0100    0.0100    0.0100    0.0100    0.0100
    0.0100    0.0100    0.0100    0.0100    0.0100    0.0100    0.0100    0.0100
    0.0100    0.0100    0.0100    0.0100    0.0100    0.0100    0.0100    0.0100
    0.0100    0.0100    0.0100    0.0100    0.0100    0.0100    0.0100    0.0100
    0.0100    0.0100    0.0100    0.0100    0.0100    0.0100    0.0100    0.0100
    0.0100    0.0100    0.0100    0.0100    0.0100    0.0100    0.0100    0.0100
    0.0100    0.0100    0.0100    0.0100    0.0100    0.0100    0.0100    0.0100
    0.0100    0.0100    0.0100    0.0100    0.0100    0.0100    0.0100    0.0100
    0.0100    0.0100    0.0100    0.0100    0.0100    0.0100    0.0100    0.0100
    0.0100    0.0100    0.0100    0.0100    0.0100    0.0100    0.0100    0.0100
    0.0100    0.0100    0.0100    0.0100    0.0100    0.0100    0.0100    0.0100
    0.0100    0.0100    0.0100    0.0100    0.0100    0.0100    0.0100    0.0100
    0.0100    0.0100    0.0100    0.0100    0.0100    0.0100    0.0100    0.0100
    0.0100    0.0100    0.0100    0.0100    0.0100    0.0100    0.0100    0.0100
    0.0100    0.0100    0.0100    0.0100    0.0100    0.0100    0.0100    0.0100
    0.0100    0.0100    0.0100    0.0100    0.0100    0.0100    0.0100    0.0100
    0.0100    0.0100    0.0100    0.0100    0.0100    0.0100    0.0100    0.0100
    0.0100    0.0100    0.0100    0.0100    0.0100    0.0100    0.0100    0.0100
    0.0100    0.0100    0.0100    0.0100    0.0100    0.0100    0.0100    0.0100
    0.0100    0.0100    0.0100    0.0100    0.0100    0.0100    0.0100    0.0100
    0.0100    0.0100    0.0100    0.0100    0.0100    0.0100    0.0100    0.0100
    0.0100    0.0100    0.0100    0.0100    0.0100    0.0100    0.0100    0.0100
    0.0100    0.0100    0.0100    0.0100    0.0100    0.0100    0.0100    0.0100
    0.0100    0.0100    0.0100    0.0100    0.0100    0.0100    0.0100    0.0100
    0.0100    0.0100    0.0100    0.0100    0.0100    0.0100    0.0100    0.0100
    0.0100    0.0100    0.0100    0.0100    0.0100    0.0100    0.0100    0.0100
    0.0100    0.0100    0.0100    0.0100    0.0100    0.0100    0.0100    0.0100
    0.0100    0.0100    0.0100    0.0100    0.0100    0.0100    0.0100    0.0100
    0.0100    0.0100    0.0100    0.0100    0.0100    0.0100    0.0100    0.0100
    0.0100    0.0100    0.0100    0.0100    0.0100    0.0100    0.0100    0.0100
    0.0100    0.0100    0.0100    0.0100    0.0100    0.0100    0.0100    0.0100
    0.0100    0.0100    0.0100    0.0100    0.0100    0.0100    0.0100    0.0100
    0.0100    0.0100    0.0100    0.0100    0.0100    0.0100    0.0100    0.0100
    0.0100    0.0100    0.0100    0.0100    0.0100    0.0100    0.0100    0.0100
    0.0100    0.0100    0.0100    0.0100    0.0100    0.0100    0.0100    0.0100
    0.0100    0.0100    0.0100    0.0100    0.0100    0.0100    0.0100    0.0100
    0.0100    0.0100    0.0100    0.0100    0.0100    0.0100    0.0100    0.0100
    0.0100    0.0100    0.0100    0.0100    0.0100    0.0100    0.0100    0.0100
    0.0100    0.0100    0.0100    0.0100    0.0100    0.0100    0.0100    0.0100
    0.0100    0.0100    0.0100    0.0100    0.0100    0.0100    0.0100    0.0100
    0.0100    0.0100    0.0100    0.0100    0.0100    0.0100    0.0100    0.0100
    0.0100    0.0100    0.0100    0.0100    0.0100    0.0100    0.0100    0.0100
    0.0100    0.0100    0.0100    0.0100    0.0100    0.0100    0.0100    0.0100
    0.0100    0.0100    0.0100    0.0100    0.0100    0.0100    0.0100    0.0100
    0.0100    0.0100    0.0100    0.0100    0.0100    0.0100    0.0100    0.0100
    0.0100    0.0100    0.0100    0.0100    0.0100    0.0100    0.0100    0.0100
    0.0100    0.0100    0.0100    0.0100    0.0100    0.0100    0.0100    0.0100
    0.0100    0.0100    0.0100    0.0100    0.0100    0.0100    0.0100    0.0100
    0.0100    0.0100    0.0100    0.0100    0.0100    0.0100    0.0100    0.0100
    0.0100    0.0100    0.0100    0.0100    0.0100    0.0100    0.0100    0.0100
    0.0100    0.0100    0.0100    0.0100    0.0100    0.0100    0.0100    0.0100
    0.0100    0.0100    0.0100    0.0100    0.0100    0.0100    0.0100    0.0100
    0.0100    0.0100    0.0100    0.0100    0.0100    0.0100    0.0100    0.0100
    0.0100    0.0100    0.0100    0.0100    0.0100    0.0100    0.0100    0.0100
    0.0100    0.0100    0.0100    0.0100    0.0100    0.0100    0.0100    0.0100
    0.0100    0.0100    0.0100    0.0100    0.0100    0.0100    0.0100    0.0100
    0.0100    0.0100    0.0100    0.0100    0.0100    0.0100    0.0100    0.0100
    0.0100    0.0100    0.0100    0.0100    0.0100    0.0100    0.0100    0.0100
    0.0100    0.0100    0.0100    0.0100    0.0100    0.0100    0.0100    0.0100
    0.0100    0.0100    0.0100    0.0100    0.0100    0.0100    0.0100    0.0100
    0.0100    0.0100    0.0100    0.0100    0.0100    0.0100    0.0100    0.0100
    0.0100    0.0100    0.0100    0.0100    0.0100    0.0100    0.0100    0.0100
    0.0100    0.0100    0.0100    0.0100    0.0100    0.0100    0.0100    0.0100
    0.0100    0.0100    0.0100    0.0100    0.0100    0.0100    0.0100    0.0100
    0.0100    0.0100    0.0100    0.0100    0.0100    0.0100    0.0100    0.0100
    0.0100    0.0100    0.0100    0.0100    0.0100    0.0100    0.0100    0.0100
    0.0100    0.0100    0.0100    0.0100    0.0100    0.0100    0.0100    0.0100
    0.0100    0.0100    0.0100    0.0100    0.0100    0.0100    0.0100    0.0100
    0.0100    0.0100    0.0100    0.0100    0.0100    0.0100    0.0100    0.0100
    0.0100    0.0100    0.0100    0.0100    0.0100    0.0100    0.0100    0.0100
    0.0100    0.0100    0.0100    0.0100    0.0100    0.0100    0.0100    0.0100
    0.0100    0.0100    0.0100    0.0100    0.0100    0.0100    0.0100    0.0100
    0.0100    0.0100    0.0100    0.0100    0.0100    0.0100    0.0100    0.0100
    0.0100    0.0100    0.0100    0.0100    0.0100    0.0100    0.0100    0.0100
    0.0100    0.0100    0.0100    0.0100    0.0100    0.0100    0.0100    0.0100
    0.0100    0.0100    0.0100    0.0100    0.0100    0.0100    0.0100    0.0100
    0.0100    0.0100    0.0100    0.0100    0.0100    0.0100    0.0100    0.0100
    0.0100    0.0100    0.0100    0.0100    0.0100    0.0100    0.0100    0.0100
    0.0100    0.0100    0.0100    0.0100    0.0100    0.0100    0.0100    0.0100
    0.0100    0.0100    0.0100    0.0100    0.0100    0.0100    0.0100    0.0100
    0.0100    0.0100    0.0100    0.0100    0.0100    0.0100    0.0100    0.0100
    0.0100    0.0100    0.0100    0.0100    0.0100    0.0100    0.0100    0.0100
    0.0100    0.0100    0.0100    0.0100    0.0100    0.0100    0.0100    0.0100
    0.0100    0.0100    0.0100    0.0100    0.0100    0.0100    0.0100    0.0100
    0.0100    0.0100    0.0100    0.0100    0.0100    0.0100    0.0100    0.0100
    0.0100    0.0100    0.0100    0.0100    0.0100    0.0100    0.0100    0.0100
    0.0100    0.0100    0.0100    0.0100    0.0100    0.0100    0.0100    0.0100
    0.0100    0.0100    0.0100    0.0100    0.0100    0.0100    0.0100    0.0100
    0.0100    0.0100    0.0100    0.0100    0.0100    0.0100    0.0100    0.0100
    0.0100    0.0100    0.0100    0.0100    0.0100    0.0100    0.0100    0.0100
    0.0100    0.0100    0.0100    0.0100    0.0100    0.0100    0.0100    0.0100
    0.0100    0.0100    0.0100    0.0100    0.0100    0.0100    0.0100    0.0100
    0.0100    0.0100    0.0100    0.0100    0.0100    0.0100    0.0100    0.0100
    0.0100    0.0100    0.0100    0.0100    0.0100    0.0100    0.0100    0.0100
    0.0100    0.0100    0.0100    0.0100    0.0100    0.0100    0.0100    0.0100
    0.0100    0.0100    0.0100    0.0100    0.0100    0.0100    0.0100    0.0100
    0.0100    0.0100    0.0100    0.0100    0.0100    0.0100    0.0100    0.0100
    0.0100    0.0100    0.0100    0.0100    0.0100    0.0100    0.0100    0.0100
    0.0100    0.0100    0.0100    0.0100    0.0100    0.0100    0.0100    0.0100
    0.0100    0.0100    0.0100    0.0100    0.0100    0.0100    0.0100    0.0100
    0.0100    0.0100    0.0100    0.0100    0.0100    0.0100    0.0100    0.0100
    0.0100    0.0100    0.0100    0.0100    0.0100    0.0100    0.0100    0.0100
    0.0100    0.0100    0.0100    0.0100    0.0100    0.0100    0.0100    0.0100
    0.0100    0.0100    0.0100    0.0100    0.0100    0.0100    0.0100    0.0100
    0.0100    0.0100    0.0100    0.0100    0.0100    0.0100    0.0100    0.0100
    0.0100    0.0100    0.0100    0.0100    0.0100    0.0100    0.0100    0.0100
    0.0100    0.0100    0.0100    0.0100    0.0100    0.0100    0.0100    0.0100
    0.0100    0.0100    0.0100    0.0100    0.0100    0.0100    0.0100    0.0100
    0.0100    0.0100    0.0100    0.0100    0.0100    0.0100    0.0100    0.0100
    0.0100    0.0100    0.0100    0.0100    0.0100    0.0100    0.0100    0.0100
    0.0100    0.0100    0.0100    0.0100    0.0100    0.0100    0.0100    0.0100
    0.0100    0.0100    0.0100    0.0100    0.0100    0.0100    0.0100    0.0100
    0.0100    0.0100    0.0100    0.0100    0.0100    0.0100    0.0100    0.0100
    0.0100    0.0100    0.0100    0.0100    0.0100    0.0100    0.0100    0.0100
    0.0100    0.0100    0.0100    0.0100    0.0100    0.0100    0.0100    0.0100
    0.0100    0.0100    0.0100    0.0100    0.0100    0.0100    0.0100    0.0100
    0.0100    0.0100    0.0100    0.0100    0.0100    0.0100    0.0100    0.0100
    0.0100    0.0100    0.0100    0.0100    0.0100    0.0100    0.0100    0.0100
    0.0100    0.0100    0.0100    0.0100    0.0100    0.0100    0.0100    0.0100
    0.0100    0.0100    0.0100    0.0100    0.0100    0.0100    0.0100    0.0100
    0.0100    0.0100    0.0100    0.0100    0.0100    0.0100    0.0100    0.0100
    0.0100    0.0100    0.0100    0.0100    0.0100    0.0100    0.0100    0.0100
    0.0100    0.0100    0.0100    0.0100    0.0100    0.0100    0.0100    0.0100
    0.0100    0.0100    0.0100    0.0100    0.0100    0.0100    0.0100    0.0100
    0.0100    0.0100    0.0100    0.0100    0.0100    0.0100    0.0100    0.0100
    0.0100    0.0100    0.0100    0.0100    0.0100    0.0100    0.0100    0.0100
    0.0100    0.0100    0.0100    0.0100    0.0100    0.0100    0.0100    0.0100
    0.0100    0.0100    0.0100    0.0100    0.0100    0.0100    0.0100    0.0100
    0.0100    0.0100    0.0100    0.0100    0.0100    0.0100    0.0100    0.0100
    0.0100    0.0100    0.0100    0.0100    0.0100    0.0100    0.0100    0.0100
    0.0100    0.0100    0.0100    0.0100    0.0100    0.0100    0.0100    0.0100
    0.0100    0.0100    0.0100    0.0100    0.0100    0.0100    0.0100    0.0100
    0.0100    0.0100    0.0100    0.0100    0.0100    0.0100    0.0100    0.0100
    0.0100    0.0100    0.0100    0.0100    0.0100    0.0100    0.0100    0.0100
    0.0100    0.0100    0.0100    0.0100    0.0100    0.0100    0.0100    0.0100
    0.0100    0.0100    0.0100    0.0100    0.0100    0.0100    0.0100    0.0100
    0.0100    0.0100    0.0100    0.0100    0.0100    0.0100    0.0100    0.0100
    0.0100    0.0100    0.0100    0.0100    0.0100    0.0100    0.0100    0.0100
    0.0100    0.0100    0.0100    0.0100    0.0100    0.0100    0.0100    0.0100
    0.0100    0.0100    0.0100    0.0100    0.0100    0.0100    0.0100    0.0100
    0.0100    0.0100    0.0100    0.0100    0.0100    0.0100    0.0100    0.0100
    0.0100    0.0100    0.0100    0.0100    0.0100    0.0100    0.0100    0.0100
    0.0100    0.0100    0.0100    0.0100    0.0100    0.0100    0.0100    0.0100
    0.0100    0.0100    0.0100    0.0100    0.0100    0.0100    0.0100    0.0100
    0.0100    0.0100    0.0100    0.0100    0.0100    0.0100    0.0100    0.0100
    0.0100    0.0100    0.0100    0.0100    0.0100    0.0100    0.0100    0.0100
    0.0100    0.0100    0.0100    0.0100    0.0100    0.0100    0.0100    0.0100
    0.0100    0.0100    0.0100    0.0100    0.0100    0.0100    0.0100    0.0100
    0.0100    0.0100    0.0100    0.0100    0.0100    0.0100
   </PP_RAB>
 </PP_MESH>
  <PP_LOCAL type="real"  size="1534" columns="4">
   -3.6310952286E+01   -3.6309965141E+01   -3.6307010233E+01   -3.6302107067E+01
   -3.6295287238E+01   -3.6286593153E+01   -3.6276076342E+01   -3.6263795456E+01
   -3.6249814044E+01   -3.6234198251E+01   -3.6217014506E+01   -3.6198327327E+01
   -3.6178197300E+01   -3.6156679296E+01   -3.6133820976E+01   -3.6109661588E+01
   -3.6084231059E+01   -3.6057549385E+01   -3.6029626265E+01   -3.6000460981E+01
   -3.5970042453E+01   -3.5938349458E+01   -3.5905350961E+01   -3.5871006530E+01
   -3.5835266802E+01   -3.5798073978E+01   -3.5759362326E+01   -3.5719058676E+01
   -3.5677082906E+01   -3.5633348396E+01   -3.5587762469E+01   -3.5540226803E+01
   -3.5490637826E+01   -3.5438887092E+01   -3.5384861646E+01   -3.5328444369E+01
   -3.5269514323E+01   -3.5207947071E+01   -3.5143614997E+01   -3.5076387609E+01
   -3.5006131836E+01   -3.4932712327E+01   -3.4855991782E+01   -3.4775831337E+01
   -3.4692091065E+01   -3.4604630663E+01   -3.4513310420E+01   -3.4417992558E+01
   -3.4318543070E+01   -3.4214834133E+01   -3.4106747175E+01   -3.3994176567E+01
   -3.3877033881E+01   -3.3755252498E+01   -3.3628792276E+01   -3.3497643845E+01
   -3.3361832072E+01   -3.3221418186E+01   -3.3076500158E+01   -3.2927211062E+01
   -3.2773715366E+01   -3.2616203377E+01   -3.2454884308E+01   -3.2289978602E+01
   -3.2121710285E+01   -3.1950300037E+01   -3.1775959569E+01   -3.1598887642E+01
   -3.1419267864E+01   -3.1237268123E+01   -3.1053041417E+01   -3.0866727682E+01
   -3.0678456265E+01   -3.0488348656E+01   -3.0296521224E+01   -3.0103087720E+01
   -2.9908161418E+01   -2.9711856819E+01   -2.9514290882E+01   -2.9315583776E+01
   -2.9115859196E+01   -2.8915244267E+01   -2.8713869101E+01   -2.8511866071E+01
   -2.8309368863E+01   -2.8106511396E+01   -2.7903426663E+01   -2.7700245582E+01
   -2.7497095899E+01   -2.7294101207E+01   -2.7091380105E+01   -2.6889045532E+01
   -2.6687204273E+01   -2.6485956650E+01   -2.6285396371E+01   -2.6085610539E+01
   -2.5886679778E+01   -2.5688678468E+01   -2.5491675052E+01   -2.5295732405E+01
   -2.5100908232E+01   -2.4907255481E+01   -2.4714822759E+01   -2.4523654734E+01
   -2.4333792519E+01   -2.4145274029E+01   -2.3958134306E+01   -2.3772405813E+01
   -2.3588118697E+01   -2.3405301011E+01   -2.3223978918E+01   -2.3044176854E+01
   -2.2865917665E+01   -2.2689222730E+01   -2.2514112046E+01   -2.2340604306E+01
   -2.2168716949E+01   -2.1998466206E+01   -2.1829867124E+01   -2.1662933582E+01
   -2.1497678301E+01   -2.1334112844E+01   -2.1172247609E+01   -2.1012091823E+01
   -2.0853653531E+01   -2.0696939578E+01   -2.0541955602E+01   -2.0388706016E+01
   -2.0237193997E+01   -2.0087421471E+01   -1.9939389105E+01   -1.9793096292E+01
   -1.9648541146E+01   -1.9505720486E+01   -1.9364629829E+01   -1.9225263373E+01
   -1.9087613986E+01   -1.8951673187E+01   -1.8817431118E+01   -1.8684876526E+01
   -1.8553996719E+01   -1.8424777537E+01   -1.8297203295E+01   -1.8171256739E+01
   -1.8046918980E+01   -1.7924169427E+01   -1.7802985713E+01   -1.7683343622E+01
   -1.7565216980E+01   -1.7448577961E+01   -1.7333398736E+01   -1.7219652478E+01
   -1.7107313275E+01   -1.6996356059E+01   -1.6886756521E+01   -1.6778491046E+01
   -1.6671536640E+01   -1.6565870876E+01   -1.6461471847E+01   -1.6358318128E+01
   -1.6256388741E+01   -1.6155663131E+01   -1.6056121162E+01   -1.5957743112E+01
   -1.5860509665E+01   -1.5764401932E+01   -1.5669402262E+01   -1.5575495473E+01
   -1.5482665583E+01   -1.5390895280E+01   -1.5300168352E+01   -1.5210468919E+01
   -1.5121781699E+01   -1.5034091950E+01   -1.4947385488E+01   -1.4861648686E+01
   -1.4776868477E+01   -1.4693032343E+01   -1.4610128304E+01   -1.4528144905E+01
   -1.4447071193E+01   -1.4366896696E+01   -1.4287611389E+01   -1.4209205659E+01
   -1.4131670295E+01   -1.4054996468E+01   -1.3979175655E+01   -1.3904199626E+01
   -1.3830060310E+01   -1.3756749958E+01   -1.3684261417E+01   -1.3612583531E+01
   -1.3541688680E+01   -1.3471528774E+01   -1.3402088415E+01   -1.3333360792E+01
   -1.3265334403E+01   -1.3197992661E+01   -1.3131318544E+01   -1.3065328282E+01
   -1.3000002314E+01   -1.2935325234E+01   -1.2871288603E+01   -1.2807882912E+01
   -1.2745098835E+01   -1.2682927286E+01   -1.2621359344E+01   -1.2560386262E+01
   -1.2499999459E+01   -1.2440190521E+01   -1.2380951193E+01   -1.2322273375E+01
   -1.2264149123E+01   -1.2206570641E+01   -1.2149530276E+01   -1.2093020522E+01
   -1.2037034009E+01   -1.1981563503E+01   -1.1926601904E+01   -1.1872142242E+01
   -1.1818177671E+01   -1.1764701473E+01   -1.1711707046E+01   -1.1659187911E+01
   -1.1607137703E+01   -1.1555550169E+01   -1.1504419167E+01   -1.1453738666E+01
   -1.1403502737E+01   -1.1353705557E+01   -1.1304341402E+01   -1.1255404650E+01
   -1.1206889774E+01   -1.1158791341E+01   -1.1111104014E+01   -1.1063822544E+01
   -1.1016941771E+01   -1.0970456624E+01   -1.0924362116E+01   -1.0878653343E+01
   -1.0833325483E+01   -1.0788373796E+01   -1.0743793616E+01   -1.0699580359E+01
   -1.0655729511E+01   -1.0612236636E+01   -1.0569097368E+01   -1.0526307411E+01
   -1.0483862540E+01   -1.0441758598E+01   -1.0399991492E+01   -1.0358557197E+01
   -1.0317451750E+01   -1.0276671253E+01   -1.0236211866E+01   -1.0196069812E+01
   -1.0156241371E+01   -1.0116722884E+01   -1.0077510745E+01   -1.0038601405E+01
   -9.9999913722E+00   -9.9616772044E+00   -9.9236555140E+00   -9.8859229648E+00
   -9.8484762707E+00   -9.8113121957E+00   -9.7744275521E+00   -9.7378192002E+00
   -9.7014840469E+00   -9.6654190453E+00   -9.6296211937E+00   -9.5940875346E+00
   -9.5588151539E+00   -9.5238011803E+00   -9.4890427846E+00   -9.4545371784E+00
   -9.4202816140E+00   -9.3862733833E+00   -9.3525098172E+00   -9.3189882847E+00
   -9.2857061926E+00   -9.2526609845E+00   -9.2198501403E+00   -9.1872711755E+00
   -9.1549216407E+00   -9.1227991208E+00   -9.0909012344E+00   -9.0592256333E+00
   -9.0277700022E+00   -8.9965320575E+00   -8.9655095472E+00   -8.9347002504E+00
   -8.9041019765E+00   -8.8737125647E+00   -8.8435298839E+00   -8.8135518316E+00
   -8.7837763339E+00   -8.7542013448E+00   -8.7248248456E+00   -8.6956448449E+00
   -8.6666593776E+00   -8.6378665049E+00   -8.6092643135E+00   -8.5808509154E+00
   -8.5526244477E+00   -8.5245830715E+00   -8.4967249723E+00   -8.4690483591E+00
   -8.4415514641E+00   -8.4142325426E+00   -8.3870898721E+00   -8.3601217524E+00
   -8.3333265053E+00   -8.3067024737E+00   -8.2802480219E+00   -8.2539615348E+00
   -8.2278414177E+00   -8.2018860963E+00   -8.1760940157E+00   -8.1504636409E+00
   -8.1249934558E+00   -8.0996819634E+00   -8.0745276851E+00   -8.0495291607E+00
   -8.0246849481E+00   -7.9999936228E+00   -7.9754537779E+00   -7.9510640237E+00
   -7.9268229873E+00   -7.9027293128E+00   -7.8787816604E+00   -7.8549787067E+00
   -7.8313191441E+00   -7.8078016809E+00   -7.7844250407E+00   -7.7611879624E+00
   -7.7380891999E+00   -7.7151275219E+00   -7.6923017118E+00   -7.6696105670E+00
   -7.6470528995E+00   -7.6246275348E+00   -7.6023333126E+00   -7.5801690857E+00
   -7.5581337204E+00   -7.5362260963E+00   -7.5144451058E+00   -7.4927896540E+00
   -7.4712586587E+00   -7.4498510501E+00   -7.4285657707E+00   -7.4074017747E+00
   -7.3863580287E+00   -7.3654335106E+00   -7.3446272100E+00   -7.3239381280E+00
   -7.3033652767E+00   -7.2829076794E+00   -7.2625643702E+00   -7.2423343943E+00
   -7.2222168070E+00   -7.2022106744E+00   -7.1823150729E+00   -7.1625290890E+00
   -7.1428518193E+00   -7.1232823702E+00   -7.1038198580E+00   -7.0844634084E+00
   -7.0652121570E+00   -7.0460652483E+00   -7.0270218365E+00   -7.0080810845E+00
   -6.9892421646E+00   -6.9705042576E+00   -6.9518665534E+00   -6.9333282502E+00
   -6.9148885551E+00   -6.8965466833E+00   -6.8783018585E+00   -6.8601533125E+00
   -6.8421002852E+00   -6.8241420244E+00   -6.8062777861E+00   -6.7885068336E+00
   -6.7708284382E+00   -6.7532418787E+00   -6.7357464414E+00   -6.7183414198E+00
   -6.7010261149E+00   -6.6837998347E+00   -6.6666618946E+00   -6.6496116167E+00
   -6.6326483300E+00   -6.6157713706E+00   -6.5989800812E+00   -6.5822738110E+00
   -6.5656519161E+00   -6.5491137587E+00   -6.5326587078E+00   -6.5162861385E+00
   -6.4999954321E+00   -6.4837859763E+00   -6.4676571647E+00   -6.4516083969E+00
   -6.4356390786E+00   -6.4197486212E+00   -6.4039364422E+00   -6.3882019643E+00
   -6.3725446164E+00   -6.3569638328E+00   -6.3414590530E+00   -6.3260297225E+00
   -6.3106752918E+00   -6.2953952168E+00   -6.2801889588E+00   -6.2650559840E+00
   -6.2499957642E+00   -6.2350077759E+00   -6.2200915005E+00   -6.2052464247E+00
   -6.1904720397E+00   -6.1757678420E+00   -6.1611333327E+00   -6.1465680175E+00
   -6.1320714067E+00   -6.1176430155E+00   -6.1032823633E+00   -6.0889889743E+00
   -6.0747623770E+00   -6.0606021043E+00   -6.0465076935E+00   -6.0324786861E+00
   -6.0185146281E+00   -6.0046150693E+00   -5.9907795639E+00   -5.9770076702E+00
   -5.9632989504E+00   -5.9496529710E+00   -5.9360693021E+00   -5.9225475179E+00
   -5.9090871966E+00   -5.8956879199E+00   -5.8823492736E+00   -5.8690708471E+00
   -5.8558522334E+00   -5.8426930293E+00   -5.8295928353E+00   -5.8165512553E+00
   -5.8035678967E+00   -5.7906423706E+00   -5.7777742914E+00   -5.7649632769E+00
   -5.7522089485E+00   -5.7395109307E+00   -5.7268688514E+00   -5.7142823418E+00
   -5.7017510363E+00   -5.6892745725E+00   -5.6768525912E+00   -5.6644847363E+00
   -5.6521706547E+00   -5.6399099966E+00   -5.6277024150E+00   -5.6155475661E+00
   -5.6034451088E+00   -5.5913947052E+00   -5.5793960201E+00   -5.5674487213E+00
   -5.5555524794E+00   -5.5437069678E+00   -5.5319118628E+00   -5.5201668431E+00
   -5.5084715906E+00   -5.4968257894E+00   -5.4852291268E+00   -5.4736812922E+00
   -5.4621819780E+00   -5.4507308790E+00   -5.4393276925E+00   -5.4279721186E+00
   -5.4166638596E+00   -5.4054026204E+00   -5.3941881083E+00   -5.3830200332E+00
   -5.3718981071E+00   -5.3608220447E+00   -5.3497915628E+00   -5.3388063806E+00
   -5.3278662197E+00   -5.3169708037E+00   -5.3061198589E+00   -5.2953131134E+00
   -5.2845502978E+00   -5.2738311447E+00   -5.2631553890E+00   -5.2525227676E+00
   -5.2419330196E+00   -5.2313858863E+00   -5.2208811109E+00   -5.2104184388E+00
   -5.1999976174E+00   -5.1896183960E+00   -5.1792805260E+00   -5.1689837609E+00
   -5.1587278559E+00   -5.1485125682E+00   -5.1383376572E+00   -5.1282028838E+00
   -5.1181080110E+00   -5.1080528037E+00   -5.0980370285E+00   -5.0880604539E+00
   -5.0781228502E+00   -5.0682239896E+00   -5.0583636458E+00   -5.0485415946E+00
   -5.0387576132E+00   -5.0290114809E+00   -5.0193029783E+00   -5.0096318879E+00
   -4.9999979940E+00   -4.9904010823E+00   -4.9808409403E+00   -4.9713173570E+00
   -4.9618301232E+00   -4.9523790312E+00   -4.9429638747E+00   -4.9335844493E+00
   -4.9242405519E+00   -4.9149319811E+00   -4.9056585368E+00   -4.8964200207E+00
   -4.8872162357E+00   -4.8780469864E+00   -4.8689120787E+00   -4.8598113201E+00
   -4.8507445194E+00   -4.8417114870E+00   -4.8327120344E+00   -4.8237459750E+00
   -4.8148131230E+00   -4.8059132944E+00   -4.7970463063E+00   -4.7882119774E+00
   -4.7794101275E+00   -4.7706405779E+00   -4.7619031510E+00   -4.7531976707E+00
   -4.7445239621E+00   -4.7358818516E+00   -4.7272711668E+00   -4.7186917367E+00
   -4.7101433913E+00   -4.7016259620E+00   -4.6931392815E+00   -4.6846831834E+00
   -4.6762575028E+00   -4.6678620759E+00   -4.6594967400E+00   -4.6511613336E+00
   -4.6428556964E+00   -4.6345796692E+00   -4.6263330939E+00   -4.6181158136E+00
   -4.6099276724E+00   -4.6017685157E+00   -4.5936381898E+00   -4.5855365421E+00
   -4.5774634213E+00   -4.5694186768E+00   -4.5614021594E+00   -4.5534137207E+00
   -4.5454532135E+00   -4.5375204916E+00   -4.5296154096E+00   -4.5217378235E+00
   -4.5138875899E+00   -4.5060645668E+00   -4.4982686128E+00   -4.4904995877E+00
   -4.4827573522E+00   -4.4750417680E+00   -4.4673526977E+00   -4.4596900049E+00
   -4.4520535541E+00   -4.4444432106E+00   -4.4368588410E+00   -4.4293003123E+00
   -4.4217674927E+00   -4.4142602514E+00   -4.4067784583E+00   -4.3993219841E+00
   -4.3918907006E+00   -4.3844844803E+00   -4.3771031967E+00   -4.3697467240E+00
   -4.3624149374E+00   -4.3551077127E+00   -4.3478249268E+00   -4.3405664573E+00
   -4.3333321825E+00   -4.3261219818E+00   -4.3189357351E+00   -4.3117733233E+00
   -4.3046346280E+00   -4.2975195316E+00   -4.2904279172E+00   -4.2833596689E+00
   -4.2763146713E+00   -4.2692928098E+00   -4.2622939708E+00   -4.2553180411E+00
   -4.2483649084E+00   -4.2414344613E+00   -4.2345265888E+00   -4.2276411809E+00
   -4.2207781280E+00   -4.2139373217E+00   -4.2071186537E+00   -4.2003220169E+00
   -4.1935473047E+00   -4.1867944111E+00   -4.1800632309E+00   -4.1733536596E+00
   -4.1666655932E+00   -4.1599989285E+00   -4.1533535630E+00   -4.1467293948E+00
   -4.1401263225E+00   -4.1335442457E+00   -4.1269830643E+00   -4.1204426789E+00
   -4.1139229909E+00   -4.1074239022E+00   -4.1009453152E+00   -4.0944871332E+00
   -4.0880492598E+00   -4.0816315995E+00   -4.0752340572E+00   -4.0688565385E+00
   -4.0624989494E+00   -4.0561611968E+00   -4.0498431878E+00   -4.0435448305E+00
   -4.0372660332E+00   -4.0310067050E+00   -4.0247667555E+00   -4.0185460949E+00
   -4.0123446337E+00   -4.0061622833E+00   -3.9999989555E+00   -3.9938545626E+00
   -3.9877290175E+00   -3.9816222335E+00   -3.9755341248E+00   -3.9694646056E+00
   -3.9634135910E+00   -3.9573809965E+00   -3.9513667381E+00   -3.9453707324E+00
   -3.9393928964E+00   -3.9334331476E+00   -3.9274914040E+00   -3.9215675842E+00
   -3.9156616072E+00   -3.9097733925E+00   -3.9039028601E+00   -3.8980499305E+00
   -3.8922145246E+00   -3.8863965639E+00   -3.8805959701E+00   -3.8748126658E+00
   -3.8690465736E+00   -3.8632976169E+00   -3.8575657194E+00   -3.8518508053E+00
   -3.8461527992E+00   -3.8404716262E+00   -3.8348072118E+00   -3.8291594819E+00
   -3.8235283630E+00   -3.8179137819E+00   -3.8123156659E+00   -3.8067339425E+00
   -3.8011685400E+00   -3.7956193868E+00   -3.7900864119E+00   -3.7845695446E+00
   -3.7790687148E+00   -3.7735838525E+00   -3.7681148883E+00   -3.7626617533E+00
   -3.7572243787E+00   -3.7518026965E+00   -3.7463966387E+00   -3.7410061379E+00
   -3.7356311270E+00   -3.7302715394E+00   -3.7249273088E+00   -3.7195983693E+00
   -3.7142846553E+00   -3.7089861017E+00   -3.7037026437E+00   -3.6984342169E+00
   -3.6931807572E+00   -3.6879422009E+00   -3.6827184848E+00   -3.6775095458E+00
   -3.6723153213E+00   -3.6671357491E+00   -3.6619707672E+00   -3.6568203141E+00
   -3.6516843286E+00   -3.6465627498E+00   -3.6414555172E+00   -3.6363625705E+00
   -3.6312838500E+00   -3.6262192960E+00   -3.6211688495E+00   -3.6161324515E+00
   -3.6111100435E+00   -3.6061015673E+00   -3.6011069651E+00   -3.5961261791E+00
   -3.5911591523E+00   -3.5862058276E+00   -3.5812661485E+00   -3.5763400585E+00
   -3.5714275019E+00   -3.5665284227E+00   -3.5616427657E+00   -3.5567704758E+00
   -3.5519114981E+00   -3.5470657783E+00   -3.5422332621E+00   -3.5374138956E+00
   -3.5326076252E+00   -3.5278143976E+00   -3.5230341598E+00   -3.5182668591E+00
   -3.5135124430E+00   -3.5087708594E+00   -3.5040420563E+00   -3.4993259822E+00
   -3.4946225858E+00   -3.4899318159E+00   -3.4852536218E+00   -3.4805879531E+00
   -3.4759347594E+00   -3.4712939908E+00   -3.4666655976E+00   -3.4620495304E+00
   -3.4574457400E+00   -3.4528541775E+00   -3.4482747942E+00   -3.4437075417E+00
   -3.4391523719E+00   -3.4346092370E+00   -3.4300780892E+00   -3.4255588813E+00
   -3.4210515660E+00   -3.4165560965E+00   -3.4120724262E+00   -3.4076005086E+00
   -3.4031402977E+00   -3.3986917474E+00   -3.3942548122E+00   -3.3898294466E+00
   -3.3854156054E+00   -3.3810132437E+00   -3.3766223167E+00   -3.3722427799E+00
   -3.3678745891E+00   -3.3635177003E+00   -3.3591720695E+00   -3.3548376534E+00
   -3.3505144084E+00   -3.3462022915E+00   -3.3419012597E+00   -3.3376112704E+00
   -3.3333322811E+00   -3.3290642496E+00   -3.3248071337E+00   -3.3205608918E+00
   -3.3163254821E+00   -3.3121008633E+00   -3.3078869941E+00   -3.3036838337E+00
   -3.2994913413E+00   -3.2953094762E+00   -3.2911381981E+00   -3.2869774669E+00
   -3.2828272426E+00   -3.2786874855E+00   -3.2745581560E+00   -3.2704392148E+00
   -3.2663306227E+00   -3.2622323408E+00   -3.2581443302E+00   -3.2540665525E+00
   -3.2499989693E+00   -3.2459415424E+00   -3.2418942337E+00   -3.2378570056E+00
   -3.2338298203E+00   -3.2298126405E+00   -3.2258054288E+00   -3.2218081484E+00
   -3.2178207622E+00   -3.2138432336E+00   -3.2098755261E+00   -3.2059176033E+00
   -3.2019694291E+00   -3.1980309676E+00   -3.1941021829E+00   -3.1901830393E+00
   -3.1862735016E+00   -3.1823735343E+00   -3.1784831025E+00   -3.1746021711E+00
   -3.1707307054E+00   -3.1668686708E+00   -3.1630160329E+00   -3.1591727575E+00
   -3.1553388104E+00   -3.1515141578E+00   -3.1476987658E+00   -3.1438926009E+00
   -3.1400956297E+00   -3.1363078188E+00   -3.1325291353E+00   -3.1287595460E+00
   -3.1249990183E+00   -3.1212475195E+00   -3.1175050171E+00   -3.1137714787E+00
   -3.1100468724E+00   -3.1063311659E+00   -3.1026243275E+00   -3.0989263254E+00
   -3.0952371281E+00   -3.0915567042E+00   -3.0878850223E+00   -3.0842220515E+00
   -3.0805677608E+00   -3.0769221192E+00   -3.0732850963E+00   -3.0696566613E+00
   -3.0660367840E+00   -3.0624254341E+00   -3.0588225815E+00   -3.0552281963E+00
   -3.0516422485E+00   -3.0480647087E+00   -3.0444955472E+00   -3.0409347346E+00
   -3.0373822417E+00   -3.0338380393E+00   -3.0303020985E+00   -3.0267743904E+00
   -3.0232548863E+00   -3.0197435576E+00   -3.0162403758E+00   -3.0127453127E+00
   -3.0092583400E+00   -3.0057794296E+00   -3.0023085538E+00   -2.9988456845E+00
   -2.9953907943E+00   -2.9919438554E+00   -2.9885048406E+00   -2.9850737225E+00
   -2.9816504739E+00   -2.9782350679E+00   -2.9748274774E+00   -2.9714276758E+00
   -2.9680356362E+00   -2.9646513322E+00   -2.9612747373E+00   -2.9579058253E+00
   -2.9545445699E+00   -2.9511909450E+00   -2.9478449248E+00   -2.9445064833E+00
   -2.9411755948E+00   -2.9378522338E+00   -2.9345363748E+00   -2.9312279923E+00
   -2.9279270612E+00   -2.9246335562E+00   -2.9213474524E+00   -2.9180687248E+00
   -2.9147973486E+00   -2.9115332992E+00   -2.9082765518E+00   -2.9050270822E+00
   -2.9017848658E+00   -2.8985498784E+00   -2.8953220960E+00   -2.8921014943E+00
   -2.8888880496E+00   -2.8856817379E+00   -2.8824825356E+00   -2.8792904190E+00
   -2.8761053647E+00   -2.8729273491E+00   -2.8697563490E+00   -2.8665923412E+00
   -2.8634353026E+00   -2.8602852102E+00   -2.8571420411E+00   -2.8540057725E+00
   -2.8508763816E+00   -2.8477538460E+00   -2.8446381430E+00   -2.8415292503E+00
   -2.8384271456E+00   -2.8353318067E+00   -2.8322432115E+00   -2.8291613379E+00
   -2.8260861640E+00   -2.8230176680E+00   -2.8199558282E+00   -2.8169006230E+00
   -2.8138520308E+00   -2.8108100301E+00   -2.8077745996E+00   -2.8047457181E+00
   -2.8017233643E+00   -2.7987075172E+00   -2.7956981559E+00   -2.7926952593E+00
   -2.7896988067E+00   -2.7867087774E+00   -2.7837251507E+00   -2.7807479061E+00
   -2.7777770231E+00   -2.7748124815E+00   -2.7718542608E+00   -2.7689023409E+00
   -2.7659567017E+00   -2.7630173231E+00   -2.7600841853E+00   -2.7571572684E+00
   -2.7542365525E+00   -2.7513220181E+00   -2.7484136454E+00   -2.7455114151E+00
   -2.7426153076E+00   -2.7397253036E+00   -2.7368413839E+00   -2.7339635291E+00
   -2.7310917203E+00   -2.7282259384E+00   -2.7253661644E+00   -2.7225123795E+00
   -2.7196645648E+00   -2.7168227017E+00   -2.7139867715E+00   -2.7111567556E+00
   -2.7083326356E+00   -2.7055143931E+00   -2.7027020097E+00   -2.6998954672E+00
   -2.6970947474E+00   -2.6942998322E+00   -2.6915107036E+00   -2.6887273436E+00
   -2.6859497344E+00   -2.6831778581E+00   -2.6804116970E+00   -2.6776512334E+00
   -2.6748964499E+00   -2.6721473288E+00   -2.6694038527E+00   -2.6666660042E+00
   -2.6639337661E+00   -2.6612071212E+00   -2.6584860521E+00   -2.6557705420E+00
   -2.6530605737E+00   -2.6503561304E+00   -2.6476571951E+00   -2.6449637509E+00
   -2.6422757813E+00   -2.6395932695E+00   -2.6369161989E+00   -2.6342445530E+00
   -2.6315783152E+00   -2.6289174692E+00   -2.6262619987E+00   -2.6236118874E+00
   -2.6209671190E+00   -2.6183276775E+00   -2.6156935467E+00   -2.6130647106E+00
   -2.6104411534E+00   -2.6078228590E+00   -2.6052098117E+00   -2.6026019958E+00
   -2.5999993955E+00   -2.5974019952E+00   -2.5948097793E+00   -2.5922227323E+00
   -2.5896408389E+00   -2.5870640835E+00   -2.5844924509E+00   -2.5819259258E+00
   -2.5793644931E+00   -2.5768081375E+00   -2.5742568440E+00   -2.5717105975E+00
   -2.5691693832E+00   -2.5666331861E+00   -2.5641019914E+00   -2.5615757842E+00
   -2.5590545499E+00   -2.5565382737E+00   -2.5540269412E+00   -2.5515205376E+00
   -2.5490190486E+00   -2.5465224596E+00   -2.5440307564E+00   -2.5415439245E+00
   -2.5390619497E+00   -2.5365848177E+00   -2.5341125145E+00   -2.5316450260E+00
   -2.5291823379E+00   -2.5267244365E+00   -2.5242713076E+00   -2.5218229375E+00
   -2.5193793124E+00   -2.5169404183E+00   -2.5145062416E+00   -2.5120767687E+00
   -2.5096519858E+00   -2.5072318795E+00   -2.5048164363E+00   -2.5024056425E+00
   -2.4999994850E+00   -2.4975979501E+00   -2.4952010248E+00   -2.4928086957E+00
   -2.4904209496E+00   -2.4880377734E+00   -2.4856591538E+00   -2.4832850780E+00
   -2.4809155329E+00   -2.4785505055E+00   -2.4761899829E+00   -2.4738339522E+00
   -2.4714824007E+00   -2.4691353156E+00   -2.4667926842E+00   -2.4644544937E+00
   -2.4621207317E+00   -2.4597913855E+00   -2.4574664426E+00   -2.4551458905E+00
   -2.4528297168E+00   -2.4505179091E+00   -2.4482104552E+00   -2.4459073426E+00
   -2.4436085592E+00   -2.4413140927E+00   -2.4390239311E+00   -2.4367380622E+00
   -2.4344564739E+00   -2.4321791543E+00   -2.4299060914E+00   -2.4276372732E+00
   -2.4253726879E+00   -2.4231123236E+00   -2.4208561685E+00   -2.4186042110E+00
   -2.4163564392E+00   -2.4141128416E+00   -2.4118734066E+00   -2.4096381224E+00
   -2.4074069777E+00   -2.4051799609E+00   -2.4029570606E+00   -2.4007382654E+00
   -2.3985235639E+00   -2.3963129447E+00   -2.3941063968E+00   -2.3919039087E+00
   -2.3897054693E+00   -2.3875110674E+00   -2.3853206920E+00   -2.3831343319E+00
   -2.3809519761E+00   -2.3787736137E+00   -2.3765992337E+00   -2.3744288251E+00
   -2.3722623771E+00   -2.3700998789E+00   -2.3679413197E+00   -2.3657866887E+00
   -2.3636359752E+00   -2.3614891686E+00   -2.3593462582E+00   -2.3572072333E+00
   -2.3550720835E+00   -2.3529407983E+00   -2.3508133671E+00   -2.3486897795E+00
   -2.3465700250E+00   -2.3444540934E+00   -2.3423419743E+00   -2.3402336574E+00
   -2.3381291325E+00   -2.3360283892E+00   -2.3339314175E+00   -2.3318382072E+00
   -2.3297487481E+00   -2.3276630302E+00   -2.3255810436E+00   -2.3235027780E+00
   -2.3214282237E+00   -2.3193573706E+00   -2.3172902089E+00   -2.3152267286E+00
   -2.3131669201E+00   -2.3111107734E+00   -2.3090582789E+00   -2.3070094268E+00
   -2.3049642074E+00   -2.3029226110E+00   -2.3008846281E+00   -2.2988502491E+00
   -2.2968194644E+00   -2.2947922645E+00   -2.2927686399E+00   -2.2907485811E+00
   -2.2887320788E+00   -2.2867191236E+00   -2.2847097060E+00   -2.2827038169E+00
   -2.2807014469E+00   -2.2787025867E+00   -2.2767072271E+00   -2.2747153590E+00
   -2.2727269732E+00   -2.2707420606E+00   -2.2687606120E+00   -2.2667826184E+00
   -2.2648080709E+00   -2.2628369603E+00   -2.2608692777E+00   -2.2589050143E+00
   -2.2569441610E+00   -2.2549867090E+00   -2.2530326495E+00   -2.2510819736E+00
   -2.2491346726E+00   -2.2471907378E+00   -2.2452501603E+00   -2.2433129316E+00
   -2.2413790429E+00   -2.2394484856E+00   -2.2375212512E+00   -2.2355973310E+00
   -2.2336767165E+00   -2.2317593992E+00   -2.2298453707E+00   -2.2279346224E+00
   -2.2260271459E+00   -2.2241229328E+00   -2.2222219749E+00   -2.2203242636E+00
   -2.2184297908E+00   -2.2165385481E+00   -2.2146505273E+00   -2.2127657202E+00
   -2.2108841185E+00   -2.2090057141E+00   -2.2071304988E+00   -2.2052584646E+00
   -2.2033896034E+00   -2.2015239070E+00   -2.1996613674E+00   -2.1978019767E+00
   -2.1959457269E+00   -2.1940926100E+00   -2.1922426181E+00   -2.1903957433E+00
   -2.1885519777E+00   -2.1867113134E+00   -2.1848737428E+00   -2.1830392579E+00
   -2.1812078510E+00   -2.1793795143E+00   -2.1775542402E+00   -2.1757320210E+00
   -2.1739128490E+00   -2.1720967165E+00   -2.1702836160E+00   -2.1684735398E+00
   -2.1666664804E+00   -2.1648624303E+00   -2.1630613819E+00   -2.1612633279E+00
   -2.1594682606E+00   -2.1576761727E+00   -2.1558870567E+00   -2.1541009053E+00
   -2.1523177112E+00   -2.1505374669E+00   -2.1487601651E+00   -2.1469857987E+00
   -2.1452143602E+00   -2.1434458425E+00   -2.1416802384E+00   -2.1399175406E+00
   -2.1381577419E+00   -2.1364008353E+00   -2.1346468137E+00   -2.1328956698E+00
   -2.1311473967E+00   -2.1294019872E+00   -2.1276594344E+00   -2.1259197313E+00
   -2.1241828708E+00   -2.1224488460E+00   -2.1207176500E+00   -2.1189892758E+00
   -2.1172637165E+00   -2.1155409654E+00   -2.1138210154E+00   -2.1121038599E+00
   -2.1103894920E+00   -2.1086779049E+00   -2.1069690918E+00   -2.1052630461E+00
   -2.1035597609E+00   -2.1018592297E+00   -2.1001614457E+00   -2.0984664022E+00
   -2.0967740928E+00   -2.0950845106E+00   -2.0933976492E+00   -2.0917135021E+00
   -2.0900320625E+00   -2.0883533241E+00   -2.0866772802E+00   -2.0850039246E+00
   -2.0833332505E+00   -2.0816652517E+00   -2.0799999217E+00   -2.0783372542E+00
   -2.0766772426E+00   -2.0750198807E+00   -2.0733651622E+00   -2.0717130806E+00
   -2.0700636298E+00   -2.0684168034E+00   -2.0667725952E+00   -2.0651309989E+00
   -2.0634920084E+00   -2.0618556173E+00   -2.0602218197E+00   -2.0585906091E+00
   -2.0569619797E+00   -2.0553359251E+00   -2.0537124394E+00   -2.0520915164E+00
   -2.0504731500E+00   -2.0488573343E+00   -2.0472440632E+00   -2.0456333307E+00
   -2.0440251308E+00   -2.0424194576E+00   -2.0408163050E+00   -2.0392156672E+00
   -2.0376175383E+00   -2.0360219123E+00   -2.0344287834E+00   -2.0328381457E+00
   -2.0312499934E+00   -2.0296643206E+00   -2.0280811217E+00   -2.0265003907E+00
   -2.0249221219E+00   -2.0233463095E+00   -2.0217729479E+00   -2.0202020314E+00
   -2.0186335541E+00   -2.0170675105E+00   -2.0155038949E+00   -2.0139427016E+00
   -2.0123839251E+00   -2.0108275596E+00   -2.0092735997E+00   -2.0077220398E+00
   -2.0061728742E+00   -2.0046260975E+00   -2.0030817042E+00   -2.0015396886E+00
   -2.0000000455E+00   -1.9984627692E+00   -1.9969278543E+00   -1.9953952954E+00
   -1.9938650871E+00   -1.9923372239E+00   -1.9908117005E+00   -1.9892885115E+00
   -1.9877676516E+00   -1.9862491154E+00   -1.9847328975E+00   -1.9832189928E+00
   -1.9817073958E+00   -1.9801981014E+00   -1.9786911043E+00   -1.9771863992E+00
   -1.9756839808E+00   -1.9741838441E+00   -1.9726859838E+00   -1.9711903947E+00
   -1.9696970717E+00   -1.9682060096E+00   -1.9667172032E+00   -1.9652306476E+00
   -1.9637463375E+00   -1.9622642679E+00   -1.9607844337E+00   -1.9593068298E+00
   -1.9578314513E+00   -1.9563582932E+00   -1.9548873503E+00   -1.9534186177E+00
   -1.9519520904E+00   -1.9504877635E+00   -1.9490256320E+00   -1.9475656909E+00
   -1.9461079355E+00   -1.9446523607E+00   -1.9431989617E+00   -1.9417477335E+00
   -1.9402986714E+00   -1.9388517705E+00   -1.9374070259E+00   -1.9359644329E+00
   -1.9345239866E+00   -1.9330856823E+00   -1.9316495151E+00   -1.9302154804E+00
   -1.9287835733E+00   -1.9273537892E+00   -1.9259261232E+00   -1.9245005708E+00
   -1.9230771273E+00   -1.9216557879E+00   -1.9202365479E+00   -1.9188194029E+00
   -1.9174043480E+00   -1.9159913787E+00   -1.9145804904E+00   -1.9131716785E+00
   -1.9117649384E+00   -1.9103602655E+00   -1.9089576553E+00   -1.9075571033E+00
   -1.9061586049E+00   -1.9047621556E+00   -1.9033677509E+00   -1.9019753863E+00
   -1.9005850574E+00   -1.8991967596E+00   -1.8978104886E+00   -1.8964262399E+00
   -1.8950440091E+00   -1.8936637918E+00   -1.8922855835E+00   -1.8909093799E+00
   -1.8895351767E+00   -1.8881629694E+00   -1.8867927538E+00   -1.8854245254E+00
   -1.8840582800E+00   -1.8826940132E+00   -1.8813317209E+00   -1.8799713986E+00
   -1.8786130421E+00   -1.8772566472E+00   -1.8759022096E+00   -1.8745497251E+00
   -1.8731991894E+00   -1.8718505983E+00   -1.8705039478E+00   -1.8691592335E+00
   -1.8678164512E+00   -1.8664755970E+00   -1.8651366665E+00   -1.8637996556E+00
   -1.8624645603E+00   -1.8611313763E+00   -1.8598000997E+00   -1.8584707263E+00
   -1.8571432521E+00   -1.8558176729E+00   -1.8544939847E+00   -1.8531721835E+00
   -1.8518522652E+00   -1.8505342259E+00   -1.8492180615E+00   -1.8479037680E+00
   -1.8465913414E+00   -1.8452807778E+00   -1.8439720732E+00   -1.8426652236E+00
   -1.8413602251E+00   -1.8400570738E+00   -1.8387557658E+00   -1.8374562970E+00
   -1.8361586638E+00   -1.8348628621E+00   -1.8335688881E+00   -1.8322767379E+00
   -1.8309864076E+00   -1.8296978935E+00   -1.8284111917E+00   -1.8271262984E+00
   -1.8258432097E+00   -1.8245619219E+00   -1.8232824312E+00   -1.8220047338E+00
   -1.8207288260E+00   -1.8194547039E+00   -1.8181823638E+00   -1.8169118020E+00
   -1.8156430148E+00   -1.8143759985E+00   -1.8131107493E+00   -1.8118472636E+00
   -1.8105855377E+00   -1.8093255678E+00   -1.8080673504E+00   -1.8068108818E+00
   -1.8055561583E+00   -1.8043031763E+00   -1.8030519323E+00   -1.8018024224E+00
   -1.8005546433E+00   -1.7993085913E+00   -1.7980642627E+00   -1.7968216541E+00
   -1.7955807618E+00   -1.7943415823E+00   -1.7931041121E+00   -1.7918683476E+00
   -1.7906342853E+00   -1.7894019217E+00   -1.7881712533E+00   -1.7869422765E+00
   -1.7857149880E+00   -1.7844893843E+00   -1.7832654618E+00   -1.7820432172E+00
   -1.7808226470E+00   -1.7796037480E+00   -1.7783865168E+00   -1.7771709495E+00
   -1.7759570429E+00   -1.7747447933E+00   -1.7735341973E+00   -1.7723252516E+00
   -1.7711179527E+00   -1.7699122974E+00   -1.7687082844E+00   -1.7675059092E+00
   -1.7663051670E+00   -1.7651060544E+00   -1.7639085681E+00   -1.7627127046E+00
   -1.7615184607E+00   -1.7603258335E+00   -1.7591348200E+00   -1.7579453945E+00
   -1.7567575763E+00   -1.7555713681E+00   -1.7543867694E+00   -1.7532037791E+00
   -1.7520223951E+00   -1.7508426146E+00   -1.7496644333E+00   -1.7484878462E+00
   -1.7473128974E+00   -1.7461395209E+00   -1.7449677013E+00   -1.7437974219E+00
   -1.7426286658E+00   -1.7414614160E+00   -1.7402956557E+00   -1.7391313689E+00
   -1.7379685398E+00   -1.7368071459E+00   -1.7356471880E+00   -1.7344886588E+00
   -1.7333315535E+00   -1.7321758701E+00   -1.7310216098E+00   -1.7298687767E+00
   -1.7287173782E+00   -1.7275674114E+00   -1.7264188045E+00   -1.7252716853E+00
   -1.7241260834E+00   -1.7229820298E+00   -1.7218395546E+00   -1.7206986869E+00
   -1.7195594532E+00   -1.7184218764E+00   -1.7172859924E+00   -1.7161519750E+00
   -1.7150196324E+00   -1.7138889466E+00   -1.7127598949E+00   -1.7116324513E+00
   -1.7105065871E+00   -1.7093822724E+00   -1.7082594768E+00   -1.7071381699E+00
   -1.7060181747E+00   -1.7048996303E+00   -1.7037825293E+00   -1.7026668667E+00
   -1.7015526400E+00   -1.7004398484E+00   -1.6993284930E+00   -1.6982185759E+00
   -1.6971101001E+00   -1.6960031172E+00
  </PP_LOCAL>
 <PP_NONLOCAL>
   <PP_BETA.1
       type="real"
       size="1534"
       columns="4"
       index="1"
       angular_momentum="0"
       cutoff_radius_index=" 196"
       cutoff_radius="    1.9500000000E+00" >
    7.3109296395E-12    6.6350236473E-02    1.3257431377E-01    1.9854634855E-01
    2.6414100868E-01    3.2923378776E-01    3.9370127838E-01    4.5742144351E-01
    5.2027388583E-01    5.8214011427E-01    6.4290380750E-01    7.0245107374E-01
    7.6067070648E-01    8.1745443562E-01    8.7269717333E-01    9.2629725442E-01
    9.7815667030E-01    1.0281812963E+00    1.0762811114E+00    1.1223704103E+00
    1.1663680068E+00    1.2081974280E+00    1.2477870986E+00    1.2850705151E+00
    1.3199864092E+00    1.3524788989E+00    1.3824976281E+00    1.4099978931E+00
    1.4349407558E+00    1.4572931431E+00    1.4770279316E+00    1.4941240179E+00
    1.5085663726E+00    1.5203460790E+00    1.5294603561E+00    1.5359125634E+00
    1.5397121902E+00    1.5408748275E+00    1.5394221215E+00    1.5353817110E+00
    1.5287871462E+00    1.5196777905E+00    1.5080987042E+00    1.4941005116E+00
    1.4777392502E+00    1.4590762034E+00    1.4381777168E+00    1.4151149981E+00
    1.3899639018E+00    1.3628046986E+00    1.3337218313E+00    1.3028036563E+00
    1.2701421730E+00    1.2358327414E+00    1.1999737887E+00    1.1626665065E+00
    1.1240145389E+00    1.0841236633E+00    1.0431014651E+00    1.0010570068E+00
    9.5810049365E-01    9.1434293666E-01    8.6989581447E-01    8.2487073523E-01
    7.7937910017E-01    7.3353176985E-01    6.8743873474E-01    6.4120879126E-01
    5.9494922474E-01    5.4876550044E-01    5.0276096402E-01    4.5703655259E-01
    4.1169051743E-01    3.6681815971E-01    3.2251157991E-01    2.7885944220E-01
    2.3594675449E-01    1.9385466504E-01    1.5266027627E-01    1.1243647652E-01
    7.3251790139E-02    3.5170246525E-02   -1.7487317400E-03   -3.7450421253E-02
   -7.1884870618E-02   -1.0500695365E-01   -1.3677640307E-01   -1.6715782477E-01
   -1.9612069303E-01   -2.2363932699E-01   -2.4969284877E-01   -2.7426512390E-01
   -2.9734468468E-01   -3.1892463703E-01   -3.3900255184E-01   -3.5758034156E-01
   -3.7466412291E-01   -3.9026406681E-01   -4.0439423653E-01   -4.1707241504E-01
   -4.2831992284E-01   -4.3816142728E-01   -4.4662474461E-01   -4.5374063594E-01
   -4.5954259827E-01   -4.6406665179E-01   -4.6735112470E-01   -4.6943643655E-01
   -4.7036488152E-01   -4.7018041248E-01   -4.6892842709E-01   -4.6665555693E-01
   -4.6340946072E-01   -4.5923862244E-01   -4.5419215544E-01   -4.4831961323E-01
   -4.4167080774E-01   -4.3429563589E-01   -4.2624391491E-01   -4.1756522713E-01
   -4.0830877469E-01   -3.9852324457E-01   -3.8825668429E-01   -3.7755638863E-01
   -3.6646879749E-01   -3.5503940497E-01   -3.4331267995E-01   -3.3133199784E-01
   -3.1913958375E-01   -3.0677646667E-01   -2.9428244458E-01   -2.8169606028E-01
   -2.6905458746E-01   -2.5639402680E-01   -2.4374911158E-01   -2.3115332245E-01
   -2.1863891069E-01   -2.0623692959E-01   -1.9397727338E-01   -1.8188872295E-01
   -1.6999899798E-01   -1.5833481465E-01   -1.4692194850E-01   -1.3578530152E-01
   -1.2494897313E-01   -1.1443633408E-01   -1.0427010289E-01   -9.4472422767E-02
   -8.5064948350E-02   -7.6068754117E-02   -6.7503655072E-02   -5.9387833722E-02
   -5.1737951179E-02   -4.4569251107E-02   -3.7895662865E-02   -3.1729899119E-02
   -2.6083547051E-02   -2.0967158912E-02   -1.6390095932E-02   -1.2360523989E-02
   -8.8863743318E-03   -5.9749395041E-03   -3.6328652046E-03   -1.8667892699E-03
   -6.7630147730E-04   -9.2382157232E-05    1.3618875122E-05   -4.2721926322E-06
    7.5744148251E-07   -7.0978500614E-12    0.0000000000E+00    0.0000000000E+00
    0.0000000000E+00    0.0000000000E+00    0.0000000000E+00    0.0000000000E+00
    0.0000000000E+00    0.0000000000E+00    0.0000000000E+00    0.0000000000E+00
    0.0000000000E+00    0.0000000000E+00    0.0000000000E+00    0.0000000000E+00
    0.0000000000E+00    0.0000000000E+00    0.0000000000E+00    0.0000000000E+00
    0.0000000000E+00    0.0000000000E+00    0.0000000000E+00    0.0000000000E+00
    0.0000000000E+00    0.0000000000E+00    0.0000000000E+00    0.0000000000E+00
 0. 0. 0. 0.
 0. 0. 0. 0.
 0. 0. 0. 0.
 0. 0. 0. 0.
 0. 0. 0. 0.
 0. 0. 0. 0.
 0. 0. 0. 0.
 0. 0. 0. 0.
 0. 0. 0. 0.
 0. 0. 0. 0.
 0. 0. 0. 0.
 0. 0. 0. 0.
 0. 0. 0. 0.
 0. 0. 0. 0.
 0. 0. 0. 0.
 0. 0. 0. 0.
 0. 0. 0. 0.
 0. 0. 0. 0.
 0. 0. 0. 0.
 0. 0. 0. 0.
 0. 0. 0. 0.
 0. 0. 0. 0.
 0. 0. 0. 0.
 0. 0. 0. 0.
 0. 0. 0. 0.
 0. 0. 0. 0.
 0. 0. 0. 0.
 0. 0. 0. 0.
 0. 0. 0. 0.
 0. 0. 0. 0.
 0. 0. 0. 0.
 0. 0. 0. 0.
 0. 0. 0. 0.
 0. 0. 0. 0.
 0. 0. 0. 0.
 0. 0. 0. 0.
 0. 0. 0. 0.
 0. 0. 0. 0.
 0. 0. 0. 0.
 0. 0. 0. 0.
 0. 0. 0. 0.
 0. 0. 0. 0.
 0. 0. 0. 0.
 0. 0. 0. 0.
 0. 0. 0. 0.
 0. 0. 0. 0.
 0. 0. 0. 0.
 0. 0. 0. 0.
 0. 0. 0. 0.
 0. 0. 0. 0.
 0. 0. 0. 0.
 0. 0. 0. 0.
 0. 0. 0. 0.
 0. 0. 0. 0.
 0. 0. 0. 0.
 0. 0. 0. 0.
 0. 0. 0. 0.
 0. 0. 0. 0.
 0. 0. 0. 0.
 0. 0. 0. 0.
 0. 0. 0. 0.
 0. 0. 0. 0.
 0. 0. 0. 0.
 0. 0. 0. 0.
 0. 0. 0. 0.
 0. 0. 0. 0.
 0. 0. 0. 0.
 0. 0. 0. 0.
 0. 0. 0. 0.
 0. 0. 0. 0.
 0. 0. 0. 0.
 0. 0. 0. 0.
 0. 0. 0. 0.
 0. 0. 0. 0.
 0. 0. 0. 0.
 0. 0. 0. 0.
 0. 0. 0. 0.
 0. 0. 0. 0.
 0. 0. 0. 0.
 0. 0. 0. 0.
 0. 0. 0. 0.
 0. 0. 0. 0.
 0. 0. 0. 0.
 0. 0. 0. 0.
 0. 0. 0. 0.
 0. 0. 0. 0.
 0. 0. 0. 0.
 0. 0. 0. 0.
 0. 0. 0. 0.
 0. 0. 0. 0.
 0. 0. 0. 0.
 0. 0. 0. 0.
 0. 0. 0. 0.
 0. 0. 0. 0.
 0. 0. 0. 0.
 0. 0. 0. 0.
 0. 0. 0. 0.
 0. 0. 0. 0.
 0. 0. 0. 0.
 0. 0. 0. 0.
 0. 0. 0. 0.
 0. 0. 0. 0.
 0. 0. 0. 0.
 0. 0. 0. 0.
 0. 0. 0. 0.
 0. 0. 0. 0.
 0. 0. 0. 0.
 0. 0. 0. 0.
 0. 0. 0. 0.
 0. 0. 0. 0.
 0. 0. 0. 0.
 0. 0. 0. 0.
 0. 0. 0. 0.
 0. 0. 0. 0.
 0. 0. 0. 0.
 0. 0. 0. 0.
 0. 0. 0. 0.
 0. 0. 0. 0.
 0. 0. 0. 0.
 0. 0. 0. 0.
 0. 0. 0. 0.
 0. 0. 0. 0.
 0. 0. 0. 0.
 0. 0. 0. 0.
 0. 0. 0. 0.
 0. 0. 0. 0.
 0. 0. 0. 0.
 0. 0. 0. 0.
 0. 0. 0. 0.
 0. 0. 0. 0.
 0. 0. 0. 0.
 0. 0. 0. 0.
 0. 0. 0. 0.
 0. 0. 0. 0.
 0. 0. 0. 0.
 0. 0. 0. 0.
 0. 0. 0. 0.
 0. 0. 0. 0.
 0. 0. 0. 0.
 0. 0. 0. 0.
 0. 0. 0. 0.
 0. 0. 0. 0.
 0. 0. 0. 0.
 0. 0. 0. 0.
 0. 0. 0. 0.
 0. 0. 0. 0.
 0. 0. 0. 0.
 0. 0. 0. 0.
 0. 0. 0. 0.
 0. 0. 0. 0.
 0. 0. 0. 0.
 0. 0. 0. 0.
 0. 0. 0. 0.
 0. 0. 0. 0.
 0. 0. 0. 0.
 0. 0. 0. 0.
 0. 0. 0. 0.
 0. 0. 0. 0.
 0. 0. 0. 0.
 0. 0. 0. 0.
 0. 0. 0. 0.
 0. 0. 0. 0.
 0. 0. 0. 0.
 0. 0. 0. 0.
 0. 0. 0. 0.
 0. 0. 0. 0.
 0. 0. 0. 0.
 0. 0. 0. 0.
 0. 0. 0. 0.
 0. 0. 0. 0.
 0. 0. 0. 0.
 0. 0. 0. 0.
 0. 0. 0. 0.
 0. 0. 0. 0.
 0. 0. 0. 0.
 0. 0. 0. 0.
 0. 0. 0. 0.
 0. 0. 0. 0.
 0. 0. 0. 0.
 0. 0. 0. 0.
 0. 0. 0. 0.
 0. 0. 0. 0.
 0. 0. 0. 0.
 0. 0. 0. 0.
 0. 0. 0. 0.
 0. 0. 0. 0.
 0. 0. 0. 0.
 0. 0. 0. 0.
 0. 0. 0. 0.
 0. 0. 0. 0.
 0. 0. 0. 0.
 0. 0. 0. 0.
 0. 0. 0. 0.
 0. 0. 0. 0.
 0. 0. 0. 0.
 0. 0. 0. 0.
 0. 0. 0. 0.
 0. 0. 0. 0.
 0. 0. 0. 0.
 0. 0. 0. 0.
 0. 0. 0. 0.
 0. 0. 0. 0.
 0. 0. 0. 0.
 0. 0. 0. 0.
 0. 0. 0. 0.
 0. 0. 0. 0.
 0. 0. 0. 0.
 0. 0. 0. 0.
 0. 0. 0. 0.
 0. 0. 0. 0.
 0. 0. 0. 0.
 0. 0. 0. 0.
 0. 0. 0. 0.
 0. 0. 0. 0.
 0. 0. 0. 0.
 0. 0. 0. 0.
 0. 0. 0. 0.
 0. 0. 0. 0.
 0. 0. 0. 0.
 0. 0. 0. 0.
 0. 0. 0. 0.
 0. 0. 0. 0.
 0. 0. 0. 0.
 0. 0. 0. 0.
 0. 0. 0. 0.
 0. 0. 0. 0.
 0. 0. 0. 0.
 0. 0. 0. 0.
 0. 0. 0. 0.
 0. 0. 0. 0.
 0. 0. 0. 0.
 0. 0. 0. 0.
 0. 0. 0. 0.
 0. 0. 0. 0.
 0. 0. 0. 0.
 0. 0. 0. 0.
 0. 0. 0. 0.
 0. 0. 0. 0.
 0. 0. 0. 0.
 0. 0. 0. 0.
 0. 0. 0. 0.
 0. 0. 0. 0.
 0. 0. 0. 0.
 0. 0. 0. 0.
 0. 0. 0. 0.
 0. 0. 0. 0.
 0. 0. 0. 0.
 0. 0. 0. 0.
 0. 0. 0. 0.
 0. 0. 0. 0.
 0. 0. 0. 0.
 0. 0. 0. 0.
 0. 0. 0. 0.
 0. 0. 0. 0.
 0. 0. 0. 0.
 0. 0. 0. 0.
 0. 0. 0. 0.
 0. 0. 0. 0.
 0. 0. 0. 0.
 0. 0. 0. 0.
 0. 0. 0. 0.
 0. 0. 0. 0.
 0. 0. 0. 0.
 0. 0. 0. 0.
 0. 0. 0. 0.
 0. 0. 0. 0.
 0. 0. 0. 0.
 0. 0. 0. 0.
 0. 0. 0. 0.
 0. 0. 0. 0.
 0. 0. 0. 0.
 0. 0. 0. 0.
 0. 0. 0. 0.
 0. 0. 0. 0.
 0. 0. 0. 0.
 0. 0. 0. 0.
 0. 0. 0. 0.
 0. 0. 0. 0.
 0. 0. 0. 0.
 0. 0. 0. 0.
 0. 0. 0. 0.
 0. 0. 0. 0.
 0. 0. 0. 0.
 0. 0. 0. 0.
 0. 0. 0. 0.
 0. 0. 0. 0.
 0. 0. 0. 0.
 0. 0. 0. 0.
 0. 0. 0. 0.
 0. 0. 0. 0.
 0. 0. 0. 0.
 0. 0. 0. 0.
 0. 0. 0. 0.
 0. 0. 0. 0.
 0. 0. 0. 0.
 0. 0. 0. 0.
 0. 0. 0. 0.
 0. 0. 0. 0.
 0. 0. 0. 0.
 0. 0. 0. 0.
 0. 0. 0. 0.
 0. 0. 0. 0.
 0. 0. 0. 0.
 0. 0. 0. 0.
 0. 0. 0. 0.
 0. 0. 0. 0.
 0. 0. 0. 0.
 0. 0. 0. 0.
 0. 0. 0. 0.
 0. 0. 0. 0.
 0. 0. 0. 0.
 0. 0. 0. 0.
 0. 0. 0. 0.
 0. 0. 0. 0.
 0. 0. 0. 0.
 0. 0. 0. 0.
 0. 0. 0. 0.
 0. 0. 0. 0.
 0. 0. 0. 0.
 0. 0. 0. 0.
 0. 0. 0. 0.
 0. 0. 0. 0.
 0. 0. 0. 0.
 0. 0. 0. 0.
 0. 0. 0. 0.
 0. 0. 0. 0.
 0. 0. 0. 0.
 0. 0. 0. 0.
 0. 0. 0. 0.
 0. 0. 0. 0.
 0. 0. 0. 0.
 0. 0. 0. 0.
 0. 0. 0. 0.
 0. 0. 0. 0.
 0. 0.
   </PP_BETA.1>
   <PP_BETA.2
       type="real"
       size="1534"
       columns="4"
       index="2"
       angular_momentum="0"
       cutoff_radius_index=" 196"
       cutoff_radius="    1.9500000000E+00" >
    3.0306507304E-10   -6.3200821941E-02   -1.2609019170E-01   -1.8835825819E-01
   -2.4969836252E-01   -3.0980860922E-01   -3.6839340774E-01   -4.2516497487E-01
   -4.7984478863E-01   -5.3216498500E-01   -5.8186968891E-01   -6.2871627166E-01
   -6.7247652750E-01   -7.1293776240E-01   -7.4990378933E-01   -7.8319582427E-01
   -8.1265327870E-01   -8.3813444457E-01   -8.5951706861E-01   -8.7669881407E-01
   -8.8959760810E-01   -8.9815187445E-01   -9.0232065166E-01   -9.0208359767E-01
   -8.9744088284E-01   -8.8841297371E-01   -8.7504031114E-01   -8.5738288639E-01
   -8.3551972018E-01   -8.0954824962E-01   -7.7958362898E-01   -7.4575795038E-01
   -7.0821939118E-01   -6.6713129500E-01   -6.2267119369E-01   -5.7502977775E-01
   -5.2440982294E-01   -4.7102508070E-01   -4.1509914023E-01   -3.5686427004E-01
   -2.9656024627E-01   -2.3443317556E-01   -1.7073431929E-01   -1.0571892640E-01
   -3.9645080997E-02    2.7227428892E-02    9.4638215804E-02    1.6232736539E-01
    2.3003647223E-01    2.9750963483E-01    3.6449440604E-01    4.3074269595E-01
    4.9601162462E-01    5.6006432282E-01    6.2267067929E-01    6.8360803372E-01
    7.4266181509E-01    7.9962612559E-01    8.5430427069E-01    9.0650923653E-01
    9.5606411596E-01    1.0028024853E+00    1.0465687333E+00    1.0872183463E+00
    1.1246181492E+00    1.1586465087E+00    1.1891934985E+00    1.2161610313E+00
    1.2394629593E+00    1.2590251471E+00    1.2747855182E+00    1.2866940800E+00
    1.2947129272E+00    1.2988162272E+00    1.2989901893E+00    1.2952330187E+00
    1.2875548574E+00    1.2759777119E+00    1.2605353692E+00    1.2412733013E+00
    1.2182485568E+00    1.1915296414E+00    1.1611963841E+00    1.1273397893E+00
    1.0900618733E+00    1.0494754828E+00    1.0057040943E+00    9.5888159118E-01
    9.0915201731E-01    8.5666930351E-01    8.0159696538E-01    7.4410776935E-01
    6.8438336460E-01    6.2261387855E-01    5.5899747355E-01    4.9373986271E-01
    4.2705378319E-01    3.5915842531E-01    2.9027881651E-01    2.2064515923E-01
    1.5049212262E-01    8.0058088087E-02    9.5843495613E-03   -6.0685730501E-02
   -1.3050760741E-01   -1.9963648060E-01   -2.6782825708E-01   -3.3484054854E-01
   -4.0043369801E-01   -4.6437183160E-01   -5.2642393014E-01   -5.8636491518E-01
   -6.4397674338E-01   -6.9904950280E-01   -7.5138250449E-01   -8.0078536218E-01
   -8.4707905300E-01   -8.9009695172E-01   -9.2968583109E-01   -9.6570682090E-01
   -9.9803631818E-01   -1.0265668416E+00   -1.0512078230E+00   -1.0718863292E+00
   -1.0885477079E+00   -1.1011561530E+00   -1.1096951817E+00   -1.1141680218E+00
   -1.1145979028E+00   -1.1110282496E+00   -1.1035227748E+00   -1.0921654700E+00
   -1.0770604936E+00   -1.0583319577E+00   -1.0361236126E+00   -1.0105984345E+00
   -9.8193811640E-01   -9.5034246912E-01   -9.1602873554E-01   -8.7923082534E-01
   -8.4019847655E-01   -7.9919635184E-01   -7.5650307797E-01   -7.1241023753E-01
   -6.6722132290E-01   -6.2125066263E-01   -5.7482233171E-01   -5.2826903983E-01
   -4.8193113530E-01   -4.3615337299E-01   -3.9127403914E-01   -3.4761738851E-01
   -3.0549205546E-01   -2.6518949723E-01   -2.2698256067E-01   -1.9112412917E-01
   -1.5784586554E-01   -1.2735716407E-01   -9.9830652899E-02   -7.5404702327E-02
   -5.4231078798E-02   -3.6433761691E-02   -2.2108202151E-02   -1.1324476461E-02
   -4.0850932575E-03   -5.5478382231E-04    8.1521936392E-05   -2.5642666462E-05
    4.5620624821E-06   -3.1076339883E-11    0.0000000000E+00    0.0000000000E+00
    0.0000000000E+00    0.0000000000E+00    0.0000000000E+00    0.0000000000E+00
    0.0000000000E+00    0.0000000000E+00    0.0000000000E+00    0.0000000000E+00
    0.0000000000E+00    0.0000000000E+00    0.0000000000E+00    0.0000000000E+00
    0.0000000000E+00    0.0000000000E+00    0.0000000000E+00    0.0000000000E+00
    0.0000000000E+00    0.0000000000E+00    0.0000000000E+00    0.0000000000E+00
    0.0000000000E+00    0.0000000000E+00    0.0000000000E+00    0.0000000000E+00
 0. 0. 0. 0.
 0. 0. 0. 0.
 0. 0. 0. 0.
 0. 0. 0. 0.
 0. 0. 0. 0.
 0. 0. 0. 0.
 0. 0. 0. 0.
 0. 0. 0. 0.
 0. 0. 0. 0.
 0. 0. 0. 0.
 0. 0. 0. 0.
 0. 0. 0. 0.
 0. 0. 0. 0.
 0. 0. 0. 0.
 0. 0. 0. 0.
 0. 0. 0. 0.
 0. 0. 0. 0.
 0. 0. 0. 0.
 0. 0. 0. 0.
 0. 0. 0. 0.
 0. 0. 0. 0.
 0. 0. 0. 0.
 0. 0. 0. 0.
 0. 0. 0. 0.
 0. 0. 0. 0.
 0. 0. 0. 0.
 0. 0. 0. 0.
 0. 0. 0. 0.
 0. 0. 0. 0.
 0. 0. 0. 0.
 0. 0. 0. 0.
 0. 0. 0. 0.
 0. 0. 0. 0.
 0. 0. 0. 0.
 0. 0. 0. 0.
 0. 0. 0. 0.
 0. 0. 0. 0.
 0. 0. 0. 0.
 0. 0. 0. 0.
 0. 0. 0. 0.
 0. 0. 0. 0.
 0. 0. 0. 0.
 0. 0. 0. 0.
 0. 0. 0. 0.
 0. 0. 0. 0.
 0. 0. 0. 0.
 0. 0. 0. 0.
 0. 0. 0. 0.
 0. 0. 0. 0.
 0. 0. 0. 0.
 0. 0. 0. 0.
 0. 0. 0. 0.
 0. 0. 0. 0.
 0. 0. 0. 0.
 0. 0. 0. 0.
 0. 0. 0. 0.
 0. 0. 0. 0.
 0. 0. 0. 0.
 0. 0. 0. 0.
 0. 0. 0. 0.
 0. 0. 0. 0.
 0. 0. 0. 0.
 0. 0. 0. 0.
 0. 0. 0. 0.
 0. 0. 0. 0.
 0. 0. 0. 0.
 0. 0. 0. 0.
 0. 0. 0. 0.
 0. 0. 0. 0.
 0. 0. 0. 0.
 0. 0. 0. 0.
 0. 0. 0. 0.
 0. 0. 0. 0.
 0. 0. 0. 0.
 0. 0. 0. 0.
 0. 0. 0. 0.
 0. 0. 0. 0.
 0. 0. 0. 0.
 0. 0. 0. 0.
 0. 0. 0. 0.
 0. 0. 0. 0.
 0. 0. 0. 0.
 0. 0. 0. 0.
 0. 0. 0. 0.
 0. 0. 0. 0.
 0. 0. 0. 0.
 0. 0. 0. 0.
 0. 0. 0. 0.
 0. 0. 0. 0.
 0. 0. 0. 0.
 0. 0. 0. 0.
 0. 0. 0. 0.
 0. 0. 0. 0.
 0. 0. 0. 0.
 0. 0. 0. 0.
 0. 0. 0. 0.
 0. 0. 0. 0.
 0. 0. 0. 0.
 0. 0. 0. 0.
 0. 0. 0. 0.
 0. 0. 0. 0.
 0. 0. 0. 0.
 0. 0. 0. 0.
 0. 0. 0. 0.
 0. 0. 0. 0.
 0. 0. 0. 0.
 0. 0. 0. 0.
 0. 0. 0. 0.
 0. 0. 0. 0.
 0. 0. 0. 0.
 0. 0. 0. 0.
 0. 0. 0. 0.
 0. 0. 0. 0.
 0. 0. 0. 0.
 0. 0. 0. 0.
 0. 0. 0. 0.
 0. 0. 0. 0.
 0. 0. 0. 0.
 0. 0. 0. 0.
 0. 0. 0. 0.
 0. 0. 0. 0.
 0. 0. 0. 0.
 0. 0. 0. 0.
 0. 0. 0. 0.
 0. 0. 0. 0.
 0. 0. 0. 0.
 0. 0. 0. 0.
 0. 0. 0. 0.
 0. 0. 0. 0.
 0. 0. 0. 0.
 0. 0. 0. 0.
 0. 0. 0. 0.
 0. 0. 0. 0.
 0. 0. 0. 0.
 0. 0. 0. 0.
 0. 0. 0. 0.
 0. 0. 0. 0.
 0. 0. 0. 0.
 0. 0. 0. 0.
 0. 0. 0. 0.
 0. 0. 0. 0.
 0. 0. 0. 0.
 0. 0. 0. 0.
 0. 0. 0. 0.
 0. 0. 0. 0.
 0. 0. 0. 0.
 0. 0. 0. 0.
 0. 0. 0. 0.
 0. 0. 0. 0.
 0. 0. 0. 0.
 0. 0. 0. 0.
 0. 0. 0. 0.
 0. 0. 0. 0.
 0. 0. 0. 0.
 0. 0. 0. 0.
 0. 0. 0. 0.
 0. 0. 0. 0.
 0. 0. 0. 0.
 0. 0. 0. 0.
 0. 0. 0. 0.
 0. 0. 0. 0.
 0. 0. 0. 0.
 0. 0. 0. 0.
 0. 0. 0. 0.
 0. 0. 0. 0.
 0. 0. 0. 0.
 0. 0. 0. 0.
 0. 0. 0. 0.
 0. 0. 0. 0.
 0. 0. 0. 0.
 0. 0. 0. 0.
 0. 0. 0. 0.
 0. 0. 0. 0.
 0. 0. 0. 0.
 0. 0. 0. 0.
 0. 0. 0. 0.
 0. 0. 0. 0.
 0. 0. 0. 0.
 0. 0. 0. 0.
 0. 0. 0. 0.
 0. 0. 0. 0.
 0. 0. 0. 0.
 0. 0. 0. 0.
 0. 0. 0. 0.
 0. 0. 0. 0.
 0. 0. 0. 0.
 0. 0. 0. 0.
 0. 0. 0. 0.
 0. 0. 0. 0.
 0. 0. 0. 0.
 0. 0. 0. 0.
 0. 0. 0. 0.
 0. 0. 0. 0.
 0. 0. 0. 0.
 0. 0. 0. 0.
 0. 0. 0. 0.
 0. 0. 0. 0.
 0. 0. 0. 0.
 0. 0. 0. 0.
 0. 0. 0. 0.
 0. 0. 0. 0.
 0. 0. 0. 0.
 0. 0. 0. 0.
 0. 0. 0. 0.
 0. 0. 0. 0.
 0. 0. 0. 0.
 0. 0. 0. 0.
 0. 0. 0. 0.
 0. 0. 0. 0.
 0. 0. 0. 0.
 0. 0. 0. 0.
 0. 0. 0. 0.
 0. 0. 0. 0.
 0. 0. 0. 0.
 0. 0. 0. 0.
 0. 0. 0. 0.
 0. 0. 0. 0.
 0. 0. 0. 0.
 0. 0. 0. 0.
 0. 0. 0. 0.
 0. 0. 0. 0.
 0. 0. 0. 0.
 0. 0. 0. 0.
 0. 0. 0. 0.
 0. 0. 0. 0.
 0. 0. 0. 0.
 0. 0. 0. 0.
 0. 0. 0. 0.
 0. 0. 0. 0.
 0. 0. 0. 0.
 0. 0. 0. 0.
 0. 0. 0. 0.
 0. 0. 0. 0.
 0. 0. 0. 0.
 0. 0. 0. 0.
 0. 0. 0. 0.
 0. 0. 0. 0.
 0. 0. 0. 0.
 0. 0. 0. 0.
 0. 0. 0. 0.
 0. 0. 0. 0.
 0. 0. 0. 0.
 0. 0. 0. 0.
 0. 0. 0. 0.
 0. 0. 0. 0.
 0. 0. 0. 0.
 0. 0. 0. 0.
 0. 0. 0. 0.
 0. 0. 0. 0.
 0. 0. 0. 0.
 0. 0. 0. 0.
 0. 0. 0. 0.
 0. 0. 0. 0.
 0. 0. 0. 0.
 0. 0. 0. 0.
 0. 0. 0. 0.
 0. 0. 0. 0.
 0. 0. 0. 0.
 0. 0. 0. 0.
 0. 0. 0. 0.
 0. 0. 0. 0.
 0. 0. 0. 0.
 0. 0. 0. 0.
 0. 0. 0. 0.
 0. 0. 0. 0.
 0. 0. 0. 0.
 0. 0. 0. 0.
 0. 0. 0. 0.
 0. 0. 0. 0.
 0. 0. 0. 0.
 0. 0. 0. 0.
 0. 0. 0. 0.
 0. 0. 0. 0.
 0. 0. 0. 0.
 0. 0. 0. 0.
 0. 0. 0. 0.
 0. 0. 0. 0.
 0. 0. 0. 0.
 0. 0. 0. 0.
 0. 0. 0. 0.
 0. 0. 0. 0.
 0. 0. 0. 0.
 0. 0. 0. 0.
 0. 0. 0. 0.
 0. 0. 0. 0.
 0. 0. 0. 0.
 0. 0. 0. 0.
 0. 0. 0. 0.
 0. 0. 0. 0.
 0. 0. 0. 0.
 0. 0. 0. 0.
 0. 0. 0. 0.
 0. 0. 0. 0.
 0. 0. 0. 0.
 0. 0. 0. 0.
 0. 0. 0. 0.
 0. 0. 0. 0.
 0. 0. 0. 0.
 0. 0. 0. 0.
 0. 0. 0. 0.
 0. 0. 0. 0.
 0. 0. 0. 0.
 0. 0. 0. 0.
 0. 0. 0. 0.
 0. 0. 0. 0.
 0. 0. 0. 0.
 0. 0. 0. 0.
 0. 0. 0. 0.
 0. 0. 0. 0.
 0. 0. 0. 0.
 0. 0. 0. 0.
 0. 0. 0. 0.
 0. 0. 0. 0.
 0. 0. 0. 0.
 0. 0. 0. 0.
 0. 0. 0. 0.
 0. 0. 0. 0.
 0. 0. 0. 0.
 0. 0. 0. 0.
 0. 0. 0. 0.
 0. 0. 0. 0.
 0. 0. 0. 0.
 0. 0. 0. 0.
 0. 0. 0. 0.
 0. 0. 0. 0.
 0. 0. 0. 0.
 0. 0. 0. 0.
 0. 0. 0. 0.
 0. 0. 0. 0.
 0. 0. 0. 0.
 0. 0. 0. 0.
 0. 0. 0. 0.
 0. 0. 0. 0.
 0. 0. 0. 0.
 0. 0.
   </PP_BETA.2>
   <PP_BETA.3
       type="real"
       size="1534"
       columns="4"
       index="3"
       angular_momentum="1"
       cutoff_radius_index=" 196"
       cutoff_radius="    1.9500000000E+00" >
   -4.2573009701E-10    2.8338076481E-04    1.1350663385E-03    2.5596653822E-03
    4.5647886446E-03    7.1609442501E-03    1.0361392730E-02    1.4181963400E-02
    1.8640834113E-02    2.3758276825E-02    2.9556371765E-02    3.6058693367E-02
    4.3289971407E-02    5.1275731054E-02    6.0041915760E-02    6.9614497104E-02
    8.0019075810E-02    9.1280478241E-02    1.0342235271E-01    1.1646676991E-01
    1.3043383171E-01    1.4534129241E-01    1.6120419645E-01    1.7803453626E-01
    1.9584093377E-01    2.1462834883E-01    2.3439781723E-01    2.5514622116E-01
    2.7686609390E-01    2.9954546078E-01    3.2316771753E-01    3.4771154710E-01
    3.7315087528E-01    3.9945486531E-01    4.2658795097E-01    4.5450990749E-01
    4.8317595904E-01    5.1253692129E-01    5.4253937710E-01    5.7312588315E-01
    6.0423520502E-01    6.3580257797E-01    6.6775999044E-01    7.0003648717E-01
    7.3255848868E-01    7.6525012380E-01    7.9803357186E-01    8.3082941120E-01
    8.6355697064E-01    8.9613468089E-01    9.2848042248E-01    9.6051186769E-01
    9.9214681350E-01    1.0233035032E+00    1.0539009347E+00    1.0838591527E+00
    1.1130995249E+00    1.1415449989E+00    1.1691203404E+00    1.1957523513E+00
    1.2213700675E+00    1.2459049368E+00    1.2692909770E+00    1.2914649145E+00
    1.3123663052E+00    1.3319376377E+00    1.3501244215E+00    1.3668752608E+00
    1.3821419156E+00    1.3958793532E+00    1.4080457904E+00    1.4186027296E+00
    1.4275149901E+00    1.4347507369E+00    1.4402815085E+00    1.4440822461E+00
    1.4461313253E+00    1.4464105910E+00    1.4449053984E+00    1.4416046597E+00
    1.4365008972E+00    1.4295903038E+00    1.4208728107E+00    1.4103521614E+00
    1.3980359926E+00    1.3839359202E+00    1.3680676296E+00    1.3504509687E+00
    1.3311100413E+00    1.3100733006E+00    1.2873736380E+00    1.2630484668E+00
    1.2371397975E+00    1.2096943017E+00    1.1807633621E+00    1.1504031054E+00
    1.1186744165E+00    1.0856429287E+00    1.0513789907E+00    1.0159576042E+00
    9.7945833340E-01    9.4196518098E-01    9.0356643183E-01    8.6435446088E-01
    8.2442550534E-01    7.8387939999E-01    7.4281927580E-01    7.0135122175E-01
    6.5958391089E-01    6.1762819155E-01    5.7559664562E-01    5.3360311579E-01
    4.9176220467E-01    4.5018874845E-01    4.0899726899E-01    3.6830140787E-01
    3.2821334680E-01    2.8884321884E-01    2.5029851531E-01    2.1268349332E-01
    1.7609858905E-01    1.4063984220E-01    1.0639833675E-01    7.3459663329E-02
    4.1903408403E-02    1.1802675273E-02   -1.6776358368E-02   -4.3774841795E-02
   -6.9141607398E-02   -9.2833477871E-02   -1.1481552119E-01   -1.3506125056E-01
   -1.5355276724E-01   -1.7028084443E-01   -1.8524495137E-01   -1.9845321725E-01
   -2.0992233513E-01   -2.1967740696E-01   -2.2775173115E-01   -2.3418653513E-01
   -2.3903065559E-01   -2.4234017006E-01   -2.4417798388E-01   -2.4461337706E-01
   -2.4372151622E-01   -2.4158293713E-01   -2.3828300367E-01   -2.3391134831E-01
   -2.2856130942E-01   -2.2232919947E-01   -2.1531296485E-01   -2.0761098544E-01
   -1.9932128697E-01   -1.9054077850E-01   -1.8136452573E-01   -1.7188506293E-01
   -1.6219174877E-01   -1.5237017104E-01   -1.4250160498E-01   -1.3266252887E-01
   -1.2292420048E-01   -1.1335229691E-01   -1.0400661991E-01   -9.4940867988E-02
   -8.6202476007E-02   -7.7832521975E-02   -6.9865700382E-02   -6.2330360450E-02
   -5.5248607072E-02   -4.8636461534E-02   -4.2504078493E-02   -3.6856015058E-02
   -3.1691547314E-02   -2.7005029123E-02   -2.2786287615E-02   -1.9021049432E-02
   -1.5691391488E-02   -1.2776209807E-02   -1.0251701201E-02   -8.0918395519E-03
   -6.2688837559E-03   -4.7538247780E-03   -3.5159511957E-03   -2.5210445031E-03
   -1.7398842180E-03   -1.1449948668E-03   -7.0905108431E-04   -4.0554671281E-04
   -2.0908378259E-04   -9.4991381399E-05   -4.2148546431E-05   -2.8045721702E-05
   -4.3615686532E-06    1.9155304972E-06   -5.5213533080E-07    6.9527288444E-08
 0. 0. 0. 0.
 0. 0. 0. 0.
 0. 0. 0. 0.
 0. 0. 0. 0.
 0. 0. 0. 0.
 0. 0. 0. 0.
 0. 0. 0. 0.
 0. 0. 0. 0.
 0. 0. 0. 0.
 0. 0. 0. 0.
 0. 0. 0. 0.
 0. 0. 0. 0.
 0. 0. 0. 0.
 0. 0. 0. 0.
 0. 0. 0. 0.
 0. 0. 0. 0.
 0. 0. 0. 0.
 0. 0. 0. 0.
 0. 0. 0. 0.
 0. 0. 0. 0.
 0. 0. 0. 0.
 0. 0. 0. 0.
 0. 0. 0. 0.
 0. 0. 0. 0.
 0. 0. 0. 0.
 0. 0. 0. 0.
 0. 0. 0. 0.
 0. 0. 0. 0.
 0. 0. 0. 0.
 0. 0. 0. 0.
 0. 0. 0. 0.
 0. 0. 0. 0.
 0. 0. 0. 0.
 0. 0. 0. 0.
 0. 0. 0. 0.
 0. 0. 0. 0.
 0. 0. 0. 0.
 0. 0. 0. 0.
 0. 0. 0. 0.
 0. 0. 0. 0.
 0. 0. 0. 0.
 0. 0. 0. 0.
 0. 0. 0. 0.
 0. 0. 0. 0.
 0. 0. 0. 0.
 0. 0. 0. 0.
 0. 0. 0. 0.
 0. 0. 0. 0.
 0. 0. 0. 0.
 0. 0. 0. 0.
 0. 0. 0. 0.
 0. 0. 0. 0.
 0. 0. 0. 0.
 0. 0. 0. 0.
 0. 0. 0. 0.
 0. 0. 0. 0.
 0. 0. 0. 0.
 0. 0. 0. 0.
 0. 0. 0. 0.
 0. 0. 0. 0.
 0. 0. 0. 0.
 0. 0. 0. 0.
 0. 0. 0. 0.
 0. 0. 0. 0.
 0. 0. 0. 0.
 0. 0. 0. 0.
 0. 0. 0. 0.
 0. 0. 0. 0.
 0. 0. 0. 0.
 0. 0. 0. 0.
 0. 0. 0. 0.
 0. 0. 0. 0.
 0. 0. 0. 0.
 0. 0. 0. 0.
 0. 0. 0. 0.
 0. 0. 0. 0.
 0. 0. 0. 0.
 0. 0. 0. 0.
 0. 0. 0. 0.
 0. 0. 0. 0.
 0. 0. 0. 0.
 0. 0. 0. 0.
 0. 0. 0. 0.
 0. 0. 0. 0.
 0. 0. 0. 0.
 0. 0. 0. 0.
 0. 0. 0. 0.
 0. 0. 0. 0.
 0. 0. 0. 0.
 0. 0. 0. 0.
 0. 0. 0. 0.
 0. 0. 0. 0.
 0. 0. 0. 0.
 0. 0. 0. 0.
 0. 0. 0. 0.
 0. 0. 0. 0.
 0. 0. 0. 0.
 0. 0. 0. 0.
 0. 0. 0. 0.
 0. 0. 0. 0.
 0. 0. 0. 0.
 0. 0. 0. 0.
 0. 0. 0. 0.
 0. 0. 0. 0.
 0. 0. 0. 0.
 0. 0. 0. 0.
 0. 0. 0. 0.
 0. 0. 0. 0.
 0. 0. 0. 0.
 0. 0. 0. 0.
 0. 0. 0. 0.
 0. 0. 0. 0.
 0. 0. 0. 0.
 0. 0. 0. 0.
 0. 0. 0. 0.
 0. 0. 0. 0.
 0. 0. 0. 0.
 0. 0. 0. 0.
 0. 0. 0. 0.
 0. 0. 0. 0.
 0. 0. 0. 0.
 0. 0. 0. 0.
 0. 0. 0. 0.
 0. 0. 0. 0.
 0. 0. 0. 0.
 0. 0. 0. 0.
 0. 0. 0. 0.
 0. 0. 0. 0.
 0. 0. 0. 0.
 0. 0. 0. 0.
 0. 0. 0. 0.
 0. 0. 0. 0.
 0. 0. 0. 0.
 0. 0. 0. 0.
 0. 0. 0. 0.
 0. 0. 0. 0.
 0. 0. 0. 0.
 0. 0. 0. 0.
 0. 0. 0. 0.
 0. 0. 0. 0.
 0. 0. 0. 0.
 0. 0. 0. 0.
 0. 0. 0. 0.
 0. 0. 0. 0.
 0. 0. 0. 0.
 0. 0. 0. 0.
 0. 0. 0. 0.
 0. 0. 0. 0.
 0. 0. 0. 0.
 0. 0. 0. 0.
 0. 0. 0. 0.
 0. 0. 0. 0.
 0. 0. 0. 0.
 0. 0. 0. 0.
 0. 0. 0. 0.
 0. 0. 0. 0.
 0. 0. 0. 0.
 0. 0. 0. 0.
 0. 0. 0. 0.
 0. 0. 0. 0.
 0. 0. 0. 0.
 0. 0. 0. 0.
 0. 0. 0. 0.
 0. 0. 0. 0.
 0. 0. 0. 0.
 0. 0. 0. 0.
 0. 0. 0. 0.
 0. 0. 0. 0.
 0. 0. 0. 0.
 0. 0. 0. 0.
 0. 0. 0. 0.
 0. 0. 0. 0.
 0. 0. 0. 0.
 0. 0. 0. 0.
 0. 0. 0. 0.
 0. 0. 0. 0.
 0. 0. 0. 0.
 0. 0. 0. 0.
 0. 0. 0. 0.
 0. 0. 0. 0.
 0. 0. 0. 0.
 0. 0. 0. 0.
 0. 0. 0. 0.
 0. 0. 0. 0.
 0. 0. 0. 0.
 0. 0. 0. 0.
 0. 0. 0. 0.
 0. 0. 0. 0.
 0. 0. 0. 0.
 0. 0. 0. 0.
 0. 0. 0. 0.
 0. 0. 0. 0.
 0. 0. 0. 0.
 0. 0. 0. 0.
 0. 0. 0. 0.
 0. 0. 0. 0.
 0. 0. 0. 0.
 0. 0. 0. 0.
 0. 0. 0. 0.
 0. 0. 0. 0.
 0. 0. 0. 0.
 0. 0. 0. 0.
 0. 0. 0. 0.
 0. 0. 0. 0.
 0. 0. 0. 0.
 0. 0. 0. 0.
 0. 0. 0. 0.
 0. 0. 0. 0.
 0. 0. 0. 0.
 0. 0. 0. 0.
 0. 0. 0. 0.
 0. 0. 0. 0.
 0. 0. 0. 0.
 0. 0. 0. 0.
 0. 0. 0. 0.
 0. 0. 0. 0.
 0. 0. 0. 0.
 0. 0. 0. 0.
 0. 0. 0. 0.
 0. 0. 0. 0.
 0. 0. 0. 0.
 0. 0. 0. 0.
 0. 0. 0. 0.
 0. 0. 0. 0.
 0. 0. 0. 0.
 0. 0. 0. 0.
 0. 0. 0. 0.
 0. 0. 0. 0.
 0. 0. 0. 0.
 0. 0. 0. 0.
 0. 0. 0. 0.
 0. 0. 0. 0.
 0. 0. 0. 0.
 0. 0. 0. 0.
 0. 0. 0. 0.
 0. 0. 0. 0.
 0. 0. 0. 0.
 0. 0. 0. 0.
 0. 0. 0. 0.
 0. 0. 0. 0.
 0. 0. 0. 0.
 0. 0. 0. 0.
 0. 0. 0. 0.
 0. 0. 0. 0.
 0. 0. 0. 0.
 0. 0. 0. 0.
 0. 0. 0. 0.
 0. 0. 0. 0.
 0. 0. 0. 0.
 0. 0. 0. 0.
 0. 0. 0. 0.
 0. 0. 0. 0.
 0. 0. 0. 0.
 0. 0. 0. 0.
 0. 0. 0. 0.
 0. 0. 0. 0.
 0. 0. 0. 0.
 0. 0. 0. 0.
 0. 0. 0. 0.
 0. 0. 0. 0.
 0. 0. 0. 0.
 0. 0. 0. 0.
 0. 0. 0. 0.
 0. 0. 0. 0.
 0. 0. 0. 0.
 0. 0. 0. 0.
 0. 0. 0. 0.
 0. 0. 0. 0.
 0. 0. 0. 0.
 0. 0. 0. 0.
 0. 0. 0. 0.
 0. 0. 0. 0.
 0. 0. 0. 0.
 0. 0. 0. 0.
 0. 0. 0. 0.
 0. 0. 0. 0.
 0. 0. 0. 0.
 0. 0. 0. 0.
 0. 0. 0. 0.
 0. 0. 0. 0.
 0. 0. 0. 0.
 0. 0. 0. 0.
 0. 0. 0. 0.
 0. 0. 0. 0.
 0. 0. 0. 0.
 0. 0. 0. 0.
 0. 0. 0. 0.
 0. 0. 0. 0.
 0. 0. 0. 0.
 0. 0. 0. 0.
 0. 0. 0. 0.
 0. 0. 0. 0.
 0. 0. 0. 0.
 0. 0. 0. 0.
 0. 0. 0. 0.
 0. 0. 0. 0.
 0. 0. 0. 0.
 0. 0. 0. 0.
 0. 0. 0. 0.
 0. 0. 0. 0.
 0. 0. 0. 0.
 0. 0. 0. 0.
 0. 0. 0. 0.
 0. 0. 0. 0.
 0. 0. 0. 0.
 0. 0. 0. 0.
 0. 0. 0. 0.
 0. 0. 0. 0.
 0. 0. 0. 0.
 0. 0. 0. 0.
 0. 0. 0. 0.
 0. 0. 0. 0.
 0. 0. 0. 0.
 0. 0. 0. 0.
 0. 0. 0. 0.
 0. 0. 0. 0.
 0. 0. 0. 0.
 0. 0. 0. 0.
 0. 0. 0. 0.
 0. 0. 0. 0.
 0. 0. 0. 0.
 0. 0. 0. 0.
 0. 0. 0. 0.
 0. 0. 0. 0.
 0. 0. 0. 0.
 0. 0. 0. 0.
 0. 0. 0. 0.
 0. 0. 0. 0.
 0. 0. 0. 0.
 0. 0. 0. 0.
 0. 0. 0. 0.
 0. 0. 0. 0.
 0. 0. 0. 0.
 0. 0. 0. 0.
 0. 0.
   </PP_BETA.3>
   <PP_BETA.4
       type="real"
       size="1534"
       columns="4"
       index="4"
       angular_momentum="1"
       cutoff_radius_index=" 196"
       cutoff_radius="    1.9500000000E+00" >
   -4.2929315658E-10    2.4847573235E-04    9.9560344037E-04    2.2464628615E-03
    4.0094478095E-03    6.2961583764E-03    9.1212516553E-03    1.2502252601E-02
    1.6459327073E-02    2.1015019518E-02    2.6193958113E-02    3.2022530545E-02
    3.8528533911E-02    4.5740802474E-02    5.3688817255E-02    6.2402301600E-02
    7.1910807005E-02    8.2243293545E-02    9.3427709310E-02    1.0549057320E-01
    1.1845656540E-01    1.3234812970E-01    1.4718509170E-01    1.6298429666E-01
    1.7975927073E-01    1.9751990855E-01    2.1627219050E-01    2.3601793197E-01
    2.5675456702E-01    2.7847496821E-01    3.0116730405E-01    3.2481493503E-01
    3.4939634891E-01    3.7488513526E-01    4.0124999913E-01    4.2845481310E-01
    4.5645870651E-01    4.8521619073E-01    5.1467731826E-01    5.4478787385E-01
    5.7548959508E-01    6.0672041976E-01    6.3841475720E-01    6.7050378044E-01
    7.0291573611E-01    7.3557626876E-01    7.6840875617E-01    8.0133465256E-01
    8.3427383625E-01    8.6714495863E-01    8.9986579141E-01    9.3235356922E-01
    9.6452532487E-01    9.9629821481E-01    1.0275898325E+00    1.0583185081E+00
    1.0884035919E+00    1.1177657218E+00    1.1463270716E+00    1.1740115824E+00
    1.2007451730E+00    1.2264559328E+00    1.2510742955E+00    1.2745331944E+00
    1.2967682005E+00    1.3177176443E+00    1.3373227226E+00    1.3555275919E+00
    1.3722794495E+00    1.3875286051E+00    1.4012285435E+00    1.4133359812E+00
    1.4238109184E+00    1.4326166878E+00    1.4397200037E+00    1.4450910100E+00
    1.4487033315E+00    1.4505341286E+00    1.4505641561E+00    1.4487778271E+00
    1.4451632841E+00    1.4397124745E+00    1.4324212341E+00    1.4232893750E+00
    1.4123207799E+00    1.3995234999E+00    1.3849098563E+00    1.3684965427E+00
    1.3503047282E+00    1.3303601578E+00    1.3086932481E+00    1.2853391763E+00
    1.2603379595E+00    1.2337345221E+00    1.2055787476E+00    1.1759255128E+00
    1.1448347014E+00    1.1123711942E+00    1.0786048330E+00    1.0436103565E+00
    1.0074673053E+00    9.7025989407E-01    9.3207684959E-01    8.9301121318E-01
    8.5316010615E-01    8.1262445823E-01    7.7150869844E-01    7.2992040897E-01
    6.8796994270E-01    6.4577000554E-01    6.0343520547E-01    5.6108157035E-01
    5.1882603715E-01    4.7678591573E-01    4.3507833060E-01    3.9381964469E-01
    3.5312486915E-01    3.1310706404E-01    2.7387673433E-01    2.3554122666E-01
    1.9820413165E-01    1.6196469730E-01    1.2691725868E-01    9.3150689108E-02
    6.0747878130E-02    2.9785241206E-02    3.3226592619E-04   -2.7548900766E-02
   -5.3803820185E-02   -7.8386080624E-02   -1.0125756391E-01   -1.2238865700E-01
   -1.4175840645E-01   -1.5935461403E-01   -1.7517387263E-01   -1.8922154185E-01
   -2.0151166376E-01   -2.1206681966E-01   -2.2091792944E-01   -2.2810399578E-01
   -2.3367179608E-01   -2.3767552558E-01   -2.4017639576E-01   -2.4124219246E-01
   -2.4094679901E-01   -2.3936968960E-01   -2.3659539902E-01   -2.3271297341E-01
   -2.2781541817E-01   -2.2199896707E-01   -2.1536170791E-01   -2.0800235253E-01
   -2.0001944037E-01   -1.9151056666E-01   -1.8257164636E-01   -1.7329621631E-01
   -1.6377478089E-01   -1.5409420630E-01   -1.4433716796E-01   -1.3458165497E-01
   -1.2490053492E-01   -1.1536118193E-01   -1.0602516974E-01   -9.6948031399E-02
   -8.8179086066E-02   -7.9761332925E-02   -7.1731411379E-02   -6.4119626035E-02
   -5.6950034301E-02   -5.0240593713E-02   -4.4003365539E-02   -3.8244770563E-02
   -3.2965892442E-02   -2.8162823542E-02   -2.3827047739E-02   -1.9945854288E-02
   -1.6502776632E-02   -1.3478049743E-02   -1.0849080948E-02   -8.5909151896E-03
   -6.6767351254E-03   -5.0782971243E-03   -3.7654209034E-03   -2.7040042417E-03
   -1.8651356061E-03   -1.2215650124E-03   -7.4595805944E-04   -4.1158802032E-04
   -1.9255453527E-04   -6.4104655030E-05   -2.3737041696E-06    1.4550791590E-05
    2.6900484970E-06   -1.2856953074E-06    3.6743162150E-07   -3.7076272052E-08
 0. 0. 0. 0.
 0. 0. 0. 0.
 0. 0. 0. 0.
 0. 0. 0. 0.
 0. 0. 0. 0.
 0. 0. 0. 0.
 0. 0. 0. 0.
 0. 0. 0. 0.
 0. 0. 0. 0.
 0. 0. 0. 0.
 0. 0. 0. 0.
 0. 0. 0. 0.
 0. 0. 0. 0.
 0. 0. 0. 0.
 0. 0. 0. 0.
 0. 0. 0. 0.
 0. 0. 0. 0.
 0. 0. 0. 0.
 0. 0. 0. 0.
 0. 0. 0. 0.
 0. 0. 0. 0.
 0. 0. 0. 0.
 0. 0. 0. 0.
 0. 0. 0. 0.
 0. 0. 0. 0.
 0. 0. 0. 0.
 0. 0. 0. 0.
 0. 0. 0. 0.
 0. 0. 0. 0.
 0. 0. 0. 0.
 0. 0. 0. 0.
 0. 0. 0. 0.
 0. 0. 0. 0.
 0. 0. 0. 0.
 0. 0. 0. 0.
 0. 0. 0. 0.
 0. 0. 0. 0.
 0. 0. 0. 0.
 0. 0. 0. 0.
 0. 0. 0. 0.
 0. 0. 0. 0.
 0. 0. 0. 0.
 0. 0. 0. 0.
 0. 0. 0. 0.
 0. 0. 0. 0.
 0. 0. 0. 0.
 0. 0. 0. 0.
 0. 0. 0. 0.
 0. 0. 0. 0.
 0. 0. 0. 0.
 0. 0. 0. 0.
 0. 0. 0. 0.
 0. 0. 0. 0.
 0. 0. 0. 0.
 0. 0. 0. 0.
 0. 0. 0. 0.
 0. 0. 0. 0.
 0. 0. 0. 0.
 0. 0. 0. 0.
 0. 0. 0. 0.
 0. 0. 0. 0.
 0. 0. 0. 0.
 0. 0. 0. 0.
 0. 0. 0. 0.
 0. 0. 0. 0.
 0. 0. 0. 0.
 0. 0. 0. 0.
 0. 0. 0. 0.
 0. 0. 0. 0.
 0. 0. 0. 0.
 0. 0. 0. 0.
 0. 0. 0. 0.
 0. 0. 0. 0.
 0. 0. 0. 0.
 0. 0. 0. 0.
 0. 0. 0. 0.
 0. 0. 0. 0.
 0. 0. 0. 0.
 0. 0. 0. 0.
 0. 0. 0. 0.
 0. 0. 0. 0.
 0. 0. 0. 0.
 0. 0. 0. 0.
 0. 0. 0. 0.
 0. 0. 0. 0.
 0. 0. 0. 0.
 0. 0. 0. 0.
 0. 0. 0. 0.
 0. 0. 0. 0.
 0. 0. 0. 0.
 0. 0. 0. 0.
 0. 0. 0. 0.
 0. 0. 0. 0.
 0. 0. 0. 0.
 0. 0. 0. 0.
 0. 0. 0. 0.
 0. 0. 0. 0.
 0. 0. 0. 0.
 0. 0. 0. 0.
 0. 0. 0. 0.
 0. 0. 0. 0.
 0. 0. 0. 0.
 0. 0. 0. 0.
 0. 0. 0. 0.
 0. 0. 0. 0.
 0. 0. 0. 0.
 0. 0. 0. 0.
 0. 0. 0. 0.
 0. 0. 0. 0.
 0. 0. 0. 0.
 0. 0. 0. 0.
 0. 0. 0. 0.
 0. 0. 0. 0.
 0. 0. 0. 0.
 0. 0. 0. 0.
 0. 0. 0. 0.
 0. 0. 0. 0.
 0. 0. 0. 0.
 0. 0. 0. 0.
 0. 0. 0. 0.
 0. 0. 0. 0.
 0. 0. 0. 0.
 0. 0. 0. 0.
 0. 0. 0. 0.
 0. 0. 0. 0.
 0. 0. 0. 0.
 0. 0. 0. 0.
 0. 0. 0. 0.
 0. 0. 0. 0.
 0. 0. 0. 0.
 0. 0. 0. 0.
 0. 0. 0. 0.
 0. 0. 0. 0.
 0. 0. 0. 0.
 0. 0. 0. 0.
 0. 0. 0. 0.
 0. 0. 0. 0.
 0. 0. 0. 0.
 0. 0. 0. 0.
 0. 0. 0. 0.
 0. 0. 0. 0.
 0. 0. 0. 0.
 0. 0. 0. 0.
 0. 0. 0. 0.
 0. 0. 0. 0.
 0. 0. 0. 0.
 0. 0. 0. 0.
 0. 0. 0. 0.
 0. 0. 0. 0.
 0. 0. 0. 0.
 0. 0. 0. 0.
 0. 0. 0. 0.
 0. 0. 0. 0.
 0. 0. 0. 0.
 0. 0. 0. 0.
 0. 0. 0. 0.
 0. 0. 0. 0.
 0. 0. 0. 0.
 0. 0. 0. 0.
 0. 0. 0. 0.
 0. 0. 0. 0.
 0. 0. 0. 0.
 0. 0. 0. 0.
 0. 0. 0. 0.
 0. 0. 0. 0.
 0. 0. 0. 0.
 0. 0. 0. 0.
 0. 0. 0. 0.
 0. 0. 0. 0.
 0. 0. 0. 0.
 0. 0. 0. 0.
 0. 0. 0. 0.
 0. 0. 0. 0.
 0. 0. 0. 0.
 0. 0. 0. 0.
 0. 0. 0. 0.
 0. 0. 0. 0.
 0. 0. 0. 0.
 0. 0. 0. 0.
 0. 0. 0. 0.
 0. 0. 0. 0.
 0. 0. 0. 0.
 0. 0. 0. 0.
 0. 0. 0. 0.
 0. 0. 0. 0.
 0. 0. 0. 0.
 0. 0. 0. 0.
 0. 0. 0. 0.
 0. 0. 0. 0.
 0. 0. 0. 0.
 0. 0. 0. 0.
 0. 0. 0. 0.
 0. 0. 0. 0.
 0. 0. 0. 0.
 0. 0. 0. 0.
 0. 0. 0. 0.
 0. 0. 0. 0.
 0. 0. 0. 0.
 0. 0. 0. 0.
 0. 0. 0. 0.
 0. 0. 0. 0.
 0. 0. 0. 0.
 0. 0. 0. 0.
 0. 0. 0. 0.
 0. 0. 0. 0.
 0. 0. 0. 0.
 0. 0. 0. 0.
 0. 0. 0. 0.
 0. 0. 0. 0.
 0. 0. 0. 0.
 0. 0. 0. 0.
 0. 0. 0. 0.
 0. 0. 0. 0.
 0. 0. 0. 0.
 0. 0. 0. 0.
 0. 0. 0. 0.
 0. 0. 0. 0.
 0. 0. 0. 0.
 0. 0. 0. 0.
 0. 0. 0. 0.
 0. 0. 0. 0.
 0. 0. 0. 0.
 0. 0. 0. 0.
 0. 0. 0. 0.
 0. 0. 0. 0.
 0. 0. 0. 0.
 0. 0. 0. 0.
 0. 0. 0. 0.
 0. 0. 0. 0.
 0. 0. 0. 0.
 0. 0. 0. 0.
 0. 0. 0. 0.
 0. 0. 0. 0.
 0. 0. 0. 0.
 0. 0. 0. 0.
 0. 0. 0. 0.
 0. 0. 0. 0.
 0. 0. 0. 0.
 0. 0. 0. 0.
 0. 0. 0. 0.
 0. 0. 0. 0.
 0. 0. 0. 0.
 0. 0. 0. 0.
 0. 0. 0. 0.
 0. 0. 0. 0.
 0. 0. 0. 0.
 0. 0. 0. 0.
 0. 0. 0. 0.
 0. 0. 0. 0.
 0. 0. 0. 0.
 0. 0. 0. 0.
 0. 0. 0. 0.
 0. 0. 0. 0.
 0. 0. 0. 0.
 0. 0. 0. 0.
 0. 0. 0. 0.
 0. 0. 0. 0.
 0. 0. 0. 0.
 0. 0. 0. 0.
 0. 0. 0. 0.
 0. 0. 0. 0.
 0. 0. 0. 0.
 0. 0. 0. 0.
 0. 0. 0. 0.
 0. 0. 0. 0.
 0. 0. 0. 0.
 0. 0. 0. 0.
 0. 0. 0. 0.
 0. 0. 0. 0.
 0. 0. 0. 0.
 0. 0. 0. 0.
 0. 0. 0. 0.
 0. 0. 0. 0.
 0. 0. 0. 0.
 0. 0. 0. 0.
 0. 0. 0. 0.
 0. 0. 0. 0.
 0. 0. 0. 0.
 0. 0. 0. 0.
 0. 0. 0. 0.
 0. 0. 0. 0.
 0. 0. 0. 0.
 0. 0. 0. 0.
 0. 0. 0. 0.
 0. 0. 0. 0.
 0. 0. 0. 0.
 0. 0. 0. 0.
 0. 0. 0. 0.
 0. 0. 0. 0.
 0. 0. 0. 0.
 0. 0. 0. 0.
 0. 0. 0. 0.
 0. 0. 0. 0.
 0. 0. 0. 0.
 0. 0. 0. 0.
 0. 0. 0. 0.
 0. 0. 0. 0.
 0. 0. 0. 0.
 0. 0. 0. 0.
 0. 0. 0. 0.
 0. 0. 0. 0.
 0. 0. 0. 0.
 0. 0. 0. 0.
 0. 0. 0. 0.
 0. 0. 0. 0.
 0. 0. 0. 0.
 0. 0. 0. 0.
 0. 0. 0. 0.
 0. 0. 0. 0.
 0. 0. 0. 0.
 0. 0. 0. 0.
 0. 0. 0. 0.
 0. 0. 0. 0.
 0. 0. 0. 0.
 0. 0. 0. 0.
 0. 0. 0. 0.
 0. 0. 0. 0.
 0. 0. 0. 0.
 0. 0. 0. 0.
 0. 0. 0. 0.
 0. 0. 0. 0.
 0. 0. 0. 0.
 0. 0. 0. 0.
 0. 0. 0. 0.
 0. 0. 0. 0.
 0. 0. 0. 0.
 0. 0. 0. 0.
 0. 0. 0. 0.
 0. 0. 0. 0.
 0. 0. 0. 0.
 0. 0. 0. 0.
 0. 0. 0. 0.
 0. 0. 0. 0.
 0. 0. 0. 0.
 0. 0.
   </PP_BETA.4>
   <PP_BETA.5
       type="real"
       size="1534"
       columns="4"
       index="5"
       angular_momentum="1"
       cutoff_radius_index=" 196"
       cutoff_radius="    1.9500000000E+00" >
    2.5315260721E-09    8.0820915448E-04    3.2231299983E-03    7.2157556855E-03
    1.2738116771E-02    1.9723839237E-02    2.8088915959E-02    3.7732681991E-02
    4.8538981517E-02    6.0377511952E-02    7.3105328492E-02    8.6568490442E-02
    1.0060382894E-01    1.1504081427E-01    1.2970349969E-01    1.4441251803E-01
    1.5898710656E-01    1.7324713543E-01    1.8701511528E-01    2.0011815974E-01
    2.1238987933E-01    2.2367218456E-01    2.3381697688E-01    2.4268770816E-01
    2.5016079085E-01    2.5612684339E-01    2.6049175731E-01    2.6317757523E-01
    2.6412317122E-01    2.6328472792E-01    2.6063600731E-01    2.5616841491E-01
    2.4989085972E-01    2.4182941519E-01    2.3202678881E-01    2.2054161054E-01
    2.0744755259E-01    1.9283229512E-01    1.7679635448E-01    1.5945179211E-01
    1.4092082372E-01    1.2133434958E-01    1.0083042729E-01    7.9552709323E-02
    5.7648867315E-02    3.5269025497E-02    1.2564224764E-02   -1.0315061617E-02
   -3.3220340819E-02   -5.6006423258E-02   -7.8532638485E-02   -1.0066392910E-01
   -1.2227180972E-01   -1.4323518020E-01   -1.6344098491E-01   -1.8278471213E-01
   -2.0117073044E-01   -2.1851246165E-01   -2.3473239218E-01   -2.4976192792E-01
   -2.6354109963E-01   -2.7601812876E-01   -2.8714886567E-01   -2.9689611437E-01
   -3.0522885985E-01   -3.1212141565E-01   -3.1755251063E-01   -3.2150433520E-01
   -3.2396156777E-01   -3.2491040277E-01   -3.2433760161E-01   -3.2222958783E-01
   -3.1857160685E-01   -3.1334697017E-01   -3.0653640227E-01   -2.9811750703E-01
   -2.8806436881E-01   -2.7634730088E-01   -2.6293275183E-01   -2.4778337780E-01
   -2.3085828582E-01   -2.1211345056E-01   -1.9150230383E-01   -1.6897649333E-01
   -1.4448680380E-01   -1.1798423124E-01   -8.9421197493E-02   -5.8752889982E-02
   -2.5938708931E-02    9.0561982811E-03    4.6259337841E-02    8.5689229430E-02
    1.2735375097E-01    1.7124849497E-01    2.1735516401E-01    2.6564003329E-01
    3.1605250820E-01    3.6852380443E-01    4.2296577717E-01    4.7926992499E-01
    5.3730659208E-01    5.9692439061E-01    6.5794986259E-01    7.2018739793E-01
    7.8341942225E-01    8.4740686479E-01    9.1188991337E-01    9.7658905936E-01
    1.0412064321E+00    1.1054274183E+00    1.1689225575E+00    1.2313497017E+00
    1.2923564229E+00    1.3515826480E+00    1.4086634984E+00    1.4632323076E+00
    1.5149237867E+00    1.5633773059E+00    1.6082402579E+00    1.6491714657E+00
    1.6858445990E+00    1.7179515583E+00    1.7452057898E+00    1.7673454909E+00
    1.7841366682E+00    1.7953760110E+00    1.8008935451E+00    1.8005550319E+00
    1.7942640846E+00    1.7819639708E+00    1.7636390797E+00    1.7393160320E+00
    1.7090644167E+00    1.6729971427E+00    1.6312703994E+00    1.5840832217E+00
    1.5316766652E+00    1.4743325963E+00    1.4123721127E+00    1.3461536099E+00
    1.2760705178E+00    1.2025487333E+00    1.1260437810E+00    1.0470377369E+00
    9.6603595388E-01    8.8356363129E-01    8.0016227343E-01    7.1638606602E-01
    6.3279835228E-01    5.4996574313E-01    4.6844399157E-01    3.8876714848E-01
    3.1144308895E-01    2.3694924474E-01    1.6572867021E-01    9.8186431626E-02
    3.4686358283E-02   -2.4451807773E-02   -7.8954831688E-02   -1.2859794834E-01
   -1.7320634503E-01   -2.1265614700E-01   -2.4687489412E-01   -2.7584150235E-01
   -2.9958570934E-01   -3.1818700962E-01   -3.3177309000E-01   -3.4051778198E-01
   -3.4463855314E-01   -3.4439356498E-01   -3.4007832945E-01   -3.3202200123E-01
   -3.2058334700E-01   -3.0614643672E-01   -2.8911610506E-01   -2.6991323419E-01
   -2.4896991081E-01   -2.2672451231E-01   -2.0361676824E-01   -1.8008293241E-01
   -1.5655082342E-01   -1.3343537239E-01   -1.1114030780E-01   -9.0069655437E-02
   -7.0568333636E-02   -5.2943053375E-02   -3.7472411291E-02   -2.4401766349E-02
   -1.3944231826E-02   -6.2533174507E-03   -1.5118120341E-03    2.1880491534E-04
    8.2884002832E-05   -4.2564887187E-05    1.0659200084E-05   -6.4877738824E-07
 0. 0. 0. 0.
 0. 0. 0. 0.
 0. 0. 0. 0.
 0. 0. 0. 0.
 0. 0. 0. 0.
 0. 0. 0. 0.
 0. 0. 0. 0.
 0. 0. 0. 0.
 0. 0. 0. 0.
 0. 0. 0. 0.
 0. 0. 0. 0.
 0. 0. 0. 0.
 0. 0. 0. 0.
 0. 0. 0. 0.
 0. 0. 0. 0.
 0. 0. 0. 0.
 0. 0. 0. 0.
 0. 0. 0. 0.
 0. 0. 0. 0.
 0. 0. 0. 0.
 0. 0. 0. 0.
 0. 0. 0. 0.
 0. 0. 0. 0.
 0. 0. 0. 0.
 0. 0. 0. 0.
 0. 0. 0. 0.
 0. 0. 0. 0.
 0. 0. 0. 0.
 0. 0. 0. 0.
 0. 0. 0. 0.
 0. 0. 0. 0.
 0. 0. 0. 0.
 0. 0. 0. 0.
 0. 0. 0. 0.
 0. 0. 0. 0.
 0. 0. 0. 0.
 0. 0. 0. 0.
 0. 0. 0. 0.
 0. 0. 0. 0.
 0. 0. 0. 0.
 0. 0. 0. 0.
 0. 0. 0. 0.
 0. 0. 0. 0.
 0. 0. 0. 0.
 0. 0. 0. 0.
 0. 0. 0. 0.
 0. 0. 0. 0.
 0. 0. 0. 0.
 0. 0. 0. 0.
 0. 0. 0. 0.
 0. 0. 0. 0.
 0. 0. 0. 0.
 0. 0. 0. 0.
 0. 0. 0. 0.
 0. 0. 0. 0.
 0. 0. 0. 0.
 0. 0. 0. 0.
 0. 0. 0. 0.
 0. 0. 0. 0.
 0. 0. 0. 0.
 0. 0. 0. 0.
 0. 0. 0. 0.
 0. 0. 0. 0.
 0. 0. 0. 0.
 0. 0. 0. 0.
 0. 0. 0. 0.
 0. 0. 0. 0.
 0. 0. 0. 0.
 0. 0. 0. 0.
 0. 0. 0. 0.
 0. 0. 0. 0.
 0. 0. 0. 0.
 0. 0. 0. 0.
 0. 0. 0. 0.
 0. 0. 0. 0.
 0. 0. 0. 0.
 0. 0. 0. 0.
 0. 0. 0. 0.
 0. 0. 0. 0.
 0. 0. 0. 0.
 0. 0. 0. 0.
 0. 0. 0. 0.
 0. 0. 0. 0.
 0. 0. 0. 0.
 0. 0. 0. 0.
 0. 0. 0. 0.
 0. 0. 0. 0.
 0. 0. 0. 0.
 0. 0. 0. 0.
 0. 0. 0. 0.
 0. 0. 0. 0.
 0. 0. 0. 0.
 0. 0. 0. 0.
 0. 0. 0. 0.
 0. 0. 0. 0.
 0. 0. 0. 0.
 0. 0. 0. 0.
 0. 0. 0. 0.
 0. 0. 0. 0.
 0. 0. 0. 0.
 0. 0. 0. 0.
 0. 0. 0. 0.
 0. 0. 0. 0.
 0. 0. 0. 0.
 0. 0. 0. 0.
 0. 0. 0. 0.
 0. 0. 0. 0.
 0. 0. 0. 0.
 0. 0. 0. 0.
 0. 0. 0. 0.
 0. 0. 0. 0.
 0. 0. 0. 0.
 0. 0. 0. 0.
 0. 0. 0. 0.
 0. 0. 0. 0.
 0. 0. 0. 0.
 0. 0. 0. 0.
 0. 0. 0. 0.
 0. 0. 0. 0.
 0. 0. 0. 0.
 0. 0. 0. 0.
 0. 0. 0. 0.
 0. 0. 0. 0.
 0. 0. 0. 0.
 0. 0. 0. 0.
 0. 0. 0. 0.
 0. 0. 0. 0.
 0. 0. 0. 0.
 0. 0. 0. 0.
 0. 0. 0. 0.
 0. 0. 0. 0.
 0. 0. 0. 0.
 0. 0. 0. 0.
 0. 0. 0. 0.
 0. 0. 0. 0.
 0. 0. 0. 0.
 0. 0. 0. 0.
 0. 0. 0. 0.
 0. 0. 0. 0.
 0. 0. 0. 0.
 0. 0. 0. 0.
 0. 0. 0. 0.
 0. 0. 0. 0.
 0. 0. 0. 0.
 0. 0. 0. 0.
 0. 0. 0. 0.
 0. 0. 0. 0.
 0. 0. 0. 0.
 0. 0. 0. 0.
 0. 0. 0. 0.
 0. 0. 0. 0.
 0. 0. 0. 0.
 0. 0. 0. 0.
 0. 0. 0. 0.
 0. 0. 0. 0.
 0. 0. 0. 0.
 0. 0. 0. 0.
 0. 0. 0. 0.
 0. 0. 0. 0.
 0. 0. 0. 0.
 0. 0. 0. 0.
 0. 0. 0. 0.
 0. 0. 0. 0.
 0. 0. 0. 0.
 0. 0. 0. 0.
 0. 0. 0. 0.
 0. 0. 0. 0.
 0. 0. 0. 0.
 0. 0. 0. 0.
 0. 0. 0. 0.
 0. 0. 0. 0.
 0. 0. 0. 0.
 0. 0. 0. 0.
 0. 0. 0. 0.
 0. 0. 0. 0.
 0. 0. 0. 0.
 0. 0. 0. 0.
 0. 0. 0. 0.
 0. 0. 0. 0.
 0. 0. 0. 0.
 0. 0. 0. 0.
 0. 0. 0. 0.
 0. 0. 0. 0.
 0. 0. 0. 0.
 0. 0. 0. 0.
 0. 0. 0. 0.
 0. 0. 0. 0.
 0. 0. 0. 0.
 0. 0. 0. 0.
 0. 0. 0. 0.
 0. 0. 0. 0.
 0. 0. 0. 0.
 0. 0. 0. 0.
 0. 0. 0. 0.
 0. 0. 0. 0.
 0. 0. 0. 0.
 0. 0. 0. 0.
 0. 0. 0. 0.
 0. 0. 0. 0.
 0. 0. 0. 0.
 0. 0. 0. 0.
 0. 0. 0. 0.
 0. 0. 0. 0.
 0. 0. 0. 0.
 0. 0. 0. 0.
 0. 0. 0. 0.
 0. 0. 0. 0.
 0. 0. 0. 0.
 0. 0. 0. 0.
 0. 0. 0. 0.
 0. 0. 0. 0.
 0. 0. 0. 0.
 0. 0. 0. 0.
 0. 0. 0. 0.
 0. 0. 0. 0.
 0. 0. 0. 0.
 0. 0. 0. 0.
 0. 0. 0. 0.
 0. 0. 0. 0.
 0. 0. 0. 0.
 0. 0. 0. 0.
 0. 0. 0. 0.
 0. 0. 0. 0.
 0. 0. 0. 0.
 0. 0. 0. 0.
 0. 0. 0. 0.
 0. 0. 0. 0.
 0. 0. 0. 0.
 0. 0. 0. 0.
 0. 0. 0. 0.
 0. 0. 0. 0.
 0. 0. 0. 0.
 0. 0. 0. 0.
 0. 0. 0. 0.
 0. 0. 0. 0.
 0. 0. 0. 0.
 0. 0. 0. 0.
 0. 0. 0. 0.
 0. 0. 0. 0.
 0. 0. 0. 0.
 0. 0. 0. 0.
 0. 0. 0. 0.
 0. 0. 0. 0.
 0. 0. 0. 0.
 0. 0. 0. 0.
 0. 0. 0. 0.
 0. 0. 0. 0.
 0. 0. 0. 0.
 0. 0. 0. 0.
 0. 0. 0. 0.
 0. 0. 0. 0.
 0. 0. 0. 0.
 0. 0. 0. 0.
 0. 0. 0. 0.
 0. 0. 0. 0.
 0. 0. 0. 0.
 0. 0. 0. 0.
 0. 0. 0. 0.
 0. 0. 0. 0.
 0. 0. 0. 0.
 0. 0. 0. 0.
 0. 0. 0. 0.
 0. 0. 0. 0.
 0. 0. 0. 0.
 0. 0. 0. 0.
 0. 0. 0. 0.
 0. 0. 0. 0.
 0. 0. 0. 0.
 0. 0. 0. 0.
 0. 0. 0. 0.
 0. 0. 0. 0.
 0. 0. 0. 0.
 0. 0. 0. 0.
 0. 0. 0. 0.
 0. 0. 0. 0.
 0. 0. 0. 0.
 0. 0. 0. 0.
 0. 0. 0. 0.
 0. 0. 0. 0.
 0. 0. 0. 0.
 0. 0. 0. 0.
 0. 0. 0. 0.
 0. 0. 0. 0.
 0. 0. 0. 0.
 0. 0. 0. 0.
 0. 0. 0. 0.
 0. 0. 0. 0.
 0. 0. 0. 0.
 0. 0. 0. 0.
 0. 0. 0. 0.
 0. 0. 0. 0.
 0. 0. 0. 0.
 0. 0. 0. 0.
 0. 0. 0. 0.
 0. 0. 0. 0.
 0. 0. 0. 0.
 0. 0. 0. 0.
 0. 0. 0. 0.
 0. 0. 0. 0.
 0. 0. 0. 0.
 0. 0. 0. 0.
 0. 0. 0. 0.
 0. 0. 0. 0.
 0. 0. 0. 0.
 0. 0. 0. 0.
 0. 0. 0. 0.
 0. 0. 0. 0.
 0. 0. 0. 0.
 0. 0. 0. 0.
 0. 0. 0. 0.
 0. 0. 0. 0.
 0. 0. 0. 0.
 0. 0. 0. 0.
 0. 0. 0. 0.
 0. 0. 0. 0.
 0. 0. 0. 0.
 0. 0. 0. 0.
 0. 0. 0. 0.
 0. 0. 0. 0.
 0. 0. 0. 0.
 0. 0. 0. 0.
 0. 0. 0. 0.
 0. 0. 0. 0.
 0. 0. 0. 0.
 0. 0. 0. 0.
 0. 0. 0. 0.
 0. 0. 0. 0.
 0. 0. 0. 0.
 0. 0. 0. 0.
 0. 0. 0. 0.
 0. 0. 0. 0.
 0. 0. 0. 0.
 0. 0. 0. 0.
 0. 0. 0. 0.
 0. 0.
   </PP_BETA.5>
   <PP_BETA.6
       type="real"
       size="1534"
       columns="4"
       index="6"
       angular_momentum="1"
       cutoff_radius_index=" 196"
       cutoff_radius="    1.9500000000E+00" >
    2.6057174474E-09    9.6836837860E-04    3.8628748883E-03    8.6518419769E-03
    1.5282866693E-02    2.3683405078E-02    3.3761580250E-02    4.5407204296E-02
    5.8493001445E-02    7.2876017583E-02    8.8399198918E-02    1.0489312055E-01
    1.2217784397E-01    1.4006488099E-01    1.5835924035E-01    1.7686153243E-01
    1.9537010695E-01    2.1368319796E-01    2.3160105105E-01    2.4892800761E-01
    2.6547452188E-01    2.8105908762E-01    2.9551005259E-01    3.0866730028E-01
    3.2038378072E-01    3.3052687398E-01    3.3897957215E-01    3.4564146848E-01
    3.5042954454E-01    3.5327874914E-01    3.5414236569E-01    3.5299216701E-01
    3.4981836000E-01    3.4462932482E-01    3.3745115602E-01    3.2832701585E-01
    3.1731631191E-01    3.0449371389E-01    2.8994802576E-01    2.7378093191E-01
    2.5610563674E-01    2.3704541864E-01    2.1673212021E-01    1.9530459678E-01
    1.7290714594E-01    1.4968794037E-01    1.2579748592E-01    1.0138712622E-01
    7.6607613944E-02    5.1607767587E-02    2.6533230916E-02    1.5253505170E-03
   -2.3279815343E-02   -4.7752345521E-02   -7.1769153901E-02   -9.5214530362E-02
   -1.1798052144E-01   -1.3996714999E-01   -1.6108247572E-01   -1.8124250144E-01
   -2.0037093193E-01   -2.1839879542E-01   -2.3526393933E-01   -2.5091041470E-01
   -2.6528776499E-01   -2.7835023721E-01   -2.9005593425E-01   -3.0036592859E-01
   -3.0924335828E-01   -3.1665252653E-01   -3.2255802626E-01   -3.2692391091E-01
   -3.2971293185E-01   -3.3088586215E-01   -3.3040092502E-01   -3.2821334355E-01
   -3.2427502675E-01   -3.1853440445E-01   -3.1093642146E-01   -3.0142269857E-01
   -2.8993186542E-01   -2.7640006713E-01   -2.6076164375E-01   -2.4294997848E-01
   -2.2289850755E-01   -2.0054188158E-01   -1.7581726556E-01   -1.4866576149E-01
   -1.1903393531E-01   -8.6875427362E-02   -5.2152623434E-02   -1.4838361610E-02
    2.5082351290E-02    6.7610641105E-02    1.1273211372E-01    1.6041527699E-01
    2.1061006570E-01    2.6324649752E-01    3.1823348729E-01    3.7545784520E-01
    4.3478348329E-01    4.9605085219E-01    5.5907662763E-01    6.2365366371E-01
    6.8955122645E-01    7.5651551795E-01    8.2427049804E-01    8.9251900610E-01
    9.6094418229E-01    1.0292111831E+00    1.0969691824E+00    1.1638536445E+00
    1.2294888532E+00    1.2934906756E+00    1.3554695361E+00    1.4150335746E+00
    1.4717919562E+00    1.5253583009E+00    1.5753541975E+00    1.6214127635E+00
    1.6631822128E+00    1.7003293922E+00    1.7325432453E+00    1.7595381648E+00
    1.7810571931E+00    1.7968750340E+00    1.8068008382E+00    1.8106807282E+00
    1.8084000324E+00    1.7998851977E+00    1.7851053576E+00    1.7640735343E+00
    1.7368474577E+00    1.7035299898E+00    1.6642691473E+00    1.6192577196E+00
    1.5687324857E+00    1.5129730380E+00    1.4523002255E+00    1.3870742349E+00
    1.3176923336E+00    1.2445863008E+00    1.1682195797E+00    1.0890841870E+00
    1.0076974195E+00    9.2459840041E-01    8.4034451217E-01    7.5550774373E-01
    6.7067114805E-01    5.8642271294E-01    5.0334022370E-01    4.2197968466E-01
    3.4287068060E-01    2.6651194776E-01    1.9336729002E-01    1.2386182691E-01
    5.8378612593E-02   -2.7443363345E-03   -5.9216571538E-02   -1.1079727443E-01
   -1.5729682533E-01   -1.9857786246E-01   -2.3455581884E-01   -2.6519893032E-01
   -2.9052771413E-01   -3.1061392327E-01   -3.2557898785E-01   -3.3559196008E-01
   -3.4086698561E-01   -3.4166032921E-01   -3.3826698755E-01   -3.3101692720E-01
   -3.2027098976E-01   -3.0641651021E-01   -2.8986269779E-01   -2.7103583154E-01
   -2.5037432485E-01   -2.2832371484E-01   -2.0533162337E-01   -1.8184283421E-01
   -1.5829421500E-01   -1.3511018394E-01   -1.1270492485E-01   -9.1495419595E-02
   -7.1836245594E-02   -5.4042877451E-02   -3.8403059513E-02   -2.5171371250E-02
   -1.4570899816E-02   -6.7583102652E-03   -1.9450027015E-03   -1.8432729377E-04
    1.7691194164E-05   -1.3130671776E-05    2.1529236742E-06    3.5675278994E-07
 0. 0. 0. 0.
 0. 0. 0. 0.
 0. 0. 0. 0.
 0. 0. 0. 0.
 0. 0. 0. 0.
 0. 0. 0. 0.
 0. 0. 0. 0.
 0. 0. 0. 0.
 0. 0. 0. 0.
 0. 0. 0. 0.
 0. 0. 0. 0.
 0. 0. 0. 0.
 0. 0. 0. 0.
 0. 0. 0. 0.
 0. 0. 0. 0.
 0. 0. 0. 0.
 0. 0. 0. 0.
 0. 0. 0. 0.
 0. 0. 0. 0.
 0. 0. 0. 0.
 0. 0. 0. 0.
 0. 0. 0. 0.
 0. 0. 0. 0.
 0. 0. 0. 0.
 0. 0. 0. 0.
 0. 0. 0. 0.
 0. 0. 0. 0.
 0. 0. 0. 0.
 0. 0. 0. 0.
 0. 0. 0. 0.
 0. 0. 0. 0.
 0. 0. 0. 0.
 0. 0. 0. 0.
 0. 0. 0. 0.
 0. 0. 0. 0.
 0. 0. 0. 0.
 0. 0. 0. 0.
 0. 0. 0. 0.
 0. 0. 0. 0.
 0. 0. 0. 0.
 0. 0. 0. 0.
 0. 0. 0. 0.
 0. 0. 0. 0.
 0. 0. 0. 0.
 0. 0. 0. 0.
 0. 0. 0. 0.
 0. 0. 0. 0.
 0. 0. 0. 0.
 0. 0. 0. 0.
 0. 0. 0. 0.
 0. 0. 0. 0.
 0. 0. 0. 0.
 0. 0. 0. 0.
 0. 0. 0. 0.
 0. 0. 0. 0.
 0. 0. 0. 0.
 0. 0. 0. 0.
 0. 0. 0. 0.
 0. 0. 0. 0.
 0. 0. 0. 0.
 0. 0. 0. 0.
 0. 0. 0. 0.
 0. 0. 0. 0.
 0. 0. 0. 0.
 0. 0. 0. 0.
 0. 0. 0. 0.
 0. 0. 0. 0.
 0. 0. 0. 0.
 0. 0. 0. 0.
 0. 0. 0. 0.
 0. 0. 0. 0.
 0. 0. 0. 0.
 0. 0. 0. 0.
 0. 0. 0. 0.
 0. 0. 0. 0.
 0. 0. 0. 0.
 0. 0. 0. 0.
 0. 0. 0. 0.
 0. 0. 0. 0.
 0. 0. 0. 0.
 0. 0. 0. 0.
 0. 0. 0. 0.
 0. 0. 0. 0.
 0. 0. 0. 0.
 0. 0. 0. 0.
 0. 0. 0. 0.
 0. 0. 0. 0.
 0. 0. 0. 0.
 0. 0. 0. 0.
 0. 0. 0. 0.
 0. 0. 0. 0.
 0. 0. 0. 0.
 0. 0. 0. 0.
 0. 0. 0. 0.
 0. 0. 0. 0.
 0. 0. 0. 0.
 0. 0. 0. 0.
 0. 0. 0. 0.
 0. 0. 0. 0.
 0. 0. 0. 0.
 0. 0. 0. 0.
 0. 0. 0. 0.
 0. 0. 0. 0.
 0. 0. 0. 0.
 0. 0. 0. 0.
 0. 0. 0. 0.
 0. 0. 0. 0.
 0. 0. 0. 0.
 0. 0. 0. 0.
 0. 0. 0. 0.
 0. 0. 0. 0.
 0. 0. 0. 0.
 0. 0. 0. 0.
 0. 0. 0. 0.
 0. 0. 0. 0.
 0. 0. 0. 0.
 0. 0. 0. 0.
 0. 0. 0. 0.
 0. 0. 0. 0.
 0. 0. 0. 0.
 0. 0. 0. 0.
 0. 0. 0. 0.
 0. 0. 0. 0.
 0. 0. 0. 0.
 0. 0. 0. 0.
 0. 0. 0. 0.
 0. 0. 0. 0.
 0. 0. 0. 0.
 0. 0. 0. 0.
 0. 0. 0. 0.
 0. 0. 0. 0.
 0. 0. 0. 0.
 0. 0. 0. 0.
 0. 0. 0. 0.
 0. 0. 0. 0.
 0. 0. 0. 0.
 0. 0. 0. 0.
 0. 0. 0. 0.
 0. 0. 0. 0.
 0. 0. 0. 0.
 0. 0. 0. 0.
 0. 0. 0. 0.
 0. 0. 0. 0.
 0. 0. 0. 0.
 0. 0. 0. 0.
 0. 0. 0. 0.
 0. 0. 0. 0.
 0. 0. 0. 0.
 0. 0. 0. 0.
 0. 0. 0. 0.
 0. 0. 0. 0.
 0. 0. 0. 0.
 0. 0. 0. 0.
 0. 0. 0. 0.
 0. 0. 0. 0.
 0. 0. 0. 0.
 0. 0. 0. 0.
 0. 0. 0. 0.
 0. 0. 0. 0.
 0. 0. 0. 0.
 0. 0. 0. 0.
 0. 0. 0. 0.
 0. 0. 0. 0.
 0. 0. 0. 0.
 0. 0. 0. 0.
 0. 0. 0. 0.
 0. 0. 0. 0.
 0. 0. 0. 0.
 0. 0. 0. 0.
 0. 0. 0. 0.
 0. 0. 0. 0.
 0. 0. 0. 0.
 0. 0. 0. 0.
 0. 0. 0. 0.
 0. 0. 0. 0.
 0. 0. 0. 0.
 0. 0. 0. 0.
 0. 0. 0. 0.
 0. 0. 0. 0.
 0. 0. 0. 0.
 0. 0. 0. 0.
 0. 0. 0. 0.
 0. 0. 0. 0.
 0. 0. 0. 0.
 0. 0. 0. 0.
 0. 0. 0. 0.
 0. 0. 0. 0.
 0. 0. 0. 0.
 0. 0. 0. 0.
 0. 0. 0. 0.
 0. 0. 0. 0.
 0. 0. 0. 0.
 0. 0. 0. 0.
 0. 0. 0. 0.
 0. 0. 0. 0.
 0. 0. 0. 0.
 0. 0. 0. 0.
 0. 0. 0. 0.
 0. 0. 0. 0.
 0. 0. 0. 0.
 0. 0. 0. 0.
 0. 0. 0. 0.
 0. 0. 0. 0.
 0. 0. 0. 0.
 0. 0. 0. 0.
 0. 0. 0. 0.
 0. 0. 0. 0.
 0. 0. 0. 0.
 0. 0. 0. 0.
 0. 0. 0. 0.
 0. 0. 0. 0.
 0. 0. 0. 0.
 0. 0. 0. 0.
 0. 0. 0. 0.
 0. 0. 0. 0.
 0. 0. 0. 0.
 0. 0. 0. 0.
 0. 0. 0. 0.
 0. 0. 0. 0.
 0. 0. 0. 0.
 0. 0. 0. 0.
 0. 0. 0. 0.
 0. 0. 0. 0.
 0. 0. 0. 0.
 0. 0. 0. 0.
 0. 0. 0. 0.
 0. 0. 0. 0.
 0. 0. 0. 0.
 0. 0. 0. 0.
 0. 0. 0. 0.
 0. 0. 0. 0.
 0. 0. 0. 0.
 0. 0. 0. 0.
 0. 0. 0. 0.
 0. 0. 0. 0.
 0. 0. 0. 0.
 0. 0. 0. 0.
 0. 0. 0. 0.
 0. 0. 0. 0.
 0. 0. 0. 0.
 0. 0. 0. 0.
 0. 0. 0. 0.
 0. 0. 0. 0.
 0. 0. 0. 0.
 0. 0. 0. 0.
 0. 0. 0. 0.
 0. 0. 0. 0.
 0. 0. 0. 0.
 0. 0. 0. 0.
 0. 0. 0. 0.
 0. 0. 0. 0.
 0. 0. 0. 0.
 0. 0. 0. 0.
 0. 0. 0. 0.
 0. 0. 0. 0.
 0. 0. 0. 0.
 0. 0. 0. 0.
 0. 0. 0. 0.
 0. 0. 0. 0.
 0. 0. 0. 0.
 0. 0. 0. 0.
 0. 0. 0. 0.
 0. 0. 0. 0.
 0. 0. 0. 0.
 0. 0. 0. 0.
 0. 0. 0. 0.
 0. 0. 0. 0.
 0. 0. 0. 0.
 0. 0. 0. 0.
 0. 0. 0. 0.
 0. 0. 0. 0.
 0. 0. 0. 0.
 0. 0. 0. 0.
 0. 0. 0. 0.
 0. 0. 0. 0.
 0. 0. 0. 0.
 0. 0. 0. 0.
 0. 0. 0. 0.
 0. 0. 0. 0.
 0. 0. 0. 0.
 0. 0. 0. 0.
 0. 0. 0. 0.
 0. 0. 0. 0.
 0. 0. 0. 0.
 0. 0. 0. 0.
 0. 0. 0. 0.
 0. 0. 0. 0.
 0. 0. 0. 0.
 0. 0. 0. 0.
 0. 0. 0. 0.
 0. 0. 0. 0.
 0. 0. 0. 0.
 0. 0. 0. 0.
 0. 0. 0. 0.
 0. 0. 0. 0.
 0. 0. 0. 0.
 0. 0. 0. 0.
 0. 0. 0. 0.
 0. 0. 0. 0.
 0. 0. 0. 0.
 0. 0. 0. 0.
 0. 0. 0. 0.
 0. 0. 0. 0.
 0. 0. 0. 0.
 0. 0. 0. 0.
 0. 0. 0. 0.
 0. 0. 0. 0.
 0. 0. 0. 0.
 0. 0. 0. 0.
 0. 0. 0. 0.
 0. 0. 0. 0.
 0. 0. 0. 0.
 0. 0. 0. 0.
 0. 0. 0. 0.
 0. 0. 0. 0.
 0. 0. 0. 0.
 0. 0. 0. 0.
 0. 0. 0. 0.
 0. 0. 0. 0.
 0. 0. 0. 0.
 0. 0. 0. 0.
 0. 0. 0. 0.
 0. 0. 0. 0.
 0. 0. 0. 0.
 0. 0. 0. 0.
 0. 0. 0. 0.
 0. 0. 0. 0.
 0. 0. 0. 0.
 0. 0. 0. 0.
 0. 0. 0. 0.
 0. 0. 0. 0.
 0. 0. 0. 0.
 0. 0. 0. 0.
 0. 0. 0. 0.
 0. 0.
   </PP_BETA.6>
   <PP_BETA.7
       type="real"
       size="1534"
       columns="4"
       index="7"
       angular_momentum="2"
       cutoff_radius_index=" 196"
       cutoff_radius="    1.9500000000E+00" >
   -3.1345636156E-10    1.5466047831E-05    1.2368379011E-04    4.1718126751E-04
    9.8803600618E-04    1.9276418250E-03    3.3264663484E-03    5.2737965011E-03
    7.8574695774E-03    1.1163587855E-02    1.5276215171E-02    2.0277054368E-02
    2.6245105066E-02    3.3256301789E-02    4.1383133070E-02    5.0694242792E-02
    6.1254015616E-02    7.3122148978E-02    8.6353214722E-02    1.0099621398E-01
    1.1709412947E-01    1.3468347980E-01    1.5379388078E-01    1.7444761918E-01
    1.9665924445E-01    2.2043518422E-01    2.4577338956E-01    2.7266301575E-01
    3.0108414439E-01    3.3100755251E-01    3.6239453391E-01    3.9519677765E-01
    4.2935630825E-01    4.6480549142E-01    5.0146710865E-01    5.3925450326E-01
    5.7807179973E-01    6.1781419740E-01    6.5836833864E-01    6.9961275096E-01
    7.4141836131E-01    7.8364908035E-01    8.2616245324E-01    8.6881037275E-01
    9.1143984990E-01    9.5389383612E-01    9.9601209080E-01    1.0376320869E+00
    1.0785899469E+00    1.1187214017E+00    1.1578627630E+00    1.1958519013E+00
    1.2325292202E+00    1.2677386181E+00    1.3013284293E+00    1.3331523347E+00
    1.3630702343E+00    1.3909490742E+00    1.4166636198E+00    1.4400971688E+00
    1.4611421983E+00    1.4797009402E+00    1.4956858806E+00    1.5090201797E+00
    1.5196380101E+00    1.5274848109E+00    1.5325174577E+00    1.5347043486E+00
    1.5340254079E+00    1.5304720095E+00    1.5240468225E+00    1.5147635847E+00
    1.5026468076E+00    1.4877314185E+00    1.4700623461E+00    1.4496940569E+00
    1.4266900480E+00    1.4011223054E+00    1.3730707338E+00    1.3426225666E+00
    1.3098717636E+00    1.2749184030E+00    1.2378680761E+00    1.1988312902E+00
    1.1579228866E+00    1.1152614798E+00    1.0709689217E+00    1.0251697959E+00
    9.7799094601E-01    9.2956103906E-01    8.8001016735E-01    8.2946948861E-01
    7.7807090484E-01    7.2594677874E-01    6.7322968611E-01    6.2005220159E-01
    5.6654671442E-01    5.1284527034E-01    4.5907943501E-01    4.0538017400E-01
    3.5187774390E-01    2.9870158890E-01    2.4598023702E-01    1.9384119021E-01
    1.4241080249E-01    9.1814140735E-02    4.2174822873E-02   -6.3851711644E-03
   -5.3745719835E-02   -9.9788815172E-02   -1.4439885543E-01   -1.8746297695E-01
   -2.2887142626E-01   -2.6851797208E-01   -3.0630035651E-01   -3.4212078298E-01
   -3.7588643795E-01   -4.0751004236E-01   -4.3691042749E-01   -4.6401312946E-01
   -4.8875099535E-01   -5.1106479345E-01   -5.3090381929E-01   -5.4822648868E-01
   -5.6300090867E-01   -5.7520541671E-01   -5.8482907871E-01   -5.9187213615E-01
   -5.9634639311E-01   -5.9827553403E-01   -5.9769536381E-01   -5.9465396226E-01
   -5.8921174597E-01   -5.8144143148E-01   -5.7142789471E-01   -5.5926792283E-01
   -5.4506985612E-01   -5.2895311860E-01   -5.1104763776E-01   -4.9149315520E-01
   -4.7043843155E-01   -4.4804035034E-01   -4.2446292731E-01   -3.9987623286E-01
   -3.7445523686E-01   -3.4837858616E-01   -3.2182732674E-01   -2.9498358205E-01
   -2.6802920811E-01   -2.4114431419E-01   -2.1450536316E-01   -1.8828343143E-01
   -1.6264280502E-01   -1.3773962270E-01   -1.1372058531E-01   -9.0721743766E-02
   -6.8867379704E-02   -4.8268992473E-02   -2.9024404886E-02   -1.1216999078E-02
    5.0849075426E-03    1.9828537686E-02    3.2976974026E-02    4.4509318294E-02
    5.4420686243E-02    6.2722037008E-02    6.9439837320E-02    7.4615562983E-02
    7.8305041994E-02    8.0577645610E-02    8.1515335541E-02    8.1211577231E-02
    7.9770130908E-02    7.7303733616E-02    7.3932686862E-02    6.9783365790E-02
    6.4986666807E-02    5.9676411477E-02    5.3987723723E-02    4.8055411488E-02
    4.2012326068E-02    3.5987807813E-02    3.0107104310E-02    2.4492417923E-02
    1.9252874499E-02    1.4486943391E-02    1.0283327112E-02    6.7195861984E-03
    3.8622098976E-03    1.7581055681E-03    4.6234330734E-04   -1.0244285290E-05
   -1.4498820596E-05    7.9448841536E-06   -1.8529711078E-06    5.3405903034E-08
 0. 0. 0. 0.
 0. 0. 0. 0.
 0. 0. 0. 0.
 0. 0. 0. 0.
 0. 0. 0. 0.
 0. 0. 0. 0.
 0. 0. 0. 0.
 0. 0. 0. 0.
 0. 0. 0. 0.
 0. 0. 0. 0.
 0. 0. 0. 0.
 0. 0. 0. 0.
 0. 0. 0. 0.
 0. 0. 0. 0.
 0. 0. 0. 0.
 0. 0. 0. 0.
 0. 0. 0. 0.
 0. 0. 0. 0.
 0. 0. 0. 0.
 0. 0. 0. 0.
 0. 0. 0. 0.
 0. 0. 0. 0.
 0. 0. 0. 0.
 0. 0. 0. 0.
 0. 0. 0. 0.
 0. 0. 0. 0.
 0. 0. 0. 0.
 0. 0. 0. 0.
 0. 0. 0. 0.
 0. 0. 0. 0.
 0. 0. 0. 0.
 0. 0. 0. 0.
 0. 0. 0. 0.
 0. 0. 0. 0.
 0. 0. 0. 0.
 0. 0. 0. 0.
 0. 0. 0. 0.
 0. 0. 0. 0.
 0. 0. 0. 0.
 0. 0. 0. 0.
 0. 0. 0. 0.
 0. 0. 0. 0.
 0. 0. 0. 0.
 0. 0. 0. 0.
 0. 0. 0. 0.
 0. 0. 0. 0.
 0. 0. 0. 0.
 0. 0. 0. 0.
 0. 0. 0. 0.
 0. 0. 0. 0.
 0. 0. 0. 0.
 0. 0. 0. 0.
 0. 0. 0. 0.
 0. 0. 0. 0.
 0. 0. 0. 0.
 0. 0. 0. 0.
 0. 0. 0. 0.
 0. 0. 0. 0.
 0. 0. 0. 0.
 0. 0. 0. 0.
 0. 0. 0. 0.
 0. 0. 0. 0.
 0. 0. 0. 0.
 0. 0. 0. 0.
 0. 0. 0. 0.
 0. 0. 0. 0.
 0. 0. 0. 0.
 0. 0. 0. 0.
 0. 0. 0. 0.
 0. 0. 0. 0.
 0. 0. 0. 0.
 0. 0. 0. 0.
 0. 0. 0. 0.
 0. 0. 0. 0.
 0. 0. 0. 0.
 0. 0. 0. 0.
 0. 0. 0. 0.
 0. 0. 0. 0.
 0. 0. 0. 0.
 0. 0. 0. 0.
 0. 0. 0. 0.
 0. 0. 0. 0.
 0. 0. 0. 0.
 0. 0. 0. 0.
 0. 0. 0. 0.
 0. 0. 0. 0.
 0. 0. 0. 0.
 0. 0. 0. 0.
 0. 0. 0. 0.
 0. 0. 0. 0.
 0. 0. 0. 0.
 0. 0. 0. 0.
 0. 0. 0. 0.
 0. 0. 0. 0.
 0. 0. 0. 0.
 0. 0. 0. 0.
 0. 0. 0. 0.
 0. 0. 0. 0.
 0. 0. 0. 0.
 0. 0. 0. 0.
 0. 0. 0. 0.
 0. 0. 0. 0.
 0. 0. 0. 0.
 0. 0. 0. 0.
 0. 0. 0. 0.
 0. 0. 0. 0.
 0. 0. 0. 0.
 0. 0. 0. 0.
 0. 0. 0. 0.
 0. 0. 0. 0.
 0. 0. 0. 0.
 0. 0. 0. 0.
 0. 0. 0. 0.
 0. 0. 0. 0.
 0. 0. 0. 0.
 0. 0. 0. 0.
 0. 0. 0. 0.
 0. 0. 0. 0.
 0. 0. 0. 0.
 0. 0. 0. 0.
 0. 0. 0. 0.
 0. 0. 0. 0.
 0. 0. 0. 0.
 0. 0. 0. 0.
 0. 0. 0. 0.
 0. 0. 0. 0.
 0. 0. 0. 0.
 0. 0. 0. 0.
 0. 0. 0. 0.
 0. 0. 0. 0.
 0. 0. 0. 0.
 0. 0. 0. 0.
 0. 0. 0. 0.
 0. 0. 0. 0.
 0. 0. 0. 0.
 0. 0. 0. 0.
 0. 0. 0. 0.
 0. 0. 0. 0.
 0. 0. 0. 0.
 0. 0. 0. 0.
 0. 0. 0. 0.
 0. 0. 0. 0.
 0. 0. 0. 0.
 0. 0. 0. 0.
 0. 0. 0. 0.
 0. 0. 0. 0.
 0. 0. 0. 0.
 0. 0. 0. 0.
 0. 0. 0. 0.
 0. 0. 0. 0.
 0. 0. 0. 0.
 0. 0. 0. 0.
 0. 0. 0. 0.
 0. 0. 0. 0.
 0. 0. 0. 0.
 0. 0. 0. 0.
 0. 0. 0. 0.
 0. 0. 0. 0.
 0. 0. 0. 0.
 0. 0. 0. 0.
 0. 0. 0. 0.
 0. 0. 0. 0.
 0. 0. 0. 0.
 0. 0. 0. 0.
 0. 0. 0. 0.
 0. 0. 0. 0.
 0. 0. 0. 0.
 0. 0. 0. 0.
 0. 0. 0. 0.
 0. 0. 0. 0.
 0. 0. 0. 0.
 0. 0. 0. 0.
 0. 0. 0. 0.
 0. 0. 0. 0.
 0. 0. 0. 0.
 0. 0. 0. 0.
 0. 0. 0. 0.
 0. 0. 0. 0.
 0. 0. 0. 0.
 0. 0. 0. 0.
 0. 0. 0. 0.
 0. 0. 0. 0.
 0. 0. 0. 0.
 0. 0. 0. 0.
 0. 0. 0. 0.
 0. 0. 0. 0.
 0. 0. 0. 0.
 0. 0. 0. 0.
 0. 0. 0. 0.
 0. 0. 0. 0.
 0. 0. 0. 0.
 0. 0. 0. 0.
 0. 0. 0. 0.
 0. 0. 0. 0.
 0. 0. 0. 0.
 0. 0. 0. 0.
 0. 0. 0. 0.
 0. 0. 0. 0.
 0. 0. 0. 0.
 0. 0. 0. 0.
 0. 0. 0. 0.
 0. 0. 0. 0.
 0. 0. 0. 0.
 0. 0. 0. 0.
 0. 0. 0. 0.
 0. 0. 0. 0.
 0. 0. 0. 0.
 0. 0. 0. 0.
 0. 0. 0. 0.
 0. 0. 0. 0.
 0. 0. 0. 0.
 0. 0. 0. 0.
 0. 0. 0. 0.
 0. 0. 0. 0.
 0. 0. 0. 0.
 0. 0. 0. 0.
 0. 0. 0. 0.
 0. 0. 0. 0.
 0. 0. 0. 0.
 0. 0. 0. 0.
 0. 0. 0. 0.
 0. 0. 0. 0.
 0. 0. 0. 0.
 0. 0. 0. 0.
 0. 0. 0. 0.
 0. 0. 0. 0.
 0. 0. 0. 0.
 0. 0. 0. 0.
 0. 0. 0. 0.
 0. 0. 0. 0.
 0. 0. 0. 0.
 0. 0. 0. 0.
 0. 0. 0. 0.
 0. 0. 0. 0.
 0. 0. 0. 0.
 0. 0. 0. 0.
 0. 0. 0. 0.
 0. 0. 0. 0.
 0. 0. 0. 0.
 0. 0. 0. 0.
 0. 0. 0. 0.
 0. 0. 0. 0.
 0. 0. 0. 0.
 0. 0. 0. 0.
 0. 0. 0. 0.
 0. 0. 0. 0.
 0. 0. 0. 0.
 0. 0. 0. 0.
 0. 0. 0. 0.
 0. 0. 0. 0.
 0. 0. 0. 0.
 0. 0. 0. 0.
 0. 0. 0. 0.
 0. 0. 0. 0.
 0. 0. 0. 0.
 0. 0. 0. 0.
 0. 0. 0. 0.
 0. 0. 0. 0.
 0. 0. 0. 0.
 0. 0. 0. 0.
 0. 0. 0. 0.
 0. 0. 0. 0.
 0. 0. 0. 0.
 0. 0. 0. 0.
 0. 0. 0. 0.
 0. 0. 0. 0.
 0. 0. 0. 0.
 0. 0. 0. 0.
 0. 0. 0. 0.
 0. 0. 0. 0.
 0. 0. 0. 0.
 0. 0. 0. 0.
 0. 0. 0. 0.
 0. 0. 0. 0.
 0. 0. 0. 0.
 0. 0. 0. 0.
 0. 0. 0. 0.
 0. 0. 0. 0.
 0. 0. 0. 0.
 0. 0. 0. 0.
 0. 0. 0. 0.
 0. 0. 0. 0.
 0. 0. 0. 0.
 0. 0. 0. 0.
 0. 0. 0. 0.
 0. 0. 0. 0.
 0. 0. 0. 0.
 0. 0. 0. 0.
 0. 0. 0. 0.
 0. 0. 0. 0.
 0. 0. 0. 0.
 0. 0. 0. 0.
 0. 0. 0. 0.
 0. 0. 0. 0.
 0. 0. 0. 0.
 0. 0. 0. 0.
 0. 0. 0. 0.
 0. 0. 0. 0.
 0. 0. 0. 0.
 0. 0. 0. 0.
 0. 0. 0. 0.
 0. 0. 0. 0.
 0. 0. 0. 0.
 0. 0. 0. 0.
 0. 0. 0. 0.
 0. 0. 0. 0.
 0. 0. 0. 0.
 0. 0. 0. 0.
 0. 0. 0. 0.
 0. 0. 0. 0.
 0. 0. 0. 0.
 0. 0. 0. 0.
 0. 0. 0. 0.
 0. 0. 0. 0.
 0. 0. 0. 0.
 0. 0. 0. 0.
 0. 0. 0. 0.
 0. 0. 0. 0.
 0. 0. 0. 0.
 0. 0. 0. 0.
 0. 0. 0. 0.
 0. 0. 0. 0.
 0. 0. 0. 0.
 0. 0. 0. 0.
 0. 0. 0. 0.
 0. 0. 0. 0.
 0. 0. 0. 0.
 0. 0. 0. 0.
 0. 0. 0. 0.
 0. 0. 0. 0.
 0. 0. 0. 0.
 0. 0. 0. 0.
 0. 0. 0. 0.
 0. 0. 0. 0.
 0. 0.
   </PP_BETA.7>
   <PP_BETA.8
       type="real"
       size="1534"
       columns="4"
       index="8"
       angular_momentum="2"
       cutoff_radius_index=" 196"
       cutoff_radius="    1.9500000000E+00" >
   -3.1320581372E-10    1.5462708300E-05    1.2365707848E-04    4.1709114225E-04
    9.8782246690E-04    1.9272249944E-03    3.3257465942E-03    5.2726546087E-03
    7.8557669851E-03    1.1161166968E-02    1.5272899765E-02    2.0272650110E-02
    2.6239400155E-02    3.3249067748E-02    4.1374125698E-02    5.0683203296E-02
    6.1240671936E-02    7.3106217323E-02    8.6334401319E-02    1.0097421706E-01
    1.1706864146E-01    1.3465418979E-01    1.5376047719E-01    1.7440979266E-01
    1.9661669098E-01    2.2038760845E-01    2.4572050829E-01    2.7260456158E-01
    3.0101986950E-01    3.3093723256E-01    3.6231797193E-01    3.9511380803E-01
    4.2926680070E-01    4.6470935480E-01    5.0136429479E-01    5.3914501052E-01
    5.7795567645E-01    6.1769154502E-01    6.5823931455E-01    6.9947757099E-01
    7.4127730185E-01    7.8350248002E-01    8.2601071406E-01    8.6865396087E-01
    9.1127929569E-01    9.5372973384E-01    9.9584509755E-01    1.0374629210E+00
    1.0784193859E+00    1.1185502795E+00    1.1576919664E+00    1.1956823661E+00
    1.2323619267E+00    1.2675745864E+00    1.3011687134E+00    1.3329980168E+00
    1.3629224184E+00    1.3908088794E+00    1.4165321734E+00    1.4399755990E+00
    1.4610316272E+00    1.4796024759E+00    1.4956006100E+00    1.5089491612E+00
    1.5195822663E+00    1.5274453212E+00    1.5324951518E+00    1.5347001001E+00
    1.5340400282E+00    1.5305062416E+00    1.5241013366E+00    1.5148389732E+00
    1.5027435813E+00    1.4878500029E+00    1.4702030793E+00    1.4498571868E+00
    1.4268757317E+00    1.4013306079E+00    1.3733016283E+00    1.3428759353E+00
    1.3101473988E+00    1.2752160093E+00    1.2381872728E+00    1.1991716144E+00
    1.1582837972E+00    1.1156423610E+00    1.0713690879E+00    1.0255884964E+00
    9.7842737020E-01    9.3001432171E-01    8.8047939410E-01    8.2995370159E-01
    7.7856910829E-01    7.2645794464E-01    6.7375275968E-01    6.2058610669E-01
    5.6709035877E-01    5.1339755048E-01    4.5963924104E-01    4.0594639398E-01
    3.5244926797E-01    2.9927731303E-01    2.4655906643E-01    1.9442204242E-01
    1.4299261000E-01    9.2395853407E-02    4.2755409933E-02   -5.8067194027E-03
   -5.3170390543E-02   -9.9217571834E-02   -1.4383263688E-01   -1.8690269661E-01
   -2.2831797147E-01   -2.6797220360E-01   -3.0576310804E-01   -3.4159286063E-01
   -3.7536861984E-01   -4.0700307800E-01   -4.3641503714E-01   -4.6353000335E-01
   -4.8828079273E-01   -5.1060814146E-01   -5.3046131163E-01   -5.4779868413E-01
   -5.6258832932E-01   -5.7480854605E-01   -5.8444835949E-01   -5.9150796812E-01
   -5.9599913059E-01   -5.9794548338E-01   -5.9738278081E-01   -5.9435904953E-01
   -5.8893465036E-01   -5.8118224163E-01   -5.7118663867E-01   -5.5904456600E-01
   -5.4486429941E-01   -5.2876519701E-01   -5.1087711932E-01   -4.9133974051E-01
   -4.7030175381E-01   -4.4791997603E-01   -4.2435835763E-01   -3.9978690586E-01
   -3.7438053039E-01   -3.4831782174E-01   -3.2177977422E-01   -2.9494846529E-01
   -2.6800571156E-01   -2.4113158996E-01   -2.1450253673E-01   -1.8828960642E-01
   -1.6265706833E-01   -1.3776105001E-01   -1.1374824683E-01   -9.0754710216E-02
   -6.8904728527E-02   -4.8309814136E-02   -2.9067809253E-02   -1.1262121762E-02
    5.0388989128E-03    1.9782437367E-02    3.2931532316E-02    4.4465236009E-02
    5.4378609610E-02    6.2682553039E-02    6.9403469744E-02    7.4582768811E-02
    7.8276208771E-02    8.0553089419E-02    8.1495299802E-02    8.1196232343E-02
    7.9759574748E-02    7.7297992935E-02    7.3931719572E-02    6.9787064150E-02
    6.4994861487E-02    5.9688876481E-02    5.4004182122E-02    4.8075541970E-02
    4.2035770095E-02    3.6014177542E-02    3.0135994920E-02    2.4523431065E-02
    1.9285606970E-02    1.4520990393E-02    1.0318293891E-02    6.7550984825E-03
    3.8979822710E-03    1.7933922926E-03    4.9807989808E-04    2.5484673091E-05
   -8.6438169986E-06    5.2942022583E-06   -1.0898224243E-06   -3.5878450959E-08
 0. 0. 0. 0.
 0. 0. 0. 0.
 0. 0. 0. 0.
 0. 0. 0. 0.
 0. 0. 0. 0.
 0. 0. 0. 0.
 0. 0. 0. 0.
 0. 0. 0. 0.
 0. 0. 0. 0.
 0. 0. 0. 0.
 0. 0. 0. 0.
 0. 0. 0. 0.
 0. 0. 0. 0.
 0. 0. 0. 0.
 0. 0. 0. 0.
 0. 0. 0. 0.
 0. 0. 0. 0.
 0. 0. 0. 0.
 0. 0. 0. 0.
 0. 0. 0. 0.
 0. 0. 0. 0.
 0. 0. 0. 0.
 0. 0. 0. 0.
 0. 0. 0. 0.
 0. 0. 0. 0.
 0. 0. 0. 0.
 0. 0. 0. 0.
 0. 0. 0. 0.
 0. 0. 0. 0.
 0. 0. 0. 0.
 0. 0. 0. 0.
 0. 0. 0. 0.
 0. 0. 0. 0.
 0. 0. 0. 0.
 0. 0. 0. 0.
 0. 0. 0. 0.
 0. 0. 0. 0.
 0. 0. 0. 0.
 0. 0. 0. 0.
 0. 0. 0. 0.
 0. 0. 0. 0.
 0. 0. 0. 0.
 0. 0. 0. 0.
 0. 0. 0. 0.
 0. 0. 0. 0.
 0. 0. 0. 0.
 0. 0. 0. 0.
 0. 0. 0. 0.
 0. 0. 0. 0.
 0. 0. 0. 0.
 0. 0. 0. 0.
 0. 0. 0. 0.
 0. 0. 0. 0.
 0. 0. 0. 0.
 0. 0. 0. 0.
 0. 0. 0. 0.
 0. 0. 0. 0.
 0. 0. 0. 0.
 0. 0. 0. 0.
 0. 0. 0. 0.
 0. 0. 0. 0.
 0. 0. 0. 0.
 0. 0. 0. 0.
 0. 0. 0. 0.
 0. 0. 0. 0.
 0. 0. 0. 0.
 0. 0. 0. 0.
 0. 0. 0. 0.
 0. 0. 0. 0.
 0. 0. 0. 0.
 0. 0. 0. 0.
 0. 0. 0. 0.
 0. 0. 0. 0.
 0. 0. 0. 0.
 0. 0. 0. 0.
 0. 0. 0. 0.
 0. 0. 0. 0.
 0. 0. 0. 0.
 0. 0. 0. 0.
 0. 0. 0. 0.
 0. 0. 0. 0.
 0. 0. 0. 0.
 0. 0. 0. 0.
 0. 0. 0. 0.
 0. 0. 0. 0.
 0. 0. 0. 0.
 0. 0. 0. 0.
 0. 0. 0. 0.
 0. 0. 0. 0.
 0. 0. 0. 0.
 0. 0. 0. 0.
 0. 0. 0. 0.
 0. 0. 0. 0.
 0. 0. 0. 0.
 0. 0. 0. 0.
 0. 0. 0. 0.
 0. 0. 0. 0.
 0. 0. 0. 0.
 0. 0. 0. 0.
 0. 0. 0. 0.
 0. 0. 0. 0.
 0. 0. 0. 0.
 0. 0. 0. 0.
 0. 0. 0. 0.
 0. 0. 0. 0.
 0. 0. 0. 0.
 0. 0. 0. 0.
 0. 0. 0. 0.
 0. 0. 0. 0.
 0. 0. 0. 0.
 0. 0. 0. 0.
 0. 0. 0. 0.
 0. 0. 0. 0.
 0. 0. 0. 0.
 0. 0. 0. 0.
 0. 0. 0. 0.
 0. 0. 0. 0.
 0. 0. 0. 0.
 0. 0. 0. 0.
 0. 0. 0. 0.
 0. 0. 0. 0.
 0. 0. 0. 0.
 0. 0. 0. 0.
 0. 0. 0. 0.
 0. 0. 0. 0.
 0. 0. 0. 0.
 0. 0. 0. 0.
 0. 0. 0. 0.
 0. 0. 0. 0.
 0. 0. 0. 0.
 0. 0. 0. 0.
 0. 0. 0. 0.
 0. 0. 0. 0.
 0. 0. 0. 0.
 0. 0. 0. 0.
 0. 0. 0. 0.
 0. 0. 0. 0.
 0. 0. 0. 0.
 0. 0. 0. 0.
 0. 0. 0. 0.
 0. 0. 0. 0.
 0. 0. 0. 0.
 0. 0. 0. 0.
 0. 0. 0. 0.
 0. 0. 0. 0.
 0. 0. 0. 0.
 0. 0. 0. 0.
 0. 0. 0. 0.
 0. 0. 0. 0.
 0. 0. 0. 0.
 0. 0. 0. 0.
 0. 0. 0. 0.
 0. 0. 0. 0.
 0. 0. 0. 0.
 0. 0. 0. 0.
 0. 0. 0. 0.
 0. 0. 0. 0.
 0. 0. 0. 0.
 0. 0. 0. 0.
 0. 0. 0. 0.
 0. 0. 0. 0.
 0. 0. 0. 0.
 0. 0. 0. 0.
 0. 0. 0. 0.
 0. 0. 0. 0.
 0. 0. 0. 0.
 0. 0. 0. 0.
 0. 0. 0. 0.
 0. 0. 0. 0.
 0. 0. 0. 0.
 0. 0. 0. 0.
 0. 0. 0. 0.
 0. 0. 0. 0.
 0. 0. 0. 0.
 0. 0. 0. 0.
 0. 0. 0. 0.
 0. 0. 0. 0.
 0. 0. 0. 0.
 0. 0. 0. 0.
 0. 0. 0. 0.
 0. 0. 0. 0.
 0. 0. 0. 0.
 0. 0. 0. 0.
 0. 0. 0. 0.
 0. 0. 0. 0.
 0. 0. 0. 0.
 0. 0. 0. 0.
 0. 0. 0. 0.
 0. 0. 0. 0.
 0. 0. 0. 0.
 0. 0. 0. 0.
 0. 0. 0. 0.
 0. 0. 0. 0.
 0. 0. 0. 0.
 0. 0. 0. 0.
 0. 0. 0. 0.
 0. 0. 0. 0.
 0. 0. 0. 0.
 0. 0. 0. 0.
 0. 0. 0. 0.
 0. 0. 0. 0.
 0. 0. 0. 0.
 0. 0. 0. 0.
 0. 0. 0. 0.
 0. 0. 0. 0.
 0. 0. 0. 0.
 0. 0. 0. 0.
 0. 0. 0. 0.
 0. 0. 0. 0.
 0. 0. 0. 0.
 0. 0. 0. 0.
 0. 0. 0. 0.
 0. 0. 0. 0.
 0. 0. 0. 0.
 0. 0. 0. 0.
 0. 0. 0. 0.
 0. 0. 0. 0.
 0. 0. 0. 0.
 0. 0. 0. 0.
 0. 0. 0. 0.
 0. 0. 0. 0.
 0. 0. 0. 0.
 0. 0. 0. 0.
 0. 0. 0. 0.
 0. 0. 0. 0.
 0. 0. 0. 0.
 0. 0. 0. 0.
 0. 0. 0. 0.
 0. 0. 0. 0.
 0. 0. 0. 0.
 0. 0. 0. 0.
 0. 0. 0. 0.
 0. 0. 0. 0.
 0. 0. 0. 0.
 0. 0. 0. 0.
 0. 0. 0. 0.
 0. 0. 0. 0.
 0. 0. 0. 0.
 0. 0. 0. 0.
 0. 0. 0. 0.
 0. 0. 0. 0.
 0. 0. 0. 0.
 0. 0. 0. 0.
 0. 0. 0. 0.
 0. 0. 0. 0.
 0. 0. 0. 0.
 0. 0. 0. 0.
 0. 0. 0. 0.
 0. 0. 0. 0.
 0. 0. 0. 0.
 0. 0. 0. 0.
 0. 0. 0. 0.
 0. 0. 0. 0.
 0. 0. 0. 0.
 0. 0. 0. 0.
 0. 0. 0. 0.
 0. 0. 0. 0.
 0. 0. 0. 0.
 0. 0. 0. 0.
 0. 0. 0. 0.
 0. 0. 0. 0.
 0. 0. 0. 0.
 0. 0. 0. 0.
 0. 0. 0. 0.
 0. 0. 0. 0.
 0. 0. 0. 0.
 0. 0. 0. 0.
 0. 0. 0. 0.
 0. 0. 0. 0.
 0. 0. 0. 0.
 0. 0. 0. 0.
 0. 0. 0. 0.
 0. 0. 0. 0.
 0. 0. 0. 0.
 0. 0. 0. 0.
 0. 0. 0. 0.
 0. 0. 0. 0.
 0. 0. 0. 0.
 0. 0. 0. 0.
 0. 0. 0. 0.
 0. 0. 0. 0.
 0. 0. 0. 0.
 0. 0. 0. 0.
 0. 0. 0. 0.
 0. 0. 0. 0.
 0. 0. 0. 0.
 0. 0. 0. 0.
 0. 0. 0. 0.
 0. 0. 0. 0.
 0. 0. 0. 0.
 0. 0. 0. 0.
 0. 0. 0. 0.
 0. 0. 0. 0.
 0. 0. 0. 0.
 0. 0. 0. 0.
 0. 0. 0. 0.
 0. 0. 0. 0.
 0. 0. 0. 0.
 0. 0. 0. 0.
 0. 0. 0. 0.
 0. 0. 0. 0.
 0. 0. 0. 0.
 0. 0. 0. 0.
 0. 0. 0. 0.
 0. 0. 0. 0.
 0. 0. 0. 0.
 0. 0. 0. 0.
 0. 0. 0. 0.
 0. 0. 0. 0.
 0. 0. 0. 0.
 0. 0. 0. 0.
 0. 0. 0. 0.
 0. 0. 0. 0.
 0. 0. 0. 0.
 0. 0. 0. 0.
 0. 0. 0. 0.
 0. 0. 0. 0.
 0. 0. 0. 0.
 0. 0. 0. 0.
 0. 0. 0. 0.
 0. 0. 0. 0.
 0. 0. 0. 0.
 0. 0. 0. 0.
 0. 0. 0. 0.
 0. 0. 0. 0.
 0. 0. 0. 0.
 0. 0. 0. 0.
 0. 0. 0. 0.
 0. 0. 0. 0.
 0. 0. 0. 0.
 0. 0. 0. 0.
 0. 0. 0. 0.
 0. 0. 0. 0.
 0. 0. 0. 0.
 0. 0.
   </PP_BETA.8>
   <PP_BETA.9
       type="real"
       size="1534"
       columns="4"
       index="9"
       angular_momentum="2"
       cutoff_radius_index=" 196"
       cutoff_radius="    1.9500000000E+00" >
    5.7232938831E-10   -5.0300265051E-06   -4.0256149369E-05   -1.3595264450E-04
   -3.2254314708E-04   -6.3065798124E-04   -1.0911710857E-03   -1.7352104196E-03
   -2.5941363053E-03   -3.6994828615E-03   -5.0828584878E-03   -6.7758022707E-03
   -8.8095941677E-03   -1.1215017881E-02   -1.4022076433E-02   -1.7259661580E-02
   -2.0955179332E-02   -2.5134134984E-02   -2.9819682107E-02   -3.5032141033E-02
   -4.0788493281E-02   -4.7101859260E-02   -5.3980967333E-02   -6.1429622970E-02
   -6.9446187203E-02   -7.8023073944E-02   -8.7146275947E-02   -9.6794929170E-02
   -1.0694092521E-01   -1.1754858112E-01   -1.2857437556E-01   -1.3996675934E-01
   -1.5166604797E-01   -1.6360440265E-01   -1.7570590508E-01   -1.8788673041E-01
   -2.0005542122E-01   -2.1211326415E-01   -2.2395476927E-01   -2.3546825091E-01
   -2.4653650707E-01   -2.5703759304E-01   -2.6684568350E-01   -2.7583201586E-01
   -2.8386590622E-01   -2.9081582822E-01   -2.9655054374E-01   -3.0094027355E-01
   -3.0385789523E-01   -3.0518015459E-01   -3.0478887698E-01   -3.0257216396E-01
   -2.9842556110E-01   -2.9225318255E-01   -2.8396877840E-01   -2.7349673148E-01
   -2.6077297066E-01   -2.4574578892E-01   -2.2837655524E-01   -2.0864031099E-01
   -1.8652624239E-01   -1.6203802257E-01   -1.3519401815E-01   -1.0602735705E-01
   -7.4585856044E-02   -4.0931808248E-02   -5.1416328269E-03    3.2694609301E-02
    7.2473828003E-02    1.1408063735E-01    1.5738820093E-01    2.0225917869E-01
    2.4854676338E-01    2.9609579385E-01    3.4474393117E-01    3.9432288298E-01
    4.4465966071E-01    4.9557785419E-01    5.4689890794E-01    5.9844338347E-01
    6.5003219251E-01    7.0148778638E-01    7.5263528775E-01    8.0330355192E-01
    8.5332614601E-01    9.0254223569E-01    9.5079737091E-01    9.9794416339E-01
    1.0438428506E+00    1.0883617430E+00    1.1313775524E+00    1.1727756029E+00
    1.2124499253E+00    1.2503032400E+00    1.2862468348E+00    1.3202003436E+00
    1.3520914369E+00    1.3818554336E+00    1.4094348468E+00    1.4347788756E+00
    1.4578428572E+00    1.4785876935E+00    1.4969792664E+00    1.5129878575E+00
    1.5265875854E+00    1.5377558752E+00    1.5464729749E+00    1.5527215286E+00
    1.5564862207E+00    1.5577534985E+00    1.5565113843E+00    1.5527493806E+00
    1.5464584767E+00    1.5376312568E+00    1.5262621113E+00    1.5123475513E+00
    1.4958866207E+00    1.4768814023E+00    1.4553376086E+00    1.4312652499E+00
    1.4046793666E+00    1.3756008133E+00    1.3440570803E+00    1.3100831376E+00
    1.2737222822E+00    1.2350269745E+00    1.1940596431E+00    1.1508934409E+00
    1.1056129345E+00    1.0583147094E+00    1.0091078730E+00    9.5811444115E-01
    9.0546959165E-01    8.5132177387E-01    7.9583266152E-01    7.3917694039E-01
    6.8154192403E-01    6.2312699305E-01    5.6414285610E-01    5.0481063372E-01
    4.4536076850E-01    3.8603176818E-01    3.2706879074E-01    2.6872208351E-01
    2.1124529080E-01    1.5489364689E-01    9.9922073753E-02    4.6583201901E-02
   -4.8746411870E-03   -5.4209854320E-02   -1.0119130083E-01   -1.4560146814E-01
   -1.8723856476E-01   -2.2591854290E-01   -2.6147700630E-01   -2.9377098555E-01
   -3.2268055608E-01   -3.4811027442E-01   -3.6999041061E-01   -3.8827795649E-01
   -4.0295739177E-01   -4.1404119267E-01   -4.2157007042E-01   -4.2561293031E-01
   -4.2626654495E-01   -4.2365493907E-01   -4.1792848638E-01   -4.0926272283E-01
   -3.9785688393E-01   -3.8393217746E-01   -3.6772980620E-01   -3.4950875857E-01
   -3.2954338829E-01   -3.0812080684E-01   -2.8553811519E-01   -2.6209950366E-01
   -2.3811325051E-01   -2.1388865150E-01   -1.8973291153E-01   -1.6594805515E-01
   -1.4282780569E-01   -1.2065463399E-01   -9.9698618821E-02   -8.0219329462E-02
   -6.2447185917E-02   -4.6587916682E-02   -3.2824176800E-02   -2.1312970377E-02
   -1.2186911542E-02   -5.5284357288E-03   -1.4577679472E-03    1.9061622423E-05
    4.2982051489E-05   -2.3793957269E-05    5.5115234479E-06   -1.3417143559E-07
 0. 0. 0. 0.
 0. 0. 0. 0.
 0. 0. 0. 0.
 0. 0. 0. 0.
 0. 0. 0. 0.
 0. 0. 0. 0.
 0. 0. 0. 0.
 0. 0. 0. 0.
 0. 0. 0. 0.
 0. 0. 0. 0.
 0. 0. 0. 0.
 0. 0. 0. 0.
 0. 0. 0. 0.
 0. 0. 0. 0.
 0. 0. 0. 0.
 0. 0. 0. 0.
 0. 0. 0. 0.
 0. 0. 0. 0.
 0. 0. 0. 0.
 0. 0. 0. 0.
 0. 0. 0. 0.
 0. 0. 0. 0.
 0. 0. 0. 0.
 0. 0. 0. 0.
 0. 0. 0. 0.
 0. 0. 0. 0.
 0. 0. 0. 0.
 0. 0. 0. 0.
 0. 0. 0. 0.
 0. 0. 0. 0.
 0. 0. 0. 0.
 0. 0. 0. 0.
 0. 0. 0. 0.
 0. 0. 0. 0.
 0. 0. 0. 0.
 0. 0. 0. 0.
 0. 0. 0. 0.
 0. 0. 0. 0.
 0. 0. 0. 0.
 0. 0. 0. 0.
 0. 0. 0. 0.
 0. 0. 0. 0.
 0. 0. 0. 0.
 0. 0. 0. 0.
 0. 0. 0. 0.
 0. 0. 0. 0.
 0. 0. 0. 0.
 0. 0. 0. 0.
 0. 0. 0. 0.
 0. 0. 0. 0.
 0. 0. 0. 0.
 0. 0. 0. 0.
 0. 0. 0. 0.
 0. 0. 0. 0.
 0. 0. 0. 0.
 0. 0. 0. 0.
 0. 0. 0. 0.
 0. 0. 0. 0.
 0. 0. 0. 0.
 0. 0. 0. 0.
 0. 0. 0. 0.
 0. 0. 0. 0.
 0. 0. 0. 0.
 0. 0. 0. 0.
 0. 0. 0. 0.
 0. 0. 0. 0.
 0. 0. 0. 0.
 0. 0. 0. 0.
 0. 0. 0. 0.
 0. 0. 0. 0.
 0. 0. 0. 0.
 0. 0. 0. 0.
 0. 0. 0. 0.
 0. 0. 0. 0.
 0. 0. 0. 0.
 0. 0. 0. 0.
 0. 0. 0. 0.
 0. 0. 0. 0.
 0. 0. 0. 0.
 0. 0. 0. 0.
 0. 0. 0. 0.
 0. 0. 0. 0.
 0. 0. 0. 0.
 0. 0. 0. 0.
 0. 0. 0. 0.
 0. 0. 0. 0.
 0. 0. 0. 0.
 0. 0. 0. 0.
 0. 0. 0. 0.
 0. 0. 0. 0.
 0. 0. 0. 0.
 0. 0. 0. 0.
 0. 0. 0. 0.
 0. 0. 0. 0.
 0. 0. 0. 0.
 0. 0. 0. 0.
 0. 0. 0. 0.
 0. 0. 0. 0.
 0. 0. 0. 0.
 0. 0. 0. 0.
 0. 0. 0. 0.
 0. 0. 0. 0.
 0. 0. 0. 0.
 0. 0. 0. 0.
 0. 0. 0. 0.
 0. 0. 0. 0.
 0. 0. 0. 0.
 0. 0. 0. 0.
 0. 0. 0. 0.
 0. 0. 0. 0.
 0. 0. 0. 0.
 0. 0. 0. 0.
 0. 0. 0. 0.
 0. 0. 0. 0.
 0. 0. 0. 0.
 0. 0. 0. 0.
 0. 0. 0. 0.
 0. 0. 0. 0.
 0. 0. 0. 0.
 0. 0. 0. 0.
 0. 0. 0. 0.
 0. 0. 0. 0.
 0. 0. 0. 0.
 0. 0. 0. 0.
 0. 0. 0. 0.
 0. 0. 0. 0.
 0. 0. 0. 0.
 0. 0. 0. 0.
 0. 0. 0. 0.
 0. 0. 0. 0.
 0. 0. 0. 0.
 0. 0. 0. 0.
 0. 0. 0. 0.
 0. 0. 0. 0.
 0. 0. 0. 0.
 0. 0. 0. 0.
 0. 0. 0. 0.
 0. 0. 0. 0.
 0. 0. 0. 0.
 0. 0. 0. 0.
 0. 0. 0. 0.
 0. 0. 0. 0.
 0. 0. 0. 0.
 0. 0. 0. 0.
 0. 0. 0. 0.
 0. 0. 0. 0.
 0. 0. 0. 0.
 0. 0. 0. 0.
 0. 0. 0. 0.
 0. 0. 0. 0.
 0. 0. 0. 0.
 0. 0. 0. 0.
 0. 0. 0. 0.
 0. 0. 0. 0.
 0. 0. 0. 0.
 0. 0. 0. 0.
 0. 0. 0. 0.
 0. 0. 0. 0.
 0. 0. 0. 0.
 0. 0. 0. 0.
 0. 0. 0. 0.
 0. 0. 0. 0.
 0. 0. 0. 0.
 0. 0. 0. 0.
 0. 0. 0. 0.
 0. 0. 0. 0.
 0. 0. 0. 0.
 0. 0. 0. 0.
 0. 0. 0. 0.
 0. 0. 0. 0.
 0. 0. 0. 0.
 0. 0. 0. 0.
 0. 0. 0. 0.
 0. 0. 0. 0.
 0. 0. 0. 0.
 0. 0. 0. 0.
 0. 0. 0. 0.
 0. 0. 0. 0.
 0. 0. 0. 0.
 0. 0. 0. 0.
 0. 0. 0. 0.
 0. 0. 0. 0.
 0. 0. 0. 0.
 0. 0. 0. 0.
 0. 0. 0. 0.
 0. 0. 0. 0.
 0. 0. 0. 0.
 0. 0. 0. 0.
 0. 0. 0. 0.
 0. 0. 0. 0.
 0. 0. 0. 0.
 0. 0. 0. 0.
 0. 0. 0. 0.
 0. 0. 0. 0.
 0. 0. 0. 0.
 0. 0. 0. 0.
 0. 0. 0. 0.
 0. 0. 0. 0.
 0. 0. 0. 0.
 0. 0. 0. 0.
 0. 0. 0. 0.
 0. 0. 0. 0.
 0. 0. 0. 0.
 0. 0. 0. 0.
 0. 0. 0. 0.
 0. 0. 0. 0.
 0. 0. 0. 0.
 0. 0. 0. 0.
 0. 0. 0. 0.
 0. 0. 0. 0.
 0. 0. 0. 0.
 0. 0. 0. 0.
 0. 0. 0. 0.
 0. 0. 0. 0.
 0. 0. 0. 0.
 0. 0. 0. 0.
 0. 0. 0. 0.
 0. 0. 0. 0.
 0. 0. 0. 0.
 0. 0. 0. 0.
 0. 0. 0. 0.
 0. 0. 0. 0.
 0. 0. 0. 0.
 0. 0. 0. 0.
 0. 0. 0. 0.
 0. 0. 0. 0.
 0. 0. 0. 0.
 0. 0. 0. 0.
 0. 0. 0. 0.
 0. 0. 0. 0.
 0. 0. 0. 0.
 0. 0. 0. 0.
 0. 0. 0. 0.
 0. 0. 0. 0.
 0. 0. 0. 0.
 0. 0. 0. 0.
 0. 0. 0. 0.
 0. 0. 0. 0.
 0. 0. 0. 0.
 0. 0. 0. 0.
 0. 0. 0. 0.
 0. 0. 0. 0.
 0. 0. 0. 0.
 0. 0. 0. 0.
 0. 0. 0. 0.
 0. 0. 0. 0.
 0. 0. 0. 0.
 0. 0. 0. 0.
 0. 0. 0. 0.
 0. 0. 0. 0.
 0. 0. 0. 0.
 0. 0. 0. 0.
 0. 0. 0. 0.
 0. 0. 0. 0.
 0. 0. 0. 0.
 0. 0. 0. 0.
 0. 0. 0. 0.
 0. 0. 0. 0.
 0. 0. 0. 0.
 0. 0. 0. 0.
 0. 0. 0. 0.
 0. 0. 0. 0.
 0. 0. 0. 0.
 0. 0. 0. 0.
 0. 0. 0. 0.
 0. 0. 0. 0.
 0. 0. 0. 0.
 0. 0. 0. 0.
 0. 0. 0. 0.
 0. 0. 0. 0.
 0. 0. 0. 0.
 0. 0. 0. 0.
 0. 0. 0. 0.
 0. 0. 0. 0.
 0. 0. 0. 0.
 0. 0. 0. 0.
 0. 0. 0. 0.
 0. 0. 0. 0.
 0. 0. 0. 0.
 0. 0. 0. 0.
 0. 0. 0. 0.
 0. 0. 0. 0.
 0. 0. 0. 0.
 0. 0. 0. 0.
 0. 0. 0. 0.
 0. 0. 0. 0.
 0. 0. 0. 0.
 0. 0. 0. 0.
 0. 0. 0. 0.
 0. 0. 0. 0.
 0. 0. 0. 0.
 0. 0. 0. 0.
 0. 0. 0. 0.
 0. 0. 0. 0.
 0. 0. 0. 0.
 0. 0. 0. 0.
 0. 0. 0. 0.
 0. 0. 0. 0.
 0. 0. 0. 0.
 0. 0. 0. 0.
 0. 0. 0. 0.
 0. 0. 0. 0.
 0. 0. 0. 0.
 0. 0. 0. 0.
 0. 0. 0. 0.
 0. 0. 0. 0.
 0. 0. 0. 0.
 0. 0. 0. 0.
 0. 0. 0. 0.
 0. 0. 0. 0.
 0. 0. 0. 0.
 0. 0. 0. 0.
 0. 0. 0. 0.
 0. 0. 0. 0.
 0. 0. 0. 0.
 0. 0. 0. 0.
 0. 0. 0. 0.
 0. 0. 0. 0.
 0. 0. 0. 0.
 0. 0. 0. 0.
 0. 0. 0. 0.
 0. 0. 0. 0.
 0. 0. 0. 0.
 0. 0. 0. 0.
 0. 0. 0. 0.
 0. 0. 0. 0.
 0. 0. 0. 0.
 0. 0. 0. 0.
 0. 0. 0. 0.
 0. 0. 0. 0.
 0. 0. 0. 0.
 0. 0. 0. 0.
 0. 0. 0. 0.
 0. 0. 0. 0.
 0. 0.
   </PP_BETA.9>
   <PP_BETA.10
       type="real"
       size="1534"
       columns="4"
       index="10"
       angular_momentum="2"
       cutoff_radius_index=" 196"
       cutoff_radius="    1.9500000000E+00" >
    5.7178975920E-10   -5.0374316441E-06   -4.0315282343E-05   -1.3615161185E-04
   -3.2301277007E-04   -6.3157021348E-04   -1.0927369426E-03   -1.7376774529E-03
   -2.5977856621E-03   -3.7046259747E-03   -5.0898334508E-03   -6.7849699525E-03
   -8.8213341302E-03   -1.1229724162E-02   -1.4040153260E-02   -1.7281519083E-02
   -2.0981229322E-02   -2.5164786851E-02   -2.9855338920E-02   -3.5073195878E-02
   -4.0835325906E-02   -4.7154833065E-02   -5.4040426750E-02   -6.1495891270E-02
   -6.9519564749E-02   -7.8103836917E-02   -8.7234675544E-02   -9.6891191287E-02
   -1.0704525059E-01   -1.1766114597E-01   -1.2869533255E-01   -1.4009623906E-01
   -1.5180416072E-01   -1.6375124052E-01   -1.7586154428E-01   -1.8805123382E-01
   -2.0022884109E-01   -2.1229564479E-01   -2.2414614983E-01   -2.3566866805E-01
   -2.4674599746E-01   -2.5725619571E-01   -2.6707344193E-01   -2.7606897967E-01
   -2.8411213257E-01   -2.9107138270E-01   -2.9681550086E-01   -3.0121471672E-01
   -3.0414191613E-01   -3.0547385211E-01   -3.0509235556E-01   -3.0288553140E-01
   -2.9874892581E-01   -2.9258665034E-01   -2.8431244881E-01   -2.7385069363E-01
   -2.6113729878E-01   -2.4612053753E-01   -2.2876175413E-01   -2.0903596001E-01
   -1.8693230613E-01   -1.6245442507E-01   -1.3562063770E-01   -1.0646402112E-01
   -7.5032336482E-02   -4.1387816876E-02   -5.6068174040E-03    3.2220668574E-02
    7.1991621394E-02    1.1359072785E-01    1.5689122583E-01    2.0175585030E-01
    2.4803786903E-01    2.9558219503E-01    3.4422656178E-01    3.9380274675E-01
    4.4413782771E-01    4.9505545656E-01    5.4637713474E-01    5.9792347480E-01
    6.4951543286E-01    7.0097549734E-01    7.5212882015E-01    8.0280427744E-01
    8.5283544836E-01    9.0206150150E-01    9.5032798037E-01    9.9748748081E-01
    1.0434002150E+00    1.0879344585E+00    1.1309668795E+00    1.1723827493E+00
    1.2120760375E+00    1.2499493959E+00    1.2859140358E+00    1.3198895084E+00
    1.3518033954E+00    1.3815909223E+00    1.4091945044E+00    1.4345632397E+00
    1.4576523623E+00    1.4784226696E+00    1.4968399385E+00    1.5128743464E+00
    1.5264999089E+00    1.5376939506E+00    1.5464366222E+00    1.5527104742E+00
    1.5565001021E+00    1.5577918697E+00    1.5565737209E+00    1.5528350865E+00
    1.5465668902E+00    1.5377616570E+00    1.5264137252E+00    1.5125195604E+00
    1.4960781675E+00    1.4770915965E+00    1.4555655337E+00    1.4315099688E+00
    1.4049399265E+00    1.3758762510E+00    1.3443464263E+00    1.3103854194E+00
    1.2740365280E+00    1.2353522151E+00    1.1943949136E+00    1.1512377822E+00
    1.1059653938E+00    1.0586743401E+00    1.0094737344E+00    9.5848559745E-01
    9.0584511126E-01    8.5170072777E-01    7.9621412196E-01    7.3955997953E-01
    6.8192561271E-01    6.2351039983E-01    5.6452504676E-01    5.0519067129E-01
    4.4573771397E-01    3.8640468202E-01    3.2743673538E-01    2.6908412694E-01
    2.1160051129E-01    1.5524113903E-01    1.0026095595E-01    4.6912625244E-02
   -4.5554823495E-03   -5.3901712101E-02   -1.0089487063E-01   -1.4531738998E-01
   -1.8696742410E-01   -2.2566087099E-01   -2.6123327991E-01   -2.9354162636E-01
   -3.2246592958E-01   -3.4791068842E-01   -3.6980611358E-01   -3.8810913560E-01
   -4.0280417089E-01   -4.1390363034E-01   -4.2144815792E-01   -4.2550658992E-01
   -4.2617562854E-01   -4.2357922706E-01   -4.1786768723E-01   -4.0921647309E-01
   -3.9782474900E-01   -3.8391365309E-01   -3.6772432078E-01   -3.4951567634E-01
   -3.2956201337E-01   -3.0815038825E-01   -2.8557785280E-01   -2.6214855502E-01
   -2.3817073857E-01   -2.1395367323E-01   -1.8980454729E-01   -1.6602537880E-01
   -1.4290989521E-01   -1.2074058277E-01   -9.9787555627E-02   -8.0310461243E-02
   -6.2539765095E-02   -4.6681239765E-02   -3.2917600521E-02   -2.1405924622E-02
   -1.2279057000E-02   -5.6182724403E-03   -1.5479912210E-03   -7.0715130605E-05
    2.8287294316E-05   -1.7141511540E-05    3.5955211169E-06    9.0136600775E-08
 0. 0. 0. 0.
 0. 0. 0. 0.
 0. 0. 0. 0.
 0. 0. 0. 0.
 0. 0. 0. 0.
 0. 0. 0. 0.
 0. 0. 0. 0.
 0. 0. 0. 0.
 0. 0. 0. 0.
 0. 0. 0. 0.
 0. 0. 0. 0.
 0. 0. 0. 0.
 0. 0. 0. 0.
 0. 0. 0. 0.
 0. 0. 0. 0.
 0. 0. 0. 0.
 0. 0. 0. 0.
 0. 0. 0. 0.
 0. 0. 0. 0.
 0. 0. 0. 0.
 0. 0. 0. 0.
 0. 0. 0. 0.
 0. 0. 0. 0.
 0. 0. 0. 0.
 0. 0. 0. 0.
 0. 0. 0. 0.
 0. 0. 0. 0.
 0. 0. 0. 0.
 0. 0. 0. 0.
 0. 0. 0. 0.
 0. 0. 0. 0.
 0. 0. 0. 0.
 0. 0. 0. 0.
 0. 0. 0. 0.
 0. 0. 0. 0.
 0. 0. 0. 0.
 0. 0. 0. 0.
 0. 0. 0. 0.
 0. 0. 0. 0.
 0. 0. 0. 0.
 0. 0. 0. 0.
 0. 0. 0. 0.
 0. 0. 0. 0.
 0. 0. 0. 0.
 0. 0. 0. 0.
 0. 0. 0. 0.
 0. 0. 0. 0.
 0. 0. 0. 0.
 0. 0. 0. 0.
 0. 0. 0. 0.
 0. 0. 0. 0.
 0. 0. 0. 0.
 0. 0. 0. 0.
 0. 0. 0. 0.
 0. 0. 0. 0.
 0. 0. 0. 0.
 0. 0. 0. 0.
 0. 0. 0. 0.
 0. 0. 0. 0.
 0. 0. 0. 0.
 0. 0. 0. 0.
 0. 0. 0. 0.
 0. 0. 0. 0.
 0. 0. 0. 0.
 0. 0. 0. 0.
 0. 0. 0. 0.
 0. 0. 0. 0.
 0. 0. 0. 0.
 0. 0. 0. 0.
 0. 0. 0. 0.
 0. 0. 0. 0.
 0. 0. 0. 0.
 0. 0. 0. 0.
 0. 0. 0. 0.
 0. 0. 0. 0.
 0. 0. 0. 0.
 0. 0. 0. 0.
 0. 0. 0. 0.
 0. 0. 0. 0.
 0. 0. 0. 0.
 0. 0. 0. 0.
 0. 0. 0. 0.
 0. 0. 0. 0.
 0. 0. 0. 0.
 0. 0. 0. 0.
 0. 0. 0. 0.
 0. 0. 0. 0.
 0. 0. 0. 0.
 0. 0. 0. 0.
 0. 0. 0. 0.
 0. 0. 0. 0.
 0. 0. 0. 0.
 0. 0. 0. 0.
 0. 0. 0. 0.
 0. 0. 0. 0.
 0. 0. 0. 0.
 0. 0. 0. 0.
 0. 0. 0. 0.
 0. 0. 0. 0.
 0. 0. 0. 0.
 0. 0. 0. 0.
 0. 0. 0. 0.
 0. 0. 0. 0.
 0. 0. 0. 0.
 0. 0. 0. 0.
 0. 0. 0. 0.
 0. 0. 0. 0.
 0. 0. 0. 0.
 0. 0. 0. 0.
 0. 0. 0. 0.
 0. 0. 0. 0.
 0. 0. 0. 0.
 0. 0. 0. 0.
 0. 0. 0. 0.
 0. 0. 0. 0.
 0. 0. 0. 0.
 0. 0. 0. 0.
 0. 0. 0. 0.
 0. 0. 0. 0.
 0. 0. 0. 0.
 0. 0. 0. 0.
 0. 0. 0. 0.
 0. 0. 0. 0.
 0. 0. 0. 0.
 0. 0. 0. 0.
 0. 0. 0. 0.
 0. 0. 0. 0.
 0. 0. 0. 0.
 0. 0. 0. 0.
 0. 0. 0. 0.
 0. 0. 0. 0.
 0. 0. 0. 0.
 0. 0. 0. 0.
 0. 0. 0. 0.
 0. 0. 0. 0.
 0. 0. 0. 0.
 0. 0. 0. 0.
 0. 0. 0. 0.
 0. 0. 0. 0.
 0. 0. 0. 0.
 0. 0. 0. 0.
 0. 0. 0. 0.
 0. 0. 0. 0.
 0. 0. 0. 0.
 0. 0. 0. 0.
 0. 0. 0. 0.
 0. 0. 0. 0.
 0. 0. 0. 0.
 0. 0. 0. 0.
 0. 0. 0. 0.
 0. 0. 0. 0.
 0. 0. 0. 0.
 0. 0. 0. 0.
 0. 0. 0. 0.
 0. 0. 0. 0.
 0. 0. 0. 0.
 0. 0. 0. 0.
 0. 0. 0. 0.
 0. 0. 0. 0.
 0. 0. 0. 0.
 0. 0. 0. 0.
 0. 0. 0. 0.
 0. 0. 0. 0.
 0. 0. 0. 0.
 0. 0. 0. 0.
 0. 0. 0. 0.
 0. 0. 0. 0.
 0. 0. 0. 0.
 0. 0. 0. 0.
 0. 0. 0. 0.
 0. 0. 0. 0.
 0. 0. 0. 0.
 0. 0. 0. 0.
 0. 0. 0. 0.
 0. 0. 0. 0.
 0. 0. 0. 0.
 0. 0. 0. 0.
 0. 0. 0. 0.
 0. 0. 0. 0.
 0. 0. 0. 0.
 0. 0. 0. 0.
 0. 0. 0. 0.
 0. 0. 0. 0.
 0. 0. 0. 0.
 0. 0. 0. 0.
 0. 0. 0. 0.
 0. 0. 0. 0.
 0. 0. 0. 0.
 0. 0. 0. 0.
 0. 0. 0. 0.
 0. 0. 0. 0.
 0. 0. 0. 0.
 0. 0. 0. 0.
 0. 0. 0. 0.
 0. 0. 0. 0.
 0. 0. 0. 0.
 0. 0. 0. 0.
 0. 0. 0. 0.
 0. 0. 0. 0.
 0. 0. 0. 0.
 0. 0. 0. 0.
 0. 0. 0. 0.
 0. 0. 0. 0.
 0. 0. 0. 0.
 0. 0. 0. 0.
 0. 0. 0. 0.
 0. 0. 0. 0.
 0. 0. 0. 0.
 0. 0. 0. 0.
 0. 0. 0. 0.
 0. 0. 0. 0.
 0. 0. 0. 0.
 0. 0. 0. 0.
 0. 0. 0. 0.
 0. 0. 0. 0.
 0. 0. 0. 0.
 0. 0. 0. 0.
 0. 0. 0. 0.
 0. 0. 0. 0.
 0. 0. 0. 0.
 0. 0. 0. 0.
 0. 0. 0. 0.
 0. 0. 0. 0.
 0. 0. 0. 0.
 0. 0. 0. 0.
 0. 0. 0. 0.
 0. 0. 0. 0.
 0. 0. 0. 0.
 0. 0. 0. 0.
 0. 0. 0. 0.
 0. 0. 0. 0.
 0. 0. 0. 0.
 0. 0. 0. 0.
 0. 0. 0. 0.
 0. 0. 0. 0.
 0. 0. 0. 0.
 0. 0. 0. 0.
 0. 0. 0. 0.
 0. 0. 0. 0.
 0. 0. 0. 0.
 0. 0. 0. 0.
 0. 0. 0. 0.
 0. 0. 0. 0.
 0. 0. 0. 0.
 0. 0. 0. 0.
 0. 0. 0. 0.
 0. 0. 0. 0.
 0. 0. 0. 0.
 0. 0. 0. 0.
 0. 0. 0. 0.
 0. 0. 0. 0.
 0. 0. 0. 0.
 0. 0. 0. 0.
 0. 0. 0. 0.
 0. 0. 0. 0.
 0. 0. 0. 0.
 0. 0. 0. 0.
 0. 0. 0. 0.
 0. 0. 0. 0.
 0. 0. 0. 0.
 0. 0. 0. 0.
 0. 0. 0. 0.
 0. 0. 0. 0.
 0. 0. 0. 0.
 0. 0. 0. 0.
 0. 0. 0. 0.
 0. 0. 0. 0.
 0. 0. 0. 0.
 0. 0. 0. 0.
 0. 0. 0. 0.
 0. 0. 0. 0.
 0. 0. 0. 0.
 0. 0. 0. 0.
 0. 0. 0. 0.
 0. 0. 0. 0.
 0. 0. 0. 0.
 0. 0. 0. 0.
 0. 0. 0. 0.
 0. 0. 0. 0.
 0. 0. 0. 0.
 0. 0. 0. 0.
 0. 0. 0. 0.
 0. 0. 0. 0.
 0. 0. 0. 0.
 0. 0. 0. 0.
 0. 0. 0. 0.
 0. 0. 0. 0.
 0. 0. 0. 0.
 0. 0. 0. 0.
 0. 0. 0. 0.
 0. 0. 0. 0.
 0. 0. 0. 0.
 0. 0. 0. 0.
 0. 0. 0. 0.
 0. 0. 0. 0.
 0. 0. 0. 0.
 0. 0. 0. 0.
 0. 0. 0. 0.
 0. 0. 0. 0.
 0. 0. 0. 0.
 0. 0. 0. 0.
 0. 0. 0. 0.
 0. 0. 0. 0.
 0. 0. 0. 0.
 0. 0. 0. 0.
 0. 0. 0. 0.
 0. 0. 0. 0.
 0. 0. 0. 0.
 0. 0. 0. 0.
 0. 0. 0. 0.
 0. 0. 0. 0.
 0. 0. 0. 0.
 0. 0. 0. 0.
 0. 0. 0. 0.
 0. 0. 0. 0.
 0. 0. 0. 0.
 0. 0. 0. 0.
 0. 0. 0. 0.
 0. 0. 0. 0.
 0. 0. 0. 0.
 0. 0. 0. 0.
 0. 0. 0. 0.
 0. 0. 0. 0.
 0. 0. 0. 0.
 0. 0. 0. 0.
 0. 0. 0. 0.
 0. 0. 0. 0.
 0. 0. 0. 0.
 0. 0. 0. 0.
 0. 0. 0. 0.
 0. 0. 0. 0.
 0. 0. 0. 0.
 0. 0. 0. 0.
 0. 0. 0. 0.
 0. 0.
   </PP_BETA.10>
   <PP_DIJ type="real"  size=" 100" columns="4">
    7.3908339303E+00    0.0000000000E+00    0.0000000000E+00    0.0000000000E+00
    0.0000000000E+00    0.0000000000E+00    0.0000000000E+00    0.0000000000E+00
    0.0000000000E+00    0.0000000000E+00    0.0000000000E+00   -1.0582951796E+00
    0.0000000000E+00    0.0000000000E+00    0.0000000000E+00    0.0000000000E+00
    0.0000000000E+00    0.0000000000E+00    0.0000000000E+00    0.0000000000E+00
    0.0000000000E+00    0.0000000000E+00   -2.2665847309E+00    0.0000000000E+00
    0.0000000000E+00    0.0000000000E+00    0.0000000000E+00    0.0000000000E+00
    0.0000000000E+00    0.0000000000E+00    0.0000000000E+00    0.0000000000E+00
    0.0000000000E+00   -2.1467675918E+00    0.0000000000E+00    0.0000000000E+00
    0.0000000000E+00    0.0000000000E+00    0.0000000000E+00    0.0000000000E+00
    0.0000000000E+00    0.0000000000E+00    0.0000000000E+00    0.0000000000E+00
   -4.5578108222E-01    0.0000000000E+00    0.0000000000E+00    0.0000000000E+00
    0.0000000000E+00    0.0000000000E+00    0.0000000000E+00    0.0000000000E+00
    0.0000000000E+00    0.0000000000E+00    0.0000000000E+00   -4.2329224585E-01
    0.0000000000E+00    0.0000000000E+00    0.0000000000E+00    0.0000000000E+00
    0.0000000000E+00    0.0000000000E+00    0.0000000000E+00    0.0000000000E+00
    0.0000000000E+00    0.0000000000E+00   -9.7930001202E+00    0.0000000000E+00
    0.0000000000E+00    0.0000000000E+00    0.0000000000E+00    0.0000000000E+00
    0.0000000000E+00    0.0000000000E+00    0.0000000000E+00    0.0000000000E+00
    0.0000000000E+00   -9.7702252456E+00    0.0000000000E+00    0.0000000000E+00
    0.0000000000E+00    0.0000000000E+00    0.0000000000E+00    0.0000000000E+00
    0.0000000000E+00    0.0000000000E+00    0.0000000000E+00    0.0000000000E+00
   -2.9563884591E+00    0.0000000000E+00    0.0000000000E+00    0.0000000000E+00
    0.0000000000E+00    0.0000000000E+00    0.0000000000E+00    0.0000000000E+00
    0.0000000000E+00    0.0000000000E+00    0.0000000000E+00   -2.9457616958E+00
   </PP_DIJ>
 </PP_NONLOCAL>
 <PP_PSWFC>
   <PP_CHI.1
       type="real"
       size="1534"
       columns="4"
       index="1"
       occupation=" 2.000"
       pseudo_energy="   -0.5161273720E+01"
       label="3S"
       l="0" >
    1.0730305533E-12    1.8056227521E-02    3.6110847859E-02    5.4162234923E-02
    7.2208724902E-02    9.0248597615E-02    1.0828005813E-01    1.2630121872E-01
    1.4431008124E-01    1.6230452004E-01    1.8028226544E-01    1.9824088787E-01
    2.1617778274E-01    2.3409015620E-01    2.5197501165E-01    2.6982913729E-01
    2.8764909463E-01    3.0543120809E-01    3.2317155570E-01    3.4086596091E-01
    3.5850998570E-01    3.7609892483E-01    3.9362780146E-01    4.1109136395E-01
    4.2848408411E-01    4.4580015671E-01    4.6303350032E-01    4.8017775962E-01
    4.9722630891E-01    5.1417225709E-01    5.3100845395E-01    5.4772749774E-01
    5.6432174409E-01    5.8078331620E-01    5.9710411623E-01    6.1327583794E-01
    6.2928998049E-01    6.4513786331E-01    6.6081064211E-01    6.7629932581E-01
    6.9159479448E-01    7.0668781818E-01    7.2156907652E-01    7.3622917911E-01
    7.5065868654E-01    7.6484813205E-01    7.7878804370E-01    7.9246896697E-01
    8.0588148768E-01    8.1901625527E-01    8.3186400618E-01    8.4441558737E-01
    8.5666197983E-01    8.6859432208E-01    8.8020393345E-01    8.9148233713E-01
    9.0242128290E-01    9.1301276949E-01    9.2324906637E-01    9.3312273503E-01
    9.4262664963E-01    9.5175401686E-01    9.6049839506E-01    9.6885371251E-01
    9.7681428468E-01    9.8437483065E-01    9.9153048837E-01    9.9827682887E-01
    1.0046098693E+00    1.0105260850E+00    1.0160224196E+00    1.0210962953E+00
    1.0257456200E+00    1.0299687948E+00    1.0337647191E+00    1.0371327947E+00
    1.0400729288E+00    1.0425855350E+00    1.0446715335E+00    1.0463323497E+00
    1.0475699115E+00    1.0483866455E+00    1.0487854712E+00    1.0487697947E+00
    1.0483435008E+00    1.0475109436E+00    1.0462769368E+00    1.0446467416E+00
    1.0426260548E+00    1.0402209947E+00    1.0374380871E+00    1.0342842492E+00
    1.0307667739E+00    1.0268933123E+00    1.0226718559E+00    1.0181107178E+00
    1.0132185139E+00    1.0080041430E+00    1.0024767667E+00    9.9664578853E-01
    9.9052083360E-01    9.8411172695E-01    9.7742847248E-01    9.7048123151E-01
    9.6328030126E-01    9.5583609348E-01    9.4815911314E-01    9.4025993727E-01
    9.3214919408E-01    9.2383754236E-01    9.1533565125E-01    9.0665418045E-01
    8.9780376086E-01    8.8879497582E-01    8.7963834286E-01    8.7034429613E-01
    8.6092316949E-01    8.5138518025E-01    8.4174041375E-01    8.3199880863E-01
    8.2217014292E-01    8.1226402102E-01    8.0228986141E-01    7.9225688527E-01
    7.8217410603E-01    7.7205031968E-01    7.6189409601E-01    7.5171377077E-01
    7.4151743862E-01    7.3131294697E-01    7.2110789072E-01    7.1090960772E-01
    7.0072517519E-01    6.9056140675E-01    6.8042485041E-01    6.7032178713E-01
    6.6025823016E-01    6.5023992505E-01    6.4027235028E-01    6.3036071848E-01
    6.2050997820E-01    6.1072481623E-01    6.0100966035E-01    5.9136868253E-01
    5.8180580251E-01    5.7232469173E-01    5.6292877752E-01    5.5362124762E-01
    5.4440505479E-01    5.3528292170E-01    5.2625734588E-01    5.1733060476E-01
    5.0850476072E-01    4.9978166619E-01    4.9116296870E-01    4.8265011578E-01
    4.7424435988E-01    4.6594676304E-01    4.5775820147E-01    4.4967936983E-01
    4.4171078530E-01    4.3385279163E-01    4.2610556288E-01    4.1846910684E-01
    4.1094326830E-01    4.0352773175E-01    3.9622202511E-01    3.8902554203E-01
    3.8193760211E-01    3.7495748610E-01    3.6808443263E-01    3.6131764280E-01
    3.5465628270E-01    3.4809948593E-01    3.4164635608E-01    3.3529596910E-01
    3.2904737550E-01    3.2289960248E-01    3.1685165598E-01    3.1090252256E-01
    3.0505117128E-01    2.9929655541E-01    2.9363761412E-01    2.8807327399E-01
    2.8260245056E-01    2.7722404971E-01    2.7193696902E-01    2.6674009902E-01
    2.6163232443E-01    2.5661252524E-01    2.5167957785E-01    2.4683235604E-01
    2.4206973195E-01    2.3739057701E-01    2.3279376277E-01    2.2827816171E-01
    2.2384264804E-01    2.1948609837E-01    2.1520739243E-01    2.1100541370E-01
    2.0687905000E-01    2.0282719406E-01    1.9884874406E-01    1.9494260414E-01
    1.9110768484E-01    1.8734290358E-01    1.8364718504E-01    1.8001946157E-01
    1.7645867353E-01    1.7296376968E-01    1.6953370741E-01    1.6616745312E-01
    1.6286398245E-01    1.5962228054E-01    1.5644134228E-01    1.5332017250E-01
    1.5025778619E-01    1.4725320869E-01    1.4430547585E-01    1.4141363415E-01
    1.3857674090E-01    1.3579386430E-01    1.3306408359E-01    1.3038648913E-01
    1.2776018248E-01    1.2518427649E-01    1.2265789532E-01    1.2018017452E-01
    1.1775026105E-01    1.1536731333E-01    1.1303050121E-01    1.1073900601E-01
    1.0849202051E-01    1.0628874892E-01    1.0412840690E-01    1.0201022146E-01
    9.9933431013E-02    9.7897285243E-02    9.5901045111E-02    9.3943982775E-02
    9.2025381531E-02    9.0144535741E-02    8.8300750759E-02    8.6493342850E-02
    8.4721639107E-02    8.2984977361E-02    8.1282706087E-02    7.9614184307E-02
    7.7978781492E-02    7.6375877460E-02    7.4804862263E-02    7.3265136086E-02
    7.1756109136E-02    7.0277201524E-02    6.8827843155E-02    6.7407473611E-02
    6.6015542036E-02    6.4651507013E-02    6.3314836449E-02    6.2005007452E-02
    6.0721506216E-02    5.9463827892E-02    5.8231476473E-02    5.7023964671E-02
    5.5840813796E-02    5.4681553633E-02    5.3545722323E-02    5.2432866241E-02
    5.1342539878E-02    5.0274305717E-02    4.9227734120E-02    4.8202403204E-02
    4.7197898725E-02    4.6213813961E-02    4.5249749598E-02    4.4305313612E-02
    4.3380121154E-02    4.2473794440E-02    4.1585962637E-02    4.0716261750E-02
    3.9864334516E-02    3.9029830289E-02    3.8212404938E-02    3.7411720737E-02
    3.6627446260E-02    3.5859256277E-02    3.5106831651E-02    3.4369859234E-02
    3.3648031769E-02    3.2941047789E-02    3.2248611520E-02    3.1570432782E-02
    3.0906226896E-02    3.0255714586E-02    2.9618621888E-02    2.8994680059E-02
    2.8383625484E-02    2.7785199589E-02    2.7199148749E-02    2.6625224206E-02
    2.6063181979E-02    2.5512782783E-02    2.4973791942E-02    2.4445979309E-02
    2.3929119188E-02    2.3422990249E-02    2.2927375453E-02    2.2442061974E-02
    2.1966841123E-02    2.1501508273E-02    2.1045862785E-02    2.0599707937E-02
    2.0162850850E-02    1.9735102421E-02    1.9316277251E-02    1.8906193577E-02
    1.8504673207E-02    1.8111541453E-02    1.7726627067E-02    1.7349762175E-02
    1.6980782218E-02    1.6619525885E-02    1.6265835059E-02    1.5919554752E-02
    1.5580533047E-02    1.5248621045E-02    1.4923672803E-02    1.4605545278E-02
    1.4294098280E-02    1.3989194406E-02    1.3690698999E-02    1.3398480088E-02
    1.3112408340E-02    1.2832357010E-02    1.2558201889E-02    1.2289821260E-02
    1.2027095847E-02    1.1769908769E-02    1.1518145492E-02    1.1271693790E-02
    1.1030443694E-02    1.0794287451E-02    1.0563119482E-02    1.0336836338E-02
    1.0115336662E-02    9.8985211439E-03    9.6862924847E-03    9.4785553553E-03
    9.2752163590E-03    9.0761839934E-03    8.8813686135E-03    8.6906823954E-03
    8.5040393008E-03    8.3213550417E-03    8.1425470463E-03    7.9675344254E-03
    7.7962379388E-03    7.6285799634E-03    7.4644844609E-03    7.3038769468E-03
    7.1466844596E-03    6.9928355303E-03    6.8422601537E-03    6.6948897586E-03
    6.5506571796E-03    6.4094966292E-03    6.2713436705E-03    6.1361351901E-03
    6.0038093719E-03    5.8743056709E-03    5.7475647885E-03    5.6235286467E-03
    5.5021403646E-03    5.3833442337E-03    5.2670856947E-03    5.1533113144E-03
    5.0419687633E-03    4.9330067932E-03    4.8263752154E-03    4.7220248794E-03
    4.6199076524E-03    4.5199763982E-03    4.4221849573E-03    4.3264881272E-03
    4.2328416433E-03    4.1412021595E-03    4.0515272299E-03    3.9637752902E-03
    3.8779056406E-03    3.7938784272E-03    3.7116546257E-03    3.6311960243E-03
    3.5524652069E-03    3.4754255371E-03    3.4000411424E-03    3.3262768987E-03
    3.2540984148E-03    3.1834720174E-03    3.1143647368E-03    3.0467442923E-03
    2.9805790782E-03    2.9158381496E-03    2.8524912096E-03    2.7905085954E-03
    2.7298612657E-03    2.6705207875E-03    2.6124593241E-03    2.5556496227E-03
    2.5000650023E-03    2.4456793419E-03    2.3924670692E-03    2.3404031492E-03
    2.2894630730E-03    2.2396228472E-03    2.1908589831E-03    2.1431484863E-03
    2.0964688468E-03    2.0507980283E-03    2.0061144591E-03    1.9623970224E-03
    1.9196250463E-03    1.8777782954E-03    1.8368369612E-03    1.7967816535E-03
    1.7575933917E-03    1.7192535961E-03    1.6817440800E-03    1.6450470411E-03
    1.6091450538E-03    1.5740210613E-03    1.5396583677E-03    1.5060406311E-03
    1.4731518555E-03    1.4409763840E-03    1.4094988919E-03    1.3787043792E-03
    1.3485781644E-03    1.3191058775E-03    1.2902734538E-03    1.2620671272E-03
    1.2344734242E-03    1.2074791577E-03    1.1810714210E-03    1.1552375818E-03
    1.1299652768E-03    1.1052424059E-03    1.0810571265E-03    1.0573978482E-03
    1.0342532279E-03    1.0116121639E-03    9.8946379156E-04    9.6779747770E-04
    9.4660281619E-04    9.2586962295E-04    9.0558793136E-04    8.8574798766E-04
    8.6634024649E-04    8.4735536649E-04    8.2878420601E-04    8.1061781889E-04
    7.9284745037E-04    7.7546453303E-04    7.5846068285E-04    7.4182769531E-04
    7.2555754167E-04    7.0964236519E-04    6.9407447751E-04    6.7884635513E-04
    6.6395063587E-04    6.4938011551E-04    6.3512774440E-04    6.2118662423E-04
    6.0755000480E-04    5.9421128087E-04    5.8116398915E-04    5.6840180519E-04
    5.5591854054E-04    5.4370813980E-04    5.3176467780E-04    5.2008235687E-04
    5.0865550410E-04    4.9747856869E-04    4.8654611938E-04    4.7585284189E-04
    4.6539353642E-04    4.5516311522E-04    4.4515660025E-04    4.3536912077E-04
    4.2579591110E-04    4.1643230837E-04    4.0727375033E-04    3.9831577321E-04
    3.8955400960E-04    3.8098418642E-04    3.7260212288E-04    3.6440372854E-04
    3.5638500133E-04    3.4854202572E-04    3.4087097084E-04    3.3336808867E-04
    3.2602971227E-04    3.1885225403E-04    3.1183220402E-04    3.0496612828E-04
    2.9825066720E-04    2.9168253393E-04    2.8525851285E-04    2.7897545800E-04
    2.7283029161E-04    2.6682000261E-04    2.6094164525E-04    2.5519233766E-04
    2.4956926047E-04    2.4406965551E-04    2.3869082443E-04    2.3343012749E-04
    2.2828498224E-04    2.2325286232E-04    2.1833129625E-04    2.1351786623E-04
    2.0881020701E-04    2.0420600472E-04    1.9970299584E-04    1.9529896600E-04
    1.9099174905E-04    1.8677922591E-04    1.8265932363E-04    1.7863001435E-04
    1.7468931435E-04    1.7083528310E-04    1.6706602229E-04    1.6337967500E-04
    1.5977442470E-04    1.5624849446E-04    1.5280014607E-04    1.4942767918E-04
    1.4612943052E-04    1.4290377307E-04    1.3974911528E-04    1.3666390032E-04
    1.3364660530E-04    1.3069574057E-04    1.2780984897E-04    1.2498750513E-04
    1.2222731482E-04    1.1952791421E-04    1.1688796927E-04    1.1430617510E-04
    1.1178125528E-04    1.0931196128E-04    1.0689707186E-04    1.0453539245E-04
    1.0222575458E-04    9.9967015339E-05    9.7758056782E-05    9.5597785414E-05
    9.3485131650E-05    9.1419049295E-05    8.9398515037E-05    8.7422527951E-05
    8.5490109012E-05    8.3600300617E-05    8.1752166119E-05    7.9944789375E-05
    7.8177274296E-05    7.6448744411E-05    7.4758342443E-05    7.3105229889E-05
    7.1488586609E-05    6.9907610432E-05    6.8361516759E-05    6.6849538183E-05
    6.5370924114E-05    6.3924940412E-05    6.2510869030E-05    6.1128007660E-05
    5.9775669394E-05    5.8453182384E-05    5.7159889516E-05    5.5895148089E-05
    5.4658329499E-05    5.3448818932E-05    5.2266015063E-05    5.1109329760E-05
    4.9978187800E-05    4.8872026583E-05    4.7790295858E-05    4.6732457453E-05
    4.5697985013E-05    4.4686363736E-05    4.3697090129E-05    4.2729671753E-05
    4.1783626987E-05    4.0858484786E-05    3.9953784458E-05    3.9069075427E-05
    3.8203917020E-05    3.7357878248E-05    3.6530537592E-05    3.5721482798E-05
    3.4930310674E-05    3.4156626891E-05    3.3400045790E-05    3.2660190189E-05
    3.1936691203E-05    3.1229188057E-05    3.0537327912E-05    2.9860765687E-05
    2.9199163894E-05    2.8552192469E-05    2.7919528608E-05    2.7300856612E-05
    2.6695867726E-05    2.6104259991E-05    2.5525738094E-05    2.4960013219E-05
    2.4406802911E-05    2.3865830930E-05    2.3336827119E-05    2.2819527267E-05
    2.2313672982E-05    2.1819011563E-05    2.1335295871E-05    2.0862284211E-05
    2.0399740214E-05    1.9947432712E-05    1.9505135635E-05    1.9072627890E-05
    1.8649693255E-05    1.8236120274E-05    1.7831702148E-05    1.7436236638E-05
    1.7049525958E-05    1.6671376685E-05    1.6301599657E-05    1.5940009882E-05
    1.5586426447E-05    1.5240672425E-05    1.4902574792E-05    1.4571964337E-05
    1.4248675582E-05    1.3932546697E-05    1.3623419420E-05    1.3321138981E-05
    1.3025554022E-05    1.2736516524E-05    1.2453881733E-05    1.2177508089E-05
    1.1907257155E-05    1.1642993545E-05    1.1384584865E-05    1.1131901639E-05
    1.0884817248E-05    1.0643207870E-05    1.0406952412E-05    1.0175932457E-05
    9.9500321980E-06    9.7291383870E-06    9.5131402748E-06    9.3019295571E-06
    9.0954003205E-06    8.8934489899E-06    8.6959742772E-06    8.5028771306E-06
    8.3140606856E-06    8.1294302167E-06    7.9488930901E-06    7.7723587182E-06
    7.5997385136E-06    7.4309458460E-06    7.2658959985E-06    7.1045061256E-06
    6.9466952116E-06    6.7923840310E-06    6.6414951085E-06    6.4939526805E-06
    6.3496826575E-06    6.2086125869E-06    6.0706716174E-06    5.9357904632E-06
    5.8039013700E-06    5.6749380805E-06    5.5488358021E-06    5.4255311744E-06
    5.3049622372E-06    5.1870684002E-06    5.0717904124E-06    4.9590703327E-06
    4.8488515011E-06    4.7410785101E-06    4.6356971775E-06    4.5326545191E-06
    4.4318987222E-06    4.3333791200E-06    4.2370461661E-06    4.1428514099E-06
    4.0507474724E-06    3.9606880223E-06    3.8726277534E-06    3.7865223614E-06
    3.7023285223E-06    3.6200038703E-06    3.5395069769E-06    3.4607973302E-06
    3.3838353146E-06    3.3085821909E-06    3.2350000773E-06    3.1630519301E-06
    3.0927015254E-06    3.0239134408E-06    2.9566530379E-06    2.8908864450E-06
    2.8265805399E-06    2.7637029336E-06    2.7022219541E-06    2.6421066302E-06
    2.5833266767E-06    2.5258524784E-06    2.4696550761E-06    2.4147061515E-06
    2.3609780134E-06    2.3084435838E-06    2.2570763839E-06    2.2068505217E-06
    2.1577406782E-06    2.1097220952E-06    2.0627705630E-06    2.0168624076E-06
    1.9719744798E-06    1.9280841430E-06    1.8851692617E-06    1.8432081911E-06
    1.8021797657E-06    1.7620632889E-06    1.7228385225E-06    1.6844856768E-06
    1.6469854005E-06    1.6103187710E-06    1.5744672850E-06    1.5394128493E-06
    1.5051377714E-06    1.4716247510E-06    1.4388568713E-06    1.4068175903E-06
    1.3754907324E-06    1.3448604808E-06    1.3149113693E-06    1.2856282742E-06
    1.2569964073E-06    1.2290013081E-06    1.2016288367E-06    1.1748651667E-06
    1.1486967781E-06    1.1231104508E-06    1.0980932577E-06    1.0736325584E-06
    1.0497159927E-06    1.0263314745E-06    1.0034671857E-06    9.8111157046E-07
    9.5925332893E-07    9.3788141203E-07    9.1698501569E-07    8.9655357547E-07
    8.7657676128E-07    8.5704447213E-07    8.3794683111E-07    8.1927418039E-07
    8.0101707641E-07    7.8316628512E-07    7.6571277731E-07    7.4864772409E-07
    7.3196249250E-07    7.1564864109E-07    6.9969791574E-07    6.8410224548E-07
    6.6885373844E-07    6.5394467790E-07    6.3936751838E-07    6.2511488186E-07
    6.1117955406E-07    5.9755448085E-07    5.8423276466E-07    5.7120766102E-07
    5.5847257518E-07    5.4602105877E-07    5.3384680658E-07    5.2194365338E-07
    5.1030557082E-07    4.9892666439E-07    4.8780117042E-07    4.7692345327E-07
    4.6628800241E-07    4.5588942967E-07    4.4572246653E-07    4.3578196149E-07
    4.2606287743E-07    4.1656028911E-07    4.0726938068E-07    3.9818544324E-07
    3.8930387249E-07    3.8062016641E-07    3.7212992297E-07    3.6382883793E-07
    3.5571270266E-07    3.4777740204E-07    3.4001891237E-07    3.3243329935E-07
    3.2501671607E-07    3.1776540112E-07    3.1067567664E-07    3.0374394654E-07
    2.9696669458E-07    2.9034048271E-07    2.8386194924E-07    2.7752780724E-07
    2.7133484278E-07    2.6527991340E-07    2.5935994646E-07    2.5357193762E-07
    2.4791294933E-07    2.4238010934E-07    2.3697060923E-07    2.3168170304E-07
    2.2651070582E-07    2.2145499234E-07    2.1651199573E-07    2.1167920619E-07
    2.0695416971E-07    2.0233448687E-07    1.9781781159E-07    1.9340184995E-07
    1.8908435907E-07    1.8486314591E-07    1.8073606622E-07    1.7670102346E-07
    1.7275596768E-07    1.6889889455E-07    1.6512784431E-07    1.6144090079E-07
    1.5783619045E-07    1.5431188142E-07    1.5086618260E-07    1.4749734270E-07
    1.4420364943E-07    1.4098342855E-07    1.3783504312E-07    1.3475689259E-07
    1.3174741202E-07    1.2880507130E-07    1.2592837438E-07    1.2311585848E-07
    1.2036609338E-07    1.1767768069E-07    1.1504925314E-07    1.1247947389E-07
    1.0996703584E-07    1.0751066102E-07    1.0510909985E-07    1.0276113061E-07
    1.0046555875E-07    9.8221216321E-08    9.6026961376E-08    9.3881677379E-08
    9.1784272655E-08    8.9733679838E-08    8.7728855322E-08    8.5768778737E-08
    8.3852452430E-08    8.1978900962E-08    8.0147170617E-08    7.8356328915E-08
    7.6605464141E-08    7.4893684882E-08    7.3220119573E-08    7.1583916064E-08
    6.9984241186E-08    6.8420280320E-08    6.6891236995E-08    6.5396332476E-08
    6.3934805376E-08    6.2505911271E-08    6.1108922316E-08    5.9743126880E-08
    5.8407829183E-08    5.7102348948E-08    5.5826021055E-08    5.4578195199E-08
    5.3358235568E-08    5.2165520510E-08    5.0999442227E-08    4.9859406466E-08
    4.8744832215E-08    4.7655151407E-08    4.6589808636E-08    4.5548260868E-08
    4.4529977178E-08    4.3534438468E-08    4.2561137213E-08    4.1609577197E-08
    4.0679273263E-08    3.9769751067E-08    3.8880546843E-08    3.8011207157E-08
    3.7161288687E-08    3.6330357989E-08    3.5517991282E-08    3.4723774236E-08
    3.3947301754E-08    3.3188177774E-08    3.2446015061E-08    3.1720435014E-08
    3.1011067473E-08    3.0317550535E-08    2.9639530364E-08    2.8976661013E-08
    2.8328604251E-08    2.7695029387E-08    2.7075613107E-08    2.6470039307E-08
    2.5877998932E-08    2.5299189818E-08    2.4733316543E-08    2.4180090271E-08
    2.3639228610E-08    2.3110455468E-08    2.2593500908E-08    2.2088101017E-08
    2.1593997766E-08    2.1110938884E-08    2.0638677730E-08    2.0176973160E-08
    1.9725589414E-08    1.9284295988E-08    1.8852867523E-08    1.8431083689E-08
    1.8018729069E-08    1.7615593055E-08    1.7221469738E-08    1.6836157799E-08
    1.6459460417E-08    1.6091185162E-08    1.5731143896E-08    1.5379152681E-08
    1.5035031682E-08    1.4698605079E-08    1.4369700976E-08    1.4048151312E-08
    1.3733791780E-08    1.3426461736E-08    1.3126004124E-08    1.2832265394E-08
    1.2545095421E-08    1.2264347434E-08    1.1989877937E-08    1.1721546637E-08
    1.1459216371E-08    1.1202753042E-08    1.0952025545E-08    1.0706905701E-08
    1.0467268193E-08    1.0232990502E-08    1.0003952844E-08    9.7800381113E-09
    9.5611318093E-09    9.3471220005E-09    9.1378992466E-09    8.9333565527E-09
    8.7333893132E-09    8.5378952594E-09    8.3467744058E-09    8.1599289996E-09
    7.9772634710E-09    7.7986843843E-09    7.6241003909E-09    7.4534221828E-09
    7.2865624463E-09    7.1234358179E-09    6.9639588403E-09    6.8080499203E-09
    6.6556292878E-09    6.5066189546E-09    6.3609426742E-09    6.2185259036E-09
    6.0792957645E-09    5.9431810063E-09    5.8101119714E-09    5.6800205578E-09
    5.5528401849E-09    5.4285057595E-09    5.3069536428E-09    5.1881216171E-09
    5.0719488562E-09    4.9583758923E-09    4.8473445863E-09    4.7387980983E-09
    4.6326808583E-09    4.5289385374E-09    4.4275180222E-09    4.3283673853E-09
    4.2314358600E-09    4.1366738139E-09    4.0440327237E-09    3.9534651500E-09
    3.8649247150E-09    3.7783660765E-09    3.6937449059E-09    3.6110178652E-09
    3.5301425852E-09    3.4510776430E-09    3.3737825427E-09    3.2982176931E-09
    3.2243443879E-09    3.1521247861E-09    3.0815218923E-09    3.0124995380E-09
    2.9450223638E-09    2.8790558006E-09    2.8145660520E-09    2.7515200770E-09
    2.6898855735E-09    2.6296309610E-09    2.5707253658E-09    2.5131386042E-09
    2.4568411675E-09    2.4018042065E-09    2.3479995171E-09    2.2953995255E-09
    2.2439772751E-09    2.1937064117E-09    2.1445611707E-09    2.0965163631E-09
    2.0495473637E-09    2.0036300972E-09    1.9587410275E-09    1.9148571446E-09
    1.8719559530E-09    1.8300154604E-09    1.7890141660E-09    1.7489310501E-09
    1.7097455630E-09    1.6714376149E-09    1.6339875651E-09    1.5973762122E-09
    1.5615847844E-09    1.5265949293E-09    1.4923887054E-09    1.4589485726E-09
    1.4262573831E-09    1.3942983724E-09    1.3630551513E-09    1.3325116971E-09
    1.3026523452E-09    1.2734617821E-09    1.2449250363E-09    1.2170274717E-09
    1.1897547793E-09    1.1630929702E-09    1.1370283685E-09    1.1115476043E-09
    1.0866376071E-09    1.0622855984E-09    1.0384790860E-09    1.0152058568E-09
    9.9245397112E-10    9.7021175643E-10    9.4846780153E-10    9.2721095045E-10
    9.0643029684E-10    8.8611517838E-10    8.6625517132E-10    8.4684008503E-10
    8.2785995723E-10    8.0930504845E-10    7.9116583716E-10    7.7343301490E-10
    7.5609748152E-10    7.3915034043E-10    7.2258289424E-10    7.0638664030E-10
    6.9055326618E-10    6.7507464548E-10    6.5994283366E-10    6.4515006399E-10
    6.3068874344E-10    6.1655144924E-10    6.0273092459E-10    5.8922007514E-10
    5.7601196532E-10    5.6309981480E-10    5.5047699494E-10    5.3813702557E-10
    5.2607357164E-10    5.1428043985E-10    5.0275157552E-10    4.9148105953E-10
    4.8046310523E-10    4.6969205542E-10    4.5916237977E-10    4.4886867166E-10
    4.3880564551E-10    4.2896813404E-10    4.1935108569E-10    4.0994956191E-10
    4.0075873477E-10    3.9177388453E-10    3.8299039704E-10    3.7440376145E-10
    3.6600956793E-10    3.5780350537E-10    3.4978135910E-10    3.4193900897E-10
    3.3427242707E-10    3.2677767562E-10    3.1945090505E-10    3.1228835196E-10
    3.0528633722E-10    2.9844126404E-10    2.9174961630E-10    2.8520795656E-10
    2.7881292435E-10    2.7256123444E-10    2.6644967520E-10    2.6047510685E-10
    2.5463445997E-10    2.4892473393E-10    2.4334299528E-10    2.3788637624E-10
    2.3255207325E-10    2.2733734557E-10    2.2223951376E-10    2.1725595848E-10
    2.1238411907E-10    2.0762149218E-10    2.0296563054E-10    1.9841414168E-10
    1.9396468673E-10    1.8961497912E-10    1.8536278366E-10    1.8120591515E-10
    1.7714223732E-10    1.7316966177E-10    1.6928614688E-10    1.6548969674E-10
    1.6177836012E-10    1.5815022961E-10    1.5460344045E-10    1.5113616968E-10
    1.4774663516E-10    1.4443309468E-10    1.4119384503E-10    1.3802722117E-10
    1.3493159540E-10    1.3190537647E-10    1.2894700877E-10    1.2605497153E-10
    1.2322777807E-10    1.2046397497E-10    1.1776214142E-10    1.1512088845E-10
    1.1253885820E-10    1.1001472322E-10    1.0754718581E-10    1.0513497734E-10
    1.0277685759E-10    1.0047161413E-10    9.8218061750E-11    9.6015041749E-11
    9.3861421401E-11    9.1756093358E-11    8.9697975083E-11    8.7686008276E-11
    8.5719158369E-11    8.3796414002E-11    8.1916786455E-11    8.0079309166E-11
    7.8283037230E-11    7.6527046914E-11    7.4810435172E-11    7.3132319205E-11
    7.1491836023E-11    6.9888141956E-11    6.8320412240E-11    6.6787840594E-11
    6.5289638804E-11    6.3825036310E-11    6.2393279826E-11    6.0993632975E-11
    5.9625375863E-11    5.8287804734E-11    5.6980231599E-11    5.5701983891E-11
    5.4452404108E-11    5.3230849478E-11    5.2036691672E-11    5.0869316421E-11
    4.9728123225E-11    4.8612525044E-11    4.7521947992E-11    4.6455831046E-11
    4.5413625740E-11    4.4394795944E-11    4.3398817522E-11    4.2425178089E-11
    4.1473376742E-11    4.0542923808E-11    3.9633340586E-11    3.8744159090E-11
    3.7874921860E-11    3.7025181675E-11    3.6194501339E-11    3.5382453453E-11
    3.4588620200E-11    3.3812593129E-11    3.3053972932E-11    3.2312369273E-11
    3.1587400566E-11    3.0878693771E-11    3.0185884214E-11    2.9508615395E-11
    2.8846538803E-11    2.8199313736E-11    2.7566607133E-11    2.6948093414E-11
    2.6343454287E-11    2.5752378598E-11    2.5174562167E-11    2.4609707632E-11
    2.4057524299E-11    2.3517727979E-11    2.2990040881E-11    2.2474191429E-11
    2.1969914136E-11    2.1476949466E-11    2.0995043704E-11    2.0523948820E-11
    2.0063422340E-11    1.9613227238E-11    1.9173131802E-11    1.8742909515E-11
    1.8322338933E-11    1.7911203582E-11    1.7509291839E-11    1.7116396824E-11
    1.6732316293E-11    1.6356852551E-11    1.5989812329E-11    1.5631006689E-11
    1.5280250933E-11    1.4937364501E-11    1.4602170883E-11    1.4274497519E-11
    1.3954175733E-11    1.3641040629E-11    1.3334931003E-11    1.3035689270E-11
    1.2743161376E-11    1.2457196721E-11    1.2177648082E-11    1.1904371534E-11
    1.1637226393E-11    1.1376075120E-11    1.1120783262E-11    1.0871219383E-11
    1.0627254991E-11    1.0388764478E-11    1.0155625045E-11    9.9277166590E-12
    9.7049219763E-12    9.4871262827E-12    9.2742174368E-12    9.0660858121E-12
    8.8626242405E-12    8.6637279558E-12    8.4692945394E-12    8.2792238788E-12
    8.0934181019E-12    7.9117815316E-12    7.7342206365E-12    7.5606439827E-12
    7.3909621871E-12    7.2250878679E-12    7.0629356075E-12    6.9044219059E-12
    6.7494651337E-12    6.5979854922E-12    6.4499049723E-12    6.3051473148E-12
    6.1636379705E-12    6.0253040582E-12    5.8900743397E-12    5.7578791718E-12
    5.6286504726E-12    5.5023216874E-12    5.3788277541E-12    5.2581050701E-12
    5.1400914584E-12    5.0247261346E-12    4.9119496847E-12    4.8017040238E-12
    4.6939323699E-12    4.5885792146E-12    4.4855902946E-12    4.3849125636E-12
    4.2864941639E-12    4.1902844016E-12    4.0962337234E-12    4.0042936855E-12
    3.9144169306E-12    3.8265571636E-12    3.7406691280E-12    3.6567085824E-12
    3.5746322760E-12    3.4943979305E-12    3.4159642174E-12    3.3392907339E-12
    3.2643379834E-12    3.1910673555E-12    3.1194411056E-12    3.0494223361E-12
    2.9809749750E-12    2.9140637626E-12    2.8486542306E-12    2.7847126826E-12
    2.7222061784E-12    2.6611025167E-12    2.6013702185E-12    2.5429785109E-12
    2.4858973097E-12    2.4300972089E-12    2.3755494615E-12    2.3222259650E-12
    2.2700992472E-12    2.2191424523E-12    2.1693293270E-12    2.1206342069E-12
    2.0730320016E-12    2.0264981870E-12    1.9810087884E-12    1.9365403683E-12
    1.8930700153E-12    1.8505753318E-12    1.8090344229E-12    1.7684258847E-12
    1.7287287923E-12    1.6899226926E-12    1.6519875911E-12    1.6149039415E-12
    1.5786526359E-12    1.5432149950E-12    1.5085727589E-12    1.4747080771E-12
    1.4416034986E-12    1.4092419659E-12    1.3776068039E-12    1.3466817115E-12
    1.3164507530E-12    1.2868983505E-12    1.2580092755E-12    1.2297686411E-12
    1.2021618937E-12    1.1751748075E-12    1.1487934762E-12    1.1230043048E-12
    1.0977940037E-12    1.0731495811E-12    1.0490583370E-12    1.0255078562E-12
    1.0024860015E-12    9.7998090863E-13    9.5798098040E-13    9.3647487913E-13
    9.1545152155E-13    8.9490007311E-13    8.7480994232E-13    8.5517077539E-13
    8.3597245053E-13    8.1720507292E-13    7.9885897113E-13    7.8092468998E-13
    7.6339298647E-13    7.4625482498E-13    7.2950137266E-13    7.1312399485E-13
    6.9711425063E-13    6.8146388762E-13    6.6616484051E-13    6.5120922410E-13
    6.3658933012E-13    6.2229762328E-13    6.0832673738E-13    5.9466947150E-13
    5.8131878633E-13    5.6826779993E-13    5.5550978579E-13    5.4303816825E-13
    5.3084651899E-13    5.1892855397E-13    5.0727813014E-13    4.9588924231E-13
    4.8475602005E-13    4.7387272442E-13    4.6323374533E-13    4.5283359930E-13
    4.4266692548E-13    4.3272848329E-13    4.2301314978E-13    4.1351591697E-13
    4.0423188923E-13    3.9515628084E-13    3.8628441288E-13    3.7761171261E-13
    3.6913370940E-13    3.6084603294E-13    3.5274441101E-13    3.4482466723E-13
    3.3708271898E-13    3.2951457523E-13    3.2211633429E-13    3.1488418229E-13
    3.0781439126E-13    3.0090331664E-13    2.9414739566E-13    2.8754314551E-13
    2.8108716155E-13    2.7477611553E-13    2.6860675390E-13    2.6257589571E-13
    2.5668043229E-13    2.5091732434E-13    2.4528360075E-13    2.3977635710E-13
    2.3439275416E-13    2.2913001642E-13    2.2398543063E-13    2.1895634432E-13
    2.1404016464E-13    2.0923435726E-13    2.0453644448E-13    1.9994400423E-13
    1.9545466882E-13    1.9106612366E-13    1.8677610614E-13    1.8258240441E-13
    1.7848285600E-13    1.7447534749E-13    1.7055781274E-13    1.6672823194E-13
    1.6298463061E-13    1.5932507856E-13    1.5574768897E-13    1.5225061733E-13
    1.4883206049E-13    1.4549025565E-13    1.4222348000E-13    1.3903004919E-13
    1.3590831665E-13    1.3285667279E-13    1.2987354414E-13    1.2695739255E-13
    1.2410671437E-13    1.2132003962E-13    1.1859593141E-13    1.1593298524E-13
    1.1332982804E-13    1.1078511754E-13    1.0829754160E-13    1.0586581754E-13
    1.0348869146E-13    1.0116493761E-13    9.8893357615E-14    9.6672780221E-14
    9.4502060468E-14    9.2380079029E-14    9.0305741705E-14    8.8277978854E-14
    8.6295744844E-14    8.4358017514E-14    8.2463797645E-14    8.0612108296E-14
    7.8801994750E-14    7.7032523613E-14    7.5302782425E-14    7.3611879209E-14
    7.1958942005E-14    7.0343118428E-14    6.8763575226E-14    6.7219497848E-14
    6.5710089888E-14    6.4234573114E-14    6.2792186623E-14    6.1382186593E-14
    6.0003845898E-14    5.8656453737E-14    5.7339315260E-14    5.6051751217E-14
    5.4793097595E-14    5.3562705182E-14    5.2359939596E-14    5.1184180570E-14
    5.0034821762E-14    4.8911270442E-14    4.7812947184E-14    4.6739285569E-14
    4.5689731894E-14    4.4663744871E-14    4.3660795303E-14    4.2680366039E-14
    4.1721951456E-14    4.0785057277E-14    3.9869200322E-14    3.8973908258E-14
    3.8098719352E-14    3.7243182237E-14    3.6406855669E-14    3.5589308246E-14
    3.4790118407E-14    3.4008873980E-14    3.3245172042E-14    3.2498618715E-14
    3.1768828965E-14    3.1055426397E-14    3.0358043068E-14    2.9676319295E-14
    2.9009903385E-14    2.8358451712E-14    2.7721628283E-14    2.7099104650E-14
    2.6490559735E-14    2.5895679671E-14    2.5314157635E-14    2.4745693692E-14
    2.4189994639E-14    2.3646773801E-14
   </PP_CHI.1>
   <PP_CHI.2
       type="real"
       size="1534"
       columns="4"
       index="2"
       occupation=" 4.000"
       pseudo_energy="   -0.3216084590E+01"
       label="3P"
       l="1" >
    5.7106021301E-12    3.7582684169E-04    1.5027047441E-03    3.3788270615E-03
    6.0011867983E-03    9.3655827210E-03    1.3466627895E-02    1.8297760625E-02
    2.3851257779E-02    3.0118250454E-02    3.7088741960E-02    4.4751628069E-02
    5.3094719492E-02    6.2104766518E-02    7.1767485774E-02    8.2067589033E-02
    9.2988813996E-02    1.0451395700E-01    1.1662490753E-01    1.2930268455E-01
    1.4252747439E-01    1.5627867032E-01    1.7053491356E-01    1.8527413566E-01
    2.0047360222E-01    2.1610995773E-01    2.3215927156E-01    2.4859708487E-01
    2.6539845835E-01    2.8253802085E-01    2.9999001843E-01    3.1772836412E-01
    3.3572668796E-01    3.5395838737E-01    3.7239667768E-01    3.9101464266E-01
    4.0978528505E-01    4.2868157685E-01    4.4767650930E-01    4.6674314243E-01
    4.8585465412E-01    5.0498438845E-01    5.2410590329E-01    5.4319301708E-01
    5.6221985454E-01    5.8116089139E-01    5.9999099785E-01    6.1868548085E-01
    6.3722012490E-01    6.5557123154E-01    6.7371565718E-01    6.9163084942E-01
    7.0929488160E-01    7.2668648566E-01    7.4378508319E-01    7.6057081454E-01
    7.7702456610E-01    7.9312799557E-01    8.0886355521E-01    8.2421451308E-01
    8.3916497224E-01    8.5369988778E-01    8.6780508184E-01    8.8146725647E-01
    8.9467400441E-01    9.0741381772E-01    9.1967609434E-01    9.3145114259E-01
    9.4273018354E-01    9.5350535142E-01    9.6376969196E-01    9.7351715883E-01
    9.8274260811E-01    9.9144179087E-01    9.9961134398E-01    1.0072487791E+00
    1.0143524701E+00    1.0209216385E+00    1.0269563378E+00    1.0324574359E+00
    1.0374265964E+00    1.0418662581E+00    1.0457796141E+00    1.0491705886E+00
    1.0520438133E+00    1.0544046028E+00    1.0562589286E+00    1.0576133926E+00
    1.0584752000E+00    1.0588521309E+00    1.0587525117E+00    1.0581851865E+00
    1.0571594868E+00    1.0556852022E+00    1.0537725500E+00    1.0514321449E+00
    1.0486749688E+00    1.0455123400E+00    1.0419558834E+00    1.0380174996E+00
    1.0337093356E+00    1.0290437545E+00    1.0240333066E+00    1.0186907000E+00
    1.0130287724E+00    1.0070604627E+00    1.0007987841E+00    9.9425679690E-01
    9.8744758259E-01    9.8038421830E-01    9.7307975223E-01    9.6554717976E-01
    9.5779942041E-01    9.4984929569E-01    9.4170950775E-01    9.3339261910E-01
    9.2491103304E-01    9.1627697525E-01    9.0750247623E-01    8.9859935470E-01
    8.8957920209E-01    8.8045336793E-01    8.7123294626E-01    8.6192876307E-01
    8.5255136474E-01    8.4311100740E-01    8.3361764739E-01    8.2408093265E-01
    8.1451019506E-01    8.0491444384E-01    7.9530235976E-01    7.8568229044E-01
    7.7606224649E-01    7.6644989853E-01    7.5685257519E-01    7.4727726190E-01
    7.3773060052E-01    7.2821888989E-01    7.1874808707E-01    7.0932380939E-01
    6.9995133729E-01    6.9063561781E-01    6.8138126889E-01    6.7219258415E-01
    6.6307353852E-01    6.5402779435E-01    6.4505870809E-01    6.3616933762E-01
    6.2736244996E-01    6.1864052960E-01    6.1000578715E-01    6.0146016850E-01
    5.9300536433E-01    5.8464281994E-01    5.7637374545E-01    5.6819912622E-01
    5.6011973350E-01    5.5213613540E-01    5.4424870789E-01    5.3645764601E-01
    5.2876297516E-01    5.2116456248E-01    5.1366212821E-01    5.0625525709E-01
    4.9894340966E-01    4.9172593356E-01    4.8460207468E-01    4.7757098810E-01
    4.7063174897E-01    4.6378336308E-01    4.5702477727E-01    4.5035488945E-01
    4.4377255842E-01    4.3727661332E-01    4.3086586267E-01    4.2453910311E-01
    4.1829512760E-01    4.1213273331E-01    4.0605072895E-01    4.0004794164E-01
    3.9412322329E-01    3.8827545642E-01    3.8250355947E-01    3.7680649151E-01
    3.7118325637E-01    3.6563290619E-01    3.6015454452E-01    3.5474732874E-01
    3.4941047187E-01    3.4414324377E-01    3.3894497175E-01    3.3381504063E-01
    3.2875288732E-01    3.2375797906E-01    3.1882977494E-01    3.1396772205E-01
    3.0917125937E-01    3.0443981703E-01    2.9977281724E-01    2.9516967496E-01
    2.9062979852E-01    2.8615259022E-01    2.8173744692E-01    2.7738376060E-01
    2.7309091888E-01    2.6885830556E-01    2.6468530108E-01    2.6057128303E-01
    2.5651562658E-01    2.5251770495E-01    2.4857688978E-01    2.4469255161E-01
    2.4086406019E-01    2.3709078493E-01    2.3337209521E-01    2.2970736074E-01
    2.2609595190E-01    2.2253724008E-01    2.1903059795E-01    2.1557539975E-01
    2.1217102163E-01    2.0881684185E-01    2.0551224109E-01    2.0225660266E-01
    1.9904931275E-01    1.9588976066E-01    1.9277733899E-01    1.8971144385E-01
    1.8669147506E-01    1.8371683630E-01    1.8078693530E-01    1.7790118399E-01
    1.7505899865E-01    1.7225980004E-01    1.6950301353E-01    1.6678806919E-01
    1.6411440197E-01    1.6148145172E-01    1.5888866332E-01    1.5633548676E-01
    1.5382137720E-01    1.5134579506E-01    1.4890820604E-01    1.4650808122E-01
    1.4414489706E-01    1.4181813549E-01    1.3952728387E-01    1.3727183509E-01
    1.3505128755E-01    1.3286514517E-01    1.3071291744E-01    1.2859411939E-01
    1.2650827158E-01    1.2445490016E-01    1.2243353681E-01    1.2044371872E-01
    1.1848498864E-01    1.1655689479E-01    1.1465899090E-01    1.1279083615E-01
    1.1095199515E-01    1.0914203794E-01    1.0736053993E-01    1.0560708189E-01
    1.0388124989E-01    1.0218263530E-01    1.0051083474E-01    9.8865450007E-02
    9.7246088107E-02    9.5652361156E-02    9.4083886362E-02    9.2540285981E-02
    9.1021187271E-02    8.9526222452E-02    8.8055028659E-02    8.6607247897E-02
    8.5182526995E-02    8.3780517565E-02    8.2400875946E-02    8.1043263167E-02
    7.9707344894E-02    7.8392791384E-02    7.7099277438E-02    7.5826482353E-02
    7.4574089876E-02    7.3341788151E-02    7.2129269678E-02    7.0936231261E-02
    6.9762373959E-02    6.8607403041E-02    6.7471027940E-02    6.6352962198E-02
    6.5252923428E-02    6.4170633259E-02    6.3105817293E-02    6.2058205057E-02
    6.1027529956E-02    6.0013529228E-02    5.9015943895E-02    5.8034518719E-02
    5.7069002156E-02    5.6119146311E-02    5.5184706890E-02    5.4265443160E-02
    5.3361117901E-02    5.2471497361E-02    5.1596351215E-02    5.0735452521E-02
    4.9888577674E-02    4.9055506366E-02    4.8236021543E-02    4.7429909360E-02
    4.6636959143E-02    4.5856963347E-02    4.5089717512E-02    4.4335020225E-02
    4.3592673078E-02    4.2862480630E-02    4.2144250366E-02    4.1437792658E-02
    4.0742920726E-02    4.0059450600E-02    3.9387201081E-02    3.8725993706E-02
    3.8075652706E-02    3.7436004975E-02    3.6806880028E-02    3.6188109969E-02
    3.5579529453E-02    3.4980975650E-02    3.4392288213E-02    3.3813309241E-02
    3.3243883246E-02    3.2683857118E-02    3.2133080092E-02    3.1591403717E-02
    3.1058681820E-02    3.0534770475E-02    3.0019527973E-02    2.9512814788E-02
    2.9014493547E-02    2.8524428999E-02    2.8042487983E-02    2.7568539402E-02
    2.7102454189E-02    2.6644105280E-02    2.6193367584E-02    2.5750117956E-02
    2.5314235167E-02    2.4885599877E-02    2.4464094605E-02    2.4049603708E-02
    2.3642013348E-02    2.3241211466E-02    2.2847087759E-02    2.2459533654E-02
    2.2078442280E-02    2.1703708441E-02    2.1335228599E-02    2.0972900842E-02
    2.0616624862E-02    2.0266301931E-02    1.9921834881E-02    1.9583128074E-02
    1.9250087385E-02    1.8922620176E-02    1.8600635275E-02    1.8284042954E-02
    1.7972754908E-02    1.7666684229E-02    1.7365745393E-02    1.7069854232E-02
    1.6778927916E-02    1.6492884933E-02    1.6211645069E-02    1.5935129389E-02
    1.5663260215E-02    1.5395961109E-02    1.5133156854E-02    1.4874773433E-02
    1.4620738016E-02    1.4370978934E-02    1.4125425668E-02    1.3884008831E-02
    1.3646660143E-02    1.3413312425E-02    1.3183899572E-02    1.2958356545E-02
    1.2736619347E-02    1.2518625014E-02    1.2304311591E-02    1.2093618125E-02
    1.1886484643E-02    1.1682852140E-02    1.1482662562E-02    1.1285858794E-02
    1.1092384642E-02    1.0902184821E-02    1.0715204941E-02    1.0531391492E-02
    1.0350691829E-02    1.0173054161E-02    9.9984275379E-03    9.8267618336E-03
    9.6580077374E-03    9.4921167386E-03    9.3290411151E-03    9.1687339205E-03
    9.0111489720E-03    8.8562408386E-03    8.7039648290E-03    8.5542769801E-03
    8.4071340457E-03    8.2624934847E-03    8.1203134505E-03    7.9805527795E-03
    7.8431709810E-03    7.7081282258E-03    7.5753853363E-03    7.4449037758E-03
    7.3166456386E-03    7.1905736399E-03    7.0666511059E-03    6.9448419642E-03
    6.8251107339E-03    6.7074225168E-03    6.5917429877E-03    6.4780383852E-03
    6.3662755031E-03    6.2564216811E-03    6.1484447966E-03    6.0423132555E-03
    5.9379959844E-03    5.8354624216E-03    5.7346825097E-03    5.6356266869E-03
    5.5382658791E-03    5.4425714924E-03    5.3485154054E-03    5.2560699613E-03
    5.1652079605E-03    5.0759026536E-03    4.9881277339E-03    4.9018573301E-03
    4.8170659996E-03    4.7337287216E-03    4.6518208902E-03    4.5713183075E-03
    4.4921971774E-03    4.4144340989E-03    4.3380060597E-03    4.2628904302E-03
    4.1890649568E-03    4.1165077563E-03    4.0451973096E-03    3.9751124560E-03
    3.9062323873E-03    3.8385366420E-03    3.7720050999E-03    3.7066179762E-03
    3.6423558166E-03    3.5791994913E-03    3.5171301901E-03    3.4561294173E-03
    3.3961789862E-03    3.3372610143E-03    3.2793579184E-03    3.2224524096E-03
    3.1665274884E-03    3.1115664404E-03    3.0575528309E-03    3.0044705012E-03
    2.9523035634E-03    2.9010363963E-03    2.8506536410E-03    2.8011401965E-03
    2.7524812155E-03    2.7046621005E-03    2.6576684991E-03    2.6114863006E-03
    2.5661016319E-03    2.5215008531E-03    2.4776705543E-03    2.4345975515E-03
    2.3922688830E-03    2.3506718056E-03    2.3097937909E-03    2.2696225223E-03
    2.2301458908E-03    2.1913519921E-03    2.1532291230E-03    2.1157657781E-03
    2.0789506463E-03    2.0427726082E-03    2.0072207324E-03    1.9722842723E-03
    1.9379526636E-03    1.9042155208E-03    1.8710626343E-03    1.8384839677E-03
    1.8064696547E-03    1.7750099965E-03    1.7440954586E-03    1.7137166687E-03
    1.6838644132E-03    1.6545296355E-03    1.6257034324E-03    1.5973770525E-03
    1.5695418929E-03    1.5421894970E-03    1.5153115522E-03    1.4888998874E-03
    1.4629464706E-03    1.4374434065E-03    1.4123829344E-03    1.3877574257E-03
    1.3635593821E-03    1.3397814329E-03    1.3164163333E-03    1.2934569620E-03
    1.2708963194E-03    1.2487275251E-03    1.2269438165E-03    1.2055385463E-03
    1.1845051811E-03    1.1638372988E-03    1.1435285872E-03    1.1235728422E-03
    1.1039639658E-03    1.0846959641E-03    1.0657629462E-03    1.0471591216E-03
    1.0288787993E-03    1.0109163858E-03    9.9326638304E-04    9.7592338766E-04
    9.5888208869E-04    9.4213726627E-04    9.2568379008E-04    9.0951661781E-04
    8.9363079367E-04    8.7802144696E-04    8.6268379058E-04    8.4761311963E-04
    8.3280481006E-04    8.1825431723E-04    8.0395717463E-04    7.8990899249E-04
    7.7610545655E-04    7.6254232670E-04    7.4921543580E-04    7.3612068839E-04
    7.2325405947E-04    7.1061159333E-04    6.9818940237E-04    6.8598366590E-04
    6.7399062906E-04    6.6220660167E-04    6.5062795711E-04    6.3925113129E-04
    6.2807262152E-04    6.1708898551E-04    6.0629684034E-04    5.9569286141E-04
    5.8527378149E-04    5.7503638971E-04    5.6497753062E-04    5.5509410320E-04
    5.4538306001E-04    5.3584140618E-04    5.2646619859E-04    5.1725454495E-04
    5.0820360291E-04    4.9931057926E-04    4.9057272904E-04    4.8198735475E-04
    4.7355180551E-04    4.6526347625E-04    4.5711980700E-04    4.4911828202E-04
    4.4125642910E-04    4.3353181881E-04    4.2594206375E-04    4.1848481782E-04
    4.1115777555E-04    4.0395867138E-04    3.9688527895E-04    3.8993541048E-04
    3.8310691605E-04    3.7639768301E-04    3.6980563529E-04    3.6332873278E-04
    3.5696497075E-04    3.5071237918E-04    3.4456902221E-04    3.3853299755E-04
    3.3260243587E-04    3.2677550026E-04    3.2105038568E-04    3.1542531837E-04
    3.0989855535E-04    3.0446838387E-04    2.9913312092E-04    2.9389111267E-04
    2.8874073399E-04    2.8368038796E-04    2.7870850539E-04    2.7382354433E-04
    2.6902398958E-04    2.6430835227E-04    2.5967516938E-04    2.5512300329E-04
    2.5065044137E-04    2.4625609550E-04    2.4193860172E-04    2.3769661972E-04
    2.3352883250E-04    2.2943394597E-04    2.2541068848E-04    2.2145781054E-04
    2.1757408433E-04    2.1375830341E-04    2.1000928230E-04    2.0632585614E-04
    2.0270688032E-04    1.9915123015E-04    1.9565780047E-04    1.9222550537E-04
    1.8885327784E-04    1.8554006940E-04    1.8228484983E-04    1.7908660685E-04
    1.7594434576E-04    1.7285708920E-04    1.6982387682E-04    1.6684376496E-04
    1.6391582641E-04    1.6103915009E-04    1.5821284080E-04    1.5543601889E-04
    1.5270782007E-04    1.5002739506E-04    1.4739390940E-04    1.4480654315E-04
    1.4226449065E-04    1.3976696028E-04    1.3731317421E-04    1.3490236815E-04
    1.3253379114E-04    1.3020670528E-04    1.2792038556E-04    1.2567411959E-04
    1.2346720738E-04    1.2129896116E-04    1.1916870514E-04    1.1707577530E-04
    1.1501951921E-04    1.1299929580E-04    1.1101447519E-04    1.0906443846E-04
    1.0714857752E-04    1.0526629483E-04    1.0341700331E-04    1.0160012610E-04
    9.9815096411E-05    9.8061357330E-05    9.6338361661E-05    9.4645571750E-05
    9.2982459325E-05    9.1348505328E-05    8.9743199754E-05    8.8166041499E-05
    8.6616538200E-05    8.5094206085E-05    8.3598569824E-05    8.2129162380E-05
    8.0685524868E-05    7.9267206411E-05    7.7873764000E-05    7.6504762358E-05
    7.5159773807E-05    7.3838378134E-05    7.2540162459E-05    7.1264721113E-05
    7.0011655507E-05    6.8780574011E-05    6.7571091834E-05    6.6382830902E-05
    6.5215419743E-05    6.4068493373E-05    6.2941693181E-05    6.1834666817E-05
    6.0747068087E-05    5.9678556843E-05    5.8628798877E-05    5.7597465820E-05
    5.6584235037E-05    5.5588789530E-05    5.4610817841E-05    5.3650013949E-05
    5.2706077182E-05    5.1778712122E-05    5.0867628511E-05    4.9972541163E-05
    4.9093169876E-05    4.8229239345E-05    4.7380479075E-05    4.6546623298E-05
    4.5727410893E-05    4.4922585301E-05    4.4131894447E-05    4.3355090664E-05
    4.2591930612E-05    4.1842175208E-05    4.1105589545E-05    4.0381942826E-05
    3.9671008286E-05    3.8972563127E-05    3.8286388446E-05    3.7612269168E-05
    3.6949993978E-05    3.6299355256E-05    3.5660149015E-05    3.5032174832E-05
    3.4415235793E-05    3.3809138426E-05    3.3213692642E-05    3.2628711679E-05
    3.2054012041E-05    3.1489413442E-05    3.0934738750E-05    3.0389813931E-05
    2.9854467997E-05    2.9328532950E-05    2.8811843734E-05    2.8304238178E-05
    2.7805556951E-05    2.7315643509E-05    2.6834344047E-05    2.6361507454E-05
    2.5896985261E-05    2.5440631598E-05    2.4992303150E-05    2.4551859108E-05
    2.4119161128E-05    2.3694073291E-05    2.3276462053E-05    2.2866196209E-05
    2.2463146854E-05    2.2067187336E-05    2.1678193222E-05    2.1296042258E-05
    2.0920614330E-05    2.0551791429E-05    2.0189457610E-05    1.9833498960E-05
    1.9483803561E-05    1.9140261454E-05    1.8802764606E-05    1.8471206879E-05
    1.8145483990E-05    1.7825493486E-05    1.7511134706E-05    1.7202308755E-05
    1.6898918468E-05    1.6600868384E-05    1.6308064714E-05    1.6020415313E-05
    1.5737829649E-05    1.5460218778E-05    1.5187495314E-05    1.4919573401E-05
    1.4656368691E-05    1.4397798310E-05    1.4143780839E-05    1.3894236287E-05
    1.3649086062E-05    1.3408252953E-05    1.3171661100E-05    1.2939235974E-05
    1.2710904351E-05    1.2486594293E-05    1.2266235123E-05    1.2049757401E-05
    1.1837092907E-05    1.1628174615E-05    1.1422936677E-05    1.1221314397E-05
    1.1023244215E-05    1.0828663687E-05    1.0637511461E-05    1.0449727264E-05
    1.0265251878E-05    1.0084027125E-05    9.9059958481E-06    9.7311018915E-06
    9.5592900853E-06    9.3905062277E-06    9.2246970676E-06    9.0618102883E-06
    8.9017944908E-06    8.7445991785E-06    8.5901747405E-06    8.4384724367E-06
    8.2894443821E-06    8.1430435325E-06    7.9992236690E-06    7.8579393841E-06
    7.7191460672E-06    7.5827998908E-06    7.4488577969E-06    7.3172774832E-06
    7.1880173900E-06    7.0610366874E-06    6.9362952622E-06    6.8137537055E-06
    6.6933733006E-06    6.5751160103E-06    6.4589444655E-06    6.3448219534E-06
    6.2327124059E-06    6.1225803883E-06    6.0143910883E-06    5.9081103049E-06
    5.8037044379E-06    5.7011404776E-06    5.6003859937E-06    5.5014091258E-06
    5.4041785733E-06    5.3086635854E-06    5.2148339516E-06    5.1226599923E-06
    5.0321125493E-06    4.9431629766E-06    4.8557831319E-06    4.7699453672E-06
    4.6856225206E-06    4.6027879074E-06    4.5214153119E-06    4.4414789793E-06
    4.3629536074E-06    4.2858143388E-06    4.2100367530E-06    4.1355968588E-06
    4.0624710868E-06    3.9906362820E-06    3.9200696965E-06    3.8507489824E-06
    3.7826521845E-06    3.7157577340E-06    3.6500444412E-06    3.5854914891E-06
    3.5220784266E-06    3.4597851626E-06    3.3985919591E-06    3.3384794254E-06
    3.2794285117E-06    3.2214205035E-06    3.1644370154E-06    3.1084599855E-06
    3.0534716694E-06    2.9994546352E-06    2.9463917576E-06    2.8942662124E-06
    2.8430614717E-06    2.7927612983E-06    2.7433497408E-06    2.6948111285E-06
    2.6471300662E-06    2.6002914301E-06    2.5542803622E-06    2.5090822663E-06
    2.4646828029E-06    2.4210678849E-06    2.3782236733E-06    2.3361365727E-06
    2.2947932269E-06    2.2541805150E-06    2.2142855471E-06    2.1750956601E-06
    2.1365984140E-06    2.0987815877E-06    2.0616331754E-06    2.0251413827E-06
    1.9892946230E-06    1.9540815136E-06    1.9194908722E-06    1.8855117138E-06
    1.8521332464E-06    1.8193448684E-06    1.7871361650E-06    1.7554969046E-06
    1.7244170360E-06    1.6938866850E-06    1.6638961515E-06    1.6344359060E-06
    1.6054965874E-06    1.5770689989E-06    1.5491441063E-06    1.5217130343E-06
    1.4947670640E-06    1.4682976303E-06    1.4422963189E-06    1.4167548638E-06
    1.3916651449E-06    1.3670191849E-06    1.3428091474E-06    1.3190273337E-06
    1.2956661814E-06    1.2727182609E-06    1.2501762739E-06    1.2280330506E-06
    1.2062815475E-06    1.1849148456E-06    1.1639261476E-06    1.1433087762E-06
    1.1230561719E-06    1.1031618906E-06    1.0836196020E-06    1.0644230876E-06
    1.0455662383E-06    1.0270430528E-06    1.0088476358E-06    9.9097419570E-07
    9.7341704335E-07    9.5617058977E-07    9.3922934462E-07    9.2258791440E-07
    9.0624100073E-07    8.9018339875E-07    8.7440999540E-07    8.5891576783E-07
    8.4369578181E-07    8.2874519016E-07    8.1405923123E-07    7.9963322742E-07
    7.8546258363E-07    7.7154278587E-07    7.5786939981E-07    7.4443806936E-07
    7.3124451532E-07    7.1828453402E-07    7.0555399598E-07    6.9304884460E-07
    6.8076509488E-07    6.6869883218E-07    6.5684621095E-07    6.4520345352E-07
    6.3376684894E-07    6.2253275173E-07    6.1149758078E-07    6.0065781824E-07
    5.9001000833E-07    5.7955075633E-07    5.6927672741E-07    5.5918464566E-07
    5.4927129302E-07    5.3953350823E-07    5.2996818589E-07    5.2057227542E-07
    5.1134278013E-07    5.0227675624E-07    4.9337131198E-07    4.8462360663E-07
    4.7603084969E-07    4.6759029992E-07    4.5929926449E-07    4.5115509818E-07
    4.4315520246E-07    4.3529702473E-07    4.2757805747E-07    4.1999583749E-07
    4.1254794508E-07    4.0523200331E-07    3.9804567724E-07    3.9098667318E-07
    3.8405273799E-07    3.7724165833E-07    3.7055125997E-07    3.6397940711E-07
    3.5752400169E-07    3.5118298273E-07    3.4495432569E-07    3.3883604179E-07
    3.3282617740E-07    3.2692281344E-07    3.2112406475E-07    3.1542807947E-07
    3.0983303849E-07    3.0433715487E-07    2.9893867324E-07    2.9363586926E-07
    2.8842704909E-07    2.8331054884E-07    2.7828473400E-07    2.7334799902E-07
    2.6849876668E-07    2.6373548768E-07    2.5905664010E-07    2.5446072896E-07
    2.4994628567E-07    2.4551186766E-07    2.4115605783E-07    2.3687746415E-07
    2.3267471923E-07    2.2854647985E-07    2.2449142654E-07    2.2050826318E-07
    2.1659571657E-07    2.1275253601E-07    2.0897749295E-07    2.0526938058E-07
    2.0162701340E-07    1.9804922691E-07    1.9453487720E-07    1.9108284060E-07
    1.8769201332E-07    1.8436131110E-07    1.8108966885E-07    1.7787604034E-07
    1.7471939784E-07    1.7161873182E-07    1.6857305059E-07    1.6558138003E-07
    1.6264276324E-07    1.5975626026E-07    1.5692094778E-07    1.5413591879E-07
    1.5140028237E-07    1.4871316334E-07    1.4607370204E-07    1.4348105399E-07
    1.4093438967E-07    1.3843289426E-07    1.3597576733E-07    1.3356222264E-07
    1.3119148786E-07    1.2886280433E-07    1.2657542683E-07    1.2432862332E-07
    1.2212167471E-07    1.1995387467E-07    1.1782452935E-07    1.1573295720E-07
    1.1367848871E-07    1.1166046625E-07    1.0967824382E-07    1.0773118687E-07
    1.0581867207E-07    1.0394008714E-07    1.0209483064E-07    1.0028231176E-07
    9.8501950182E-08    9.6753175842E-08    9.5035428783E-08    9.3348158959E-08
    9.1690826069E-08    9.0062899376E-08    8.8463857543E-08    8.6893188468E-08
    8.5350389121E-08    8.3834965378E-08    8.2346431868E-08    8.0884311818E-08
    7.9448136896E-08    7.8037447069E-08    7.6651790454E-08    7.5290723169E-08
    7.3953809199E-08    7.2640620250E-08    7.1350735615E-08    7.0083742040E-08
    6.8839233595E-08    6.7616811539E-08    6.6416084197E-08    6.5236666832E-08
    6.4078181524E-08    6.2940257047E-08    6.1822528754E-08    6.0724638461E-08
    5.9646234328E-08    5.8586970752E-08    5.7546508250E-08    5.6524513358E-08
    5.5520658517E-08    5.4534621977E-08    5.3566087690E-08    5.2614745205E-08
    5.1680289576E-08    5.0762421261E-08    4.9860846022E-08    4.8975274842E-08
    4.8105423823E-08    4.7251014101E-08    4.6411771752E-08    4.5587427709E-08
    4.4777717673E-08    4.3982382028E-08    4.3201165763E-08    4.2433818388E-08
    4.1680093849E-08    4.0939750458E-08    4.0212550807E-08    3.9498261700E-08
    3.8796654073E-08    3.8107502924E-08    3.7430587240E-08    3.6765689925E-08
    3.6112597732E-08    3.5471101197E-08    3.4840994565E-08    3.4222075732E-08
    3.3614146179E-08    3.3017010905E-08    3.2430478365E-08    3.1854360412E-08
    3.1288472235E-08    3.0732632298E-08    3.0186662288E-08    2.9650387052E-08
    2.9123634541E-08    2.8606235759E-08    2.8098024707E-08    2.7598838328E-08
    2.7108516457E-08    2.6626901772E-08    2.6153839738E-08    2.5689178562E-08
    2.5232769144E-08    2.4784465025E-08    2.4344122347E-08    2.3911599801E-08
    2.3486758587E-08    2.3069462364E-08    2.2659577211E-08    2.2256971582E-08
    2.1861516265E-08    2.1473084336E-08    2.1091551128E-08    2.0716794183E-08
    2.0348693214E-08    1.9987130069E-08    1.9631988693E-08    1.9283155087E-08
    1.8940517275E-08    1.8603965269E-08    1.8273391033E-08    1.7948688444E-08
    1.7629753266E-08    1.7316483108E-08    1.7008777397E-08    1.6706537347E-08
    1.6409665920E-08    1.6118067805E-08    1.5831649377E-08    1.5550318676E-08
    1.5273985372E-08    1.5002560736E-08    1.4735957616E-08    1.4474090405E-08
    1.4216875017E-08    1.3964228856E-08    1.3716070792E-08    1.3472321135E-08
    1.3232901608E-08    1.2997735324E-08    1.2766746762E-08    1.2539861738E-08
    1.2317007387E-08    1.2098112135E-08    1.1883105681E-08    1.1671918968E-08
    1.1464484166E-08    1.1260734651E-08    1.1060604980E-08    1.0864030869E-08
    1.0670949179E-08    1.0481297888E-08    1.0295016078E-08    1.0112043908E-08
    9.9323226043E-09    9.7557944328E-09    9.5824026853E-09    9.4120916601E-09
    9.2448066439E-09    9.0804938946E-09    8.9191006239E-09    8.7605749813E-09
    8.6048660361E-09    8.4519237619E-09    8.3016990200E-09    8.1541435443E-09
    8.0092099250E-09    7.8668515941E-09    7.7270228108E-09    7.5896786461E-09
    7.4547749683E-09    7.3222684293E-09    7.1921164507E-09    7.0642772096E-09
    6.9387096255E-09    6.8153733480E-09    6.6942287428E-09    6.5752368789E-09
    6.4583595169E-09    6.3435590960E-09    6.2307987224E-09    6.1200421569E-09
    6.0112538045E-09    5.9043987019E-09    5.7994425066E-09    5.6963514858E-09
    5.5950925057E-09    5.4956330208E-09    5.3979410630E-09    5.3019852326E-09
    5.2077346872E-09    5.1151591322E-09    5.0242288107E-09    4.9349144942E-09
    4.8471874734E-09    4.7610195484E-09    4.6763830202E-09    4.5932506823E-09
    4.5115958107E-09    4.4313921562E-09    4.3526139358E-09    4.2752358241E-09
    4.1992329456E-09    4.1245808663E-09    4.0512555868E-09    3.9792335334E-09
    3.9084915512E-09    3.8390068966E-09    3.7707572298E-09    3.7037206077E-09
    3.6378754769E-09    3.5732006669E-09    3.5096753833E-09    3.4472792011E-09
    3.3859920577E-09    3.3257942472E-09    3.2666664134E-09    3.2085895441E-09
    3.1515449643E-09    3.0955143316E-09    3.0404796289E-09    2.9864231591E-09
    2.9333275394E-09    2.8811756960E-09    2.8299508581E-09    2.7796365527E-09
    2.7302165998E-09    2.6816751068E-09    2.6339964632E-09    2.5871653358E-09
    2.5411666638E-09    2.4959856540E-09    2.4516077758E-09    2.4080187569E-09
    2.3652045785E-09    2.3231514709E-09    2.2818459090E-09    2.2412746078E-09
    2.2014245186E-09    2.1622828242E-09    2.1238369350E-09    2.0860744856E-09
    2.0489833298E-09    2.0125515376E-09    1.9767673905E-09    1.9416193785E-09
    1.9070961960E-09    1.8731867381E-09    1.8398800973E-09    1.8071655599E-09
    1.7750326028E-09    1.7434708895E-09    1.7124702673E-09    1.6820207639E-09
    1.6521125841E-09    1.6227361066E-09    1.5938818813E-09    1.5655406260E-09
    1.5377032234E-09    1.5103607182E-09    1.4835043140E-09    1.4571253709E-09
    1.4312154026E-09    1.4057660732E-09    1.3807691953E-09    1.3562167269E-09
    1.3321007690E-09    1.3084135626E-09    1.2851474869E-09    1.2622950564E-09
    1.2398489186E-09    1.2178018515E-09    1.1961467618E-09    1.1748766819E-09
    1.1539847684E-09    1.1334642990E-09    1.1133086714E-09    1.0935114001E-09
    1.0740661152E-09    1.0549665597E-09    1.0362065882E-09    1.0177801643E-09
    9.9968135876E-10    9.8190434790E-10    9.6444341140E-10    9.4729293066E-10
    9.3044738682E-10    9.1390135920E-10    8.9764952352E-10    8.8168665003E-10
    8.6600760196E-10    8.5060733379E-10    8.3548088969E-10    8.2062340190E-10
    8.0603008909E-10    7.9169625501E-10    7.7761728692E-10    7.6378865399E-10
    7.5020590591E-10    7.3686467148E-10    7.2376065718E-10    7.1088964580E-10
    6.9824749498E-10    6.8583013616E-10    6.7363357304E-10    6.6165388033E-10
    6.4988720251E-10    6.3832975257E-10    6.2697781083E-10    6.1582772369E-10
    6.0487590245E-10    5.9411882230E-10    5.8355302106E-10    5.7317509808E-10
    5.6298171314E-10    5.5296958538E-10    5.4313549228E-10    5.3347626856E-10
    5.2398880517E-10    5.1467004844E-10    5.0551699892E-10    4.9652671049E-10
    4.8769628938E-10    4.7902289327E-10    4.7050373035E-10    4.6213605842E-10
    4.5391718400E-10    4.4584446157E-10    4.3791529260E-10    4.3012712478E-10
    4.2247745112E-10    4.1496380922E-10    4.0758378045E-10    4.0033498915E-10
    3.9321510188E-10    3.8622182671E-10    3.7935291249E-10    3.7260614805E-10
    3.6597936153E-10    3.5947041968E-10    3.5307722716E-10    3.4679772588E-10
    3.4062989432E-10    3.3457174691E-10    3.2862133342E-10    3.2277673826E-10
    3.1703607990E-10    3.1139751025E-10    3.0585921407E-10    3.0041940839E-10
    2.9507634192E-10    2.8982829451E-10    2.8467357665E-10    2.7961052881E-10
    2.7463752099E-10    2.6975295215E-10    2.6495524972E-10    2.6024286908E-10
    2.5561429307E-10    2.5106803146E-10    2.4660262062E-10    2.4221662287E-10
    2.3790862611E-10    2.3367724335E-10    2.2952111224E-10    2.2543889466E-10
    2.2142927627E-10    2.1749096607E-10    2.1362269608E-10    2.0982322085E-10
    2.0609131704E-10    2.0242578309E-10    1.9882543878E-10    1.9528912489E-10
    1.9181570281E-10    1.8840405413E-10    1.8505308035E-10    1.8176170256E-10
    1.7852886097E-10    1.7535351466E-10    1.7223464120E-10    1.6917123635E-10
    1.6616231371E-10    1.6320690443E-10    1.6030405686E-10    1.5745283631E-10
    1.5465232471E-10    1.5190162030E-10    1.4919983734E-10    1.4654610587E-10
    1.4393957136E-10    1.4137939450E-10    1.3886475088E-10    1.3639483076E-10
    1.3396883883E-10    1.3158599388E-10    1.2924552862E-10    1.2694668939E-10
    1.2468873591E-10    1.2247094110E-10    1.2029259079E-10    1.1815298346E-10
    1.1605143016E-10    1.1398725414E-10    1.1195979069E-10    1.0996838692E-10
    1.0801240153E-10    1.0609120466E-10    1.0420417762E-10    1.0235071272E-10
    1.0053021308E-10    9.8742092451E-11    9.6985775010E-11    9.5260695158E-11
    9.3566297357E-11    9.1902035947E-11    9.0267374970E-11    8.8661788001E-11
    8.7084757951E-11    8.5535776969E-11    8.4014346219E-11    8.2519975733E-11
    8.1052184256E-11    7.9610499090E-11    7.8194455942E-11    7.6803598776E-11
    7.5437479661E-11    7.4095658620E-11    7.2777703535E-11    7.1483189955E-11
    7.0211700976E-11    6.8962827105E-11    6.7736166135E-11    6.6531323009E-11
    6.5347909694E-11    6.4185545051E-11    6.3043854724E-11    6.1922471029E-11
    6.0821032808E-11    5.9739185328E-11    5.8676580163E-11    5.7632875082E-11
    5.6607733941E-11    5.5600826572E-11    5.4611828668E-11    5.3640421709E-11
    5.2686292839E-11    5.1749134759E-11    5.0828645636E-11    4.9924529004E-11
    4.9036493670E-11    4.8164253616E-11    4.7307527914E-11    4.6466040619E-11
    4.5639520714E-11    4.4827701995E-11    4.4030322992E-11    4.3247126880E-11
    4.2477861407E-11    4.1722278802E-11    4.0980135702E-11    4.0251193074E-11
    3.9535216121E-11    3.8831974248E-11    3.8141240946E-11    3.7462793740E-11
    3.6796414106E-11    3.6141887410E-11    3.5499002834E-11    3.4867553310E-11
    3.4247335450E-11    3.3638149470E-11    3.3039799175E-11    3.2452091843E-11
    3.1874838179E-11    3.1307852254E-11    3.0750951448E-11    3.0203956386E-11
    2.9666690885E-11    2.9138981894E-11    2.8620659437E-11    2.8111556569E-11
    2.7611509308E-11    2.7120356591E-11    2.6637940218E-11    2.6164104802E-11
    2.5698697719E-11    2.5241569059E-11    2.4792571577E-11    2.4351560643E-11
    2.3918394210E-11    2.3492932751E-11    2.3075039222E-11    2.2664579012E-11
    2.2261419909E-11    2.1865432048E-11    2.1476487875E-11    2.1094462105E-11
    2.0719231670E-11    2.0350675711E-11    1.9988675513E-11    1.9633114466E-11
    1.9283878040E-11    1.8940853736E-11    1.8603931061E-11    1.8273001485E-11
    1.7947958406E-11    1.7628697115E-11
   </PP_CHI.2>
   <PP_CHI.3
       type="real"
       size="1534"
       columns="4"
       index="3"
       occupation=" 2.000"
       pseudo_energy="   -0.3277213021E+01"
       label="3P"
       l="1" >
    5.8573632056E-12    3.8050295995E-04    1.5213977228E-03    3.4208431884E-03
    6.0757750321E-03    9.4819119590E-03    1.3633764440E-02    1.8524645906E-02
    2.4146686382E-02    3.0490848518E-02    3.7546945989E-02    4.5303664219E-02
    5.3748583369E-02    6.2868203561E-02    7.2647972249E-02    8.3072313691E-02
    9.4124660450E-02    1.0578748685E-01    1.1804234430E-01    1.3086989840E-01
    1.4424996781E-01    1.5816156463E-01    1.7258293637E-01    1.8749160935E-01
    2.0286443332E-01    2.1867762745E-01    2.3490682721E-01    2.5152713244E-01
    2.6851315620E-01    2.8583907434E-01    3.0347867580E-01    3.2140541340E-01
    3.3959245503E-01    3.5801273508E-01    3.7663900612E-01    3.9544389057E-01
    4.1439993225E-01    4.3347964782E-01    4.5265557779E-01    4.7190033719E-01
    4.9118666562E-01    5.1048747663E-01    5.2977590630E-01    5.4902536101E-01
    5.6820956408E-01    5.8730260134E-01    6.0627896559E-01    6.2511359957E-01
    6.4378193768E-01    6.6225994612E-01    6.8052416151E-01    6.9855172781E-01
    7.1632043155E-01    7.3380873522E-01    7.5099580884E-01    7.6786155959E-01
    7.8438665946E-01    8.0055257092E-01    8.1634157047E-01    8.3173677016E-01
    8.4672213699E-01    8.6128251010E-01    8.7540361591E-01    8.8907208099E-01
    9.0227544289E-01    9.1500215867E-01    9.2724161141E-01    9.3898411446E-01
    9.5022091371E-01    9.6094418769E-01    9.7114704559E-01    9.8082352341E-01
    9.8996857795E-01    9.9857807906E-01    1.0066487999E+00    1.0141784054E+00
    1.0211654393E+00    1.0276093086E+00    1.0335102678E+00    1.0388694003E+00
    1.0436885991E+00    1.0479705458E+00    1.0517186884E+00    1.0549372181E+00
    1.0576310446E+00    1.0598057705E+00    1.0614676647E+00    1.0626236355E+00
    1.0632812018E+00    1.0634484644E+00    1.0631340771E+00    1.0623472161E+00
    1.0610975498E+00    1.0593952083E+00    1.0572507524E+00    1.0546751422E+00
    1.0516797064E+00    1.0482761107E+00    1.0444763267E+00    1.0402926012E+00
    1.0357374253E+00    1.0308235042E+00    1.0255637264E+00    1.0199711350E+00
    1.0140588980E+00    1.0078402796E+00    1.0013286125E+00    9.9453727034E-01
    9.8747964111E-01    9.8016910118E-01    9.7261899019E-01    9.6484258671E-01
    9.5685308483E-01    9.4866357155E-01    9.4028700515E-01    9.3173619446E-01
    9.2302377914E-01    9.1416221090E-01    9.0516373571E-01    8.9604037707E-01
    8.8680392023E-01    8.7746589747E-01    8.6803757444E-01    8.5852993743E-01
    8.4895368181E-01    8.3931920135E-01    8.2963657865E-01    8.1991557658E-01
    8.1016563067E-01    8.0039584253E-01    7.9061497424E-01    7.8083144373E-01
    7.7105332100E-01    7.6128832543E-01    7.5154382385E-01    7.4182682961E-01
    7.3214400240E-01    7.2250164902E-01    7.1290572491E-01    7.0336183647E-01
    6.9387524416E-01    6.8445086634E-01    6.7509328378E-01    6.6580674493E-01
    6.5659517172E-01    6.4746216611E-01    6.3841101711E-01    6.2944470845E-01
    6.2056592668E-01    6.1177706987E-01    6.0308025662E-01    5.9447733567E-01
    5.8596989570E-01    5.7755927564E-01    5.6924657520E-01    5.6103266572E-01
    5.5291820122E-01    5.4490362971E-01    5.3698920464E-01    5.2917499645E-01
    5.2146090430E-01    5.1384666776E-01    5.0633187860E-01    4.9891599252E-01
    4.9159834087E-01    4.8437814224E-01    4.7725451396E-01    4.7022648342E-01
    4.6329299928E-01    4.5645294229E-01    4.4970513605E-01    4.4304835735E-01
    4.3648134623E-01    4.3000281570E-01    4.2361146105E-01    4.1730596882E-01
    4.1108502526E-01    4.0494732436E-01    3.9889157545E-01    3.9291651019E-01
    3.8702088915E-01    3.8120350776E-01    3.7546320177E-01    3.6979885204E-01
    3.6420938877E-01    3.5869379516E-01    3.5325111055E-01    3.4788043286E-01
    3.4258092047E-01    3.3735179333E-01    3.3219233370E-01    3.2710188604E-01
    3.2207985152E-01    3.1712566543E-01    3.1223875559E-01    3.0741853815E-01
    3.0266442197E-01    2.9797580785E-01    2.9335208952E-01    2.8879265419E-01
    2.8429688323E-01    2.7986415274E-01    2.7549383411E-01    2.7118529457E-01
    2.6693789773E-01    2.6275100404E-01    2.5862397132E-01    2.5455615518E-01
    2.5054690948E-01    2.4659558678E-01    2.4270153869E-01    2.3886411632E-01
    2.3508267064E-01    2.3135655281E-01    2.2768511460E-01    2.2406770865E-01
    2.2050368883E-01    2.1699241053E-01    2.1353323100E-01    2.1012550955E-01
    2.0676860790E-01    2.0346189037E-01    2.0020472421E-01    1.9699647972E-01
    1.9383653058E-01    1.9072425399E-01    1.8765903091E-01    1.8464024622E-01
    1.8166728891E-01    1.7873955225E-01    1.7585643394E-01    1.7301733625E-01
    1.7022166618E-01    1.6746883557E-01    1.6475826120E-01    1.6208936492E-01
    1.5946157375E-01    1.5687431997E-01    1.5432704117E-01    1.5181918036E-01
    1.4935018604E-01    1.4691951221E-01    1.4452661848E-01    1.4217097005E-01
    1.3985203781E-01    1.3756929835E-01    1.3532223395E-01    1.3311033264E-01
    1.3093308821E-01    1.2879000021E-01    1.2668057393E-01    1.2460432045E-01
    1.2256075661E-01    1.2054940499E-01    1.1856979391E-01    1.1662145741E-01
    1.1470393524E-01    1.1281677284E-01    1.1095952130E-01    1.0913173734E-01
    1.0733298327E-01    1.0556282699E-01    1.0382084192E-01    1.0210660699E-01
    1.0041970658E-01    9.8759730507E-02    9.7126273955E-02    9.5518937460E-02
    9.3937326849E-02    9.2381053205E-02    9.0849732821E-02    8.9342987150E-02
    8.7860442763E-02    8.6401731299E-02    8.4966489418E-02    8.3554358753E-02
    8.2164985862E-02    8.0798022175E-02    7.9453123948E-02    7.8129952213E-02
    7.6828172727E-02    7.5547455921E-02    7.4287476851E-02    7.3047915148E-02
    7.1828454965E-02    7.0628784931E-02    6.9448598096E-02    6.8287591883E-02
    6.7145468036E-02    6.6021932575E-02    6.4916695737E-02    6.3829471937E-02
    6.2759979708E-02    6.1707941659E-02    6.0673084423E-02    5.9655138606E-02
    5.8653838745E-02    5.7668923250E-02    5.6700134365E-02    5.5747218114E-02
    5.4809924257E-02    5.3888006241E-02    5.2981221154E-02    5.2089329678E-02
    5.1212096043E-02    5.0349287982E-02    4.9500676684E-02    4.8666036751E-02
    4.7845146152E-02    4.7037786178E-02    4.6243741400E-02    4.5462799624E-02
    4.4694751849E-02    4.3939392225E-02    4.3196518006E-02    4.2465929516E-02
    4.1747430099E-02    4.1040826085E-02    4.0345926746E-02    3.9662544255E-02
    3.8990493648E-02    3.8329592784E-02    3.7679662306E-02    3.7040525601E-02
    3.6412008765E-02    3.5793940563E-02    3.5186152390E-02    3.4588478239E-02
    3.4000754660E-02    3.3422820725E-02    3.2854517993E-02    3.2295690476E-02
    3.1746184599E-02    3.1205849174E-02    3.0674535356E-02    3.0152096617E-02
    2.9638388709E-02    2.9133269633E-02    2.8636599606E-02    2.8148241026E-02
    2.7668058445E-02    2.7195918535E-02    2.6731690059E-02    2.6275243835E-02
    2.5826452714E-02    2.5385191545E-02    2.4951337145E-02    2.4524768274E-02
    2.4105365602E-02    2.3693011685E-02    2.3287590932E-02    2.2888989582E-02
    2.2497095675E-02    2.2111799025E-02    2.1732991193E-02    2.1360565462E-02
    2.0994416811E-02    2.0634441888E-02    2.0280538988E-02    1.9932608024E-02
    1.9590550507E-02    1.9254269519E-02    1.8923669689E-02    1.8598657172E-02
    1.8279139623E-02    1.7965026176E-02    1.7656227422E-02    1.7352655384E-02
    1.7054223498E-02    1.6760846590E-02    1.6472440855E-02    1.6188923835E-02
    1.5910214402E-02    1.5636232731E-02    1.5366900287E-02    1.5102139800E-02
    1.4841875249E-02    1.4586031839E-02    1.4334535986E-02    1.4087315294E-02
    1.3844298542E-02    1.3605415660E-02    1.3370597715E-02    1.3139776892E-02
    1.2912886475E-02    1.2689860835E-02    1.2470635406E-02    1.2255146673E-02
    1.2043332156E-02    1.1835130389E-02    1.1630480912E-02    1.1429324246E-02
    1.1231601884E-02    1.1037256275E-02    1.0846230805E-02    1.0658469789E-02
    1.0473918449E-02    1.0292522904E-02    1.0114230156E-02    9.9389880740E-03
    9.7667453815E-03    9.5974516428E-03    9.4310572496E-03    9.2675134079E-03
    9.1067721249E-03    8.9487861968E-03    8.7935091956E-03    8.6408954571E-03
    8.4909000687E-03    8.3434788576E-03    8.1985883786E-03    8.0561859028E-03
    7.9162294061E-03    7.7786775578E-03    7.6434897098E-03    7.5106258853E-03
    7.3800467684E-03    7.2517136934E-03    7.1255886341E-03    7.0016341940E-03
    6.8798135958E-03    6.7600906718E-03    6.6424298536E-03    6.5267961631E-03
    6.4131552025E-03    6.3014731451E-03    6.1917167261E-03    6.0838532337E-03
    5.9778504998E-03    5.8736768917E-03    5.7713013028E-03    5.6706931449E-03
    5.5718223390E-03    5.4746593079E-03    5.3791749673E-03    5.2853407181E-03
    5.1931284387E-03    5.1025104771E-03    5.0134596433E-03    4.9259492017E-03
    4.8399528639E-03    4.7554447812E-03    4.6723995376E-03    4.5907921428E-03
    4.5105980251E-03    4.4317930246E-03    4.3543533867E-03    4.2782557552E-03
    4.2034771659E-03    4.1299950403E-03    4.0577871792E-03    3.9868317564E-03
    3.9171073127E-03    3.8485927501E-03    3.7812673252E-03    3.7151106444E-03
    3.6501026572E-03    3.5862236512E-03    3.5234542461E-03    3.4617753888E-03
    3.4011683474E-03    3.3416147062E-03    3.2830963608E-03    3.2255955123E-03
    3.1690946629E-03    3.1135766105E-03    3.0590244441E-03    3.0054215389E-03
    2.9527515514E-03    2.9009984151E-03    2.8501463357E-03    2.8001797865E-03
    2.7510835042E-03    2.7028424845E-03    2.6554419776E-03    2.6088674844E-03
    2.5631047516E-03    2.5181397687E-03    2.4739587627E-03    2.4305481954E-03
    2.3878947586E-03    2.3459853707E-03    2.3048071726E-03    2.2643475246E-03
    2.2245940020E-03    2.1855343920E-03    2.1471566901E-03    2.1094490966E-03
    2.0724000129E-03    2.0359980387E-03    2.0002319681E-03    1.9650907869E-03
    1.9305636689E-03    1.8966399730E-03    1.8633092402E-03    1.8305611903E-03
    1.7983857190E-03    1.7667728952E-03    1.7357129575E-03    1.7051963121E-03
    1.6752135294E-03    1.6457553415E-03    1.6168126394E-03    1.5883764703E-03
    1.5604380351E-03    1.5329886858E-03    1.5060199228E-03    1.4795233926E-03
    1.4534908850E-03    1.4279143312E-03    1.4027858010E-03    1.3780975005E-03
    1.3538417699E-03    1.3300110815E-03    1.3065980368E-03    1.2835953649E-03
    1.2609959201E-03    1.2387926799E-03    1.2169787426E-03    1.1955473259E-03
    1.1744917639E-03    1.1538055062E-03    1.1334821152E-03    1.1135152643E-03
    1.0938987364E-03    1.0746264216E-03    1.0556923155E-03    1.0370905176E-03
    1.0188152292E-03    1.0008607520E-03    9.8322148621E-04    9.6589192886E-04
    9.4886667221E-04    9.3214040211E-04    9.1570789640E-04    8.9956402334E-04
    8.8370374009E-04    8.6812209113E-04    8.5281420685E-04    8.3777530202E-04
    8.2300067436E-04    8.0848570316E-04    7.9422584783E-04    7.8021664656E-04
    7.6645371496E-04    7.5293274474E-04    7.3964950240E-04    7.2659982797E-04
    7.1377963372E-04    7.0118490292E-04    6.8881168865E-04    6.7665611257E-04
    6.6471436379E-04    6.5298269763E-04    6.4145743458E-04    6.3013495909E-04
    6.1901171855E-04    6.0808422214E-04    5.9734903980E-04    5.8680280120E-04
    5.7644219466E-04    5.6626396621E-04    5.5626491852E-04    5.4644190997E-04
    5.3679185371E-04    5.2731171664E-04    5.1799851857E-04    5.0884933124E-04
    4.9986127746E-04    4.9103153021E-04    4.8235731179E-04    4.7383589296E-04
    4.6546459210E-04    4.5724077438E-04    4.4916185097E-04    4.4122527824E-04
    4.3342855696E-04    4.2576923154E-04    4.1824488930E-04    4.1085315968E-04
    4.0359171356E-04    3.9645826251E-04    3.8945055808E-04    3.8256639114E-04
    3.7580359116E-04    3.6916002559E-04    3.6263359914E-04    3.5622225317E-04
    3.4992396506E-04    3.4373674757E-04    3.3765864823E-04    3.3168774873E-04
    3.2582216433E-04    3.2006004328E-04    3.1439956625E-04    3.0883894577E-04
    3.0337642565E-04    2.9801028047E-04    2.9273881501E-04    2.8756036376E-04
    2.8247329040E-04    2.7747598723E-04    2.7256687478E-04    2.6774440122E-04
    2.6300704193E-04    2.5835329902E-04    2.5378170084E-04    2.4929080156E-04
    2.4487918069E-04    2.4054544267E-04    2.3628821638E-04    2.3210615478E-04
    2.2799793444E-04    2.2396225516E-04    2.1999783954E-04    2.1610343261E-04
    2.1227780141E-04    2.0851973461E-04    2.0482804217E-04    2.0120155491E-04
    1.9763912419E-04    1.9413962154E-04    1.9070193828E-04    1.8732498523E-04
    1.8400769231E-04    1.8074900826E-04    1.7754790026E-04    1.7440335364E-04
    1.7131437157E-04    1.6827997472E-04    1.6529920096E-04    1.6237110507E-04
    1.5949475846E-04    1.5666924883E-04    1.5389367993E-04    1.5116717127E-04
    1.4848885782E-04    1.4585788977E-04    1.4327343225E-04    1.4073466507E-04
    1.3824078244E-04    1.3579099277E-04    1.3338451838E-04    1.3102059526E-04
    1.2869847284E-04    1.2641741377E-04    1.2417669365E-04    1.2197560082E-04
    1.1981343617E-04    1.1768951285E-04    1.1560315614E-04    1.1355370315E-04
    1.1154050269E-04    1.0956291500E-04    1.0762031161E-04    1.0571207509E-04
    1.0383759888E-04    1.0199628711E-04    1.0018755440E-04    9.8410825650E-05
    9.6665535917E-05    9.4951130187E-05    9.3267063226E-05    9.1612799397E-05
    8.9987812500E-05    8.8391585598E-05    8.6823610861E-05    8.5283389403E-05
    8.3770431127E-05    8.2284254565E-05    8.0824386735E-05    7.9390362986E-05
    7.7981726852E-05    7.6598029912E-05    7.5238831643E-05    7.3903699287E-05
    7.2592207711E-05    7.1303939274E-05    7.0038483694E-05    6.8795437921E-05
    6.7574406011E-05    6.6374998994E-05    6.5196834761E-05    6.4039537936E-05
    6.2902739761E-05    6.1786077980E-05    6.0689196722E-05    5.9611746391E-05
    5.8553383557E-05    5.7513770842E-05    5.6492576820E-05    5.5489475908E-05
    5.4504148266E-05    5.3536279694E-05    5.2585561532E-05    5.1651690568E-05
    5.0734368934E-05    4.9833304018E-05    4.8948208369E-05    4.8078799609E-05
    4.7224800339E-05    4.6385938054E-05    4.5561945060E-05    4.4752558381E-05
    4.3957519687E-05    4.3176575201E-05    4.2409475627E-05    4.1655976069E-05
    4.0915835951E-05    4.0188818944E-05    3.9474692888E-05    3.8773229724E-05
    3.8084205415E-05    3.7407399881E-05    3.6742596926E-05    3.6089584170E-05
    3.5448152983E-05    3.4818098419E-05    3.4199219148E-05    3.3591317398E-05
    3.2994198885E-05    3.2407672758E-05    3.1831551537E-05    3.1265651050E-05
    3.0709790380E-05    3.0163791803E-05    2.9627480735E-05    2.9100685675E-05
    2.8583238152E-05    2.8074972669E-05    2.7575726654E-05    2.7085340406E-05
    2.6603657046E-05    2.6130522465E-05    2.5665785278E-05    2.5209296774E-05
    2.4760910869E-05    2.4320484062E-05    2.3887875386E-05    2.3462946364E-05
    2.3045560970E-05    2.2635585577E-05    2.2232888924E-05    2.1837342066E-05
    2.1448818340E-05    2.1067193319E-05    2.0692344779E-05    2.0324152652E-05
    1.9962498997E-05    1.9607267955E-05    1.9258345715E-05    1.8915620480E-05
    1.8578982429E-05    1.8248323682E-05    1.7923538268E-05    1.7604522086E-05
    1.7291172882E-05    1.6983390204E-05    1.6681075381E-05    1.6384131485E-05
    1.6092463301E-05    1.5805977302E-05    1.5524581611E-05    1.5248185979E-05
    1.4976701753E-05    1.4710041845E-05    1.4448120713E-05    1.4190854325E-05
    1.3938160136E-05    1.3689957061E-05    1.3446165452E-05    1.3206707067E-05
    1.2971505052E-05    1.2740483910E-05    1.2513569481E-05    1.2290688919E-05
    1.2071770665E-05    1.1856744427E-05    1.1645541158E-05    1.1438093033E-05
    1.1234333426E-05    1.1034196893E-05    1.0837619147E-05    1.0644537038E-05
    1.0454888535E-05    1.0268612708E-05    1.0085649700E-05    9.9059407193E-06
    9.7294280121E-06    9.5560548482E-06    9.3857655021E-06    9.2185052350E-06
    9.0542202775E-06    8.8928578125E-06    8.7343659584E-06    8.5786937526E-06
    8.4257911351E-06    8.2756089326E-06    8.1280988432E-06    7.9832134202E-06
    7.8409060578E-06    7.7011309759E-06    7.5638432053E-06    7.4289985737E-06
    7.2965536916E-06    7.1664659382E-06    7.0386934480E-06    6.9131950974E-06
    6.7899304916E-06    6.6688599518E-06    6.5499445024E-06    6.4331458586E-06
    6.3184264141E-06    6.2057492295E-06    6.0950780198E-06    5.9863771436E-06
    5.8796115912E-06    5.7747469736E-06    5.6717495115E-06    5.5705860246E-06
    5.4712239208E-06    5.3736311860E-06    5.2777763739E-06    5.1836285956E-06
    5.0911575102E-06    5.0003333148E-06    4.9111267351E-06    4.8235090162E-06
    4.7374519129E-06    4.6529276813E-06    4.5699090694E-06    4.4883693090E-06
    4.4082821064E-06    4.3296216345E-06    4.2523625246E-06    4.1764798579E-06
    4.1019491578E-06    4.0287463821E-06    3.9568479151E-06    3.8862305602E-06
    3.8168715326E-06    3.7487484518E-06    3.6818393343E-06    3.6161225871E-06
    3.5515770003E-06    3.4881817405E-06    3.4259163440E-06    3.3647607107E-06
    3.3046950969E-06    3.2457001097E-06    3.1877567004E-06    3.1308461587E-06
    3.0749501061E-06    3.0200504909E-06    2.9661295816E-06    2.9131699616E-06
    2.8611545240E-06    2.8100664651E-06    2.7598892800E-06    2.7106067570E-06
    2.6622029721E-06    2.6146622843E-06    2.5679693304E-06    2.5221090200E-06
    2.4770665310E-06    2.4328273045E-06    2.3893770402E-06    2.3467016919E-06
    2.3047874630E-06    2.2636208020E-06    2.2231883983E-06    2.1834771776E-06
    2.1444742983E-06    2.1061671465E-06    2.0685433330E-06    2.0315906885E-06
    1.9952972599E-06    1.9596513069E-06    1.9246412975E-06    1.8902559050E-06
    1.8564840038E-06    1.8233146663E-06    1.7907371589E-06    1.7587409391E-06
    1.7273156517E-06    1.6964511256E-06    1.6661373706E-06    1.6363645741E-06
    1.6071230980E-06    1.5784034757E-06    1.5501964087E-06    1.5224927641E-06
    1.4952835713E-06    1.4685600193E-06    1.4423134537E-06    1.4165353744E-06
    1.3912174319E-06    1.3663514258E-06    1.3419293012E-06    1.3179431467E-06
    1.2943851916E-06    1.2712478033E-06    1.2485234853E-06    1.2262048741E-06
    1.2042847375E-06    1.1827559720E-06    1.1616116004E-06    1.1408447696E-06
    1.1204487485E-06    1.1004169260E-06    1.0807428083E-06    1.0614200175E-06
    1.0424422890E-06    1.0238034698E-06    1.0054975165E-06    9.8751849309E-07
    9.6986056936E-07    9.5251801885E-07    9.3548521706E-07    9.1875663963E-07
    9.0232686053E-07    8.8619055036E-07    8.7034247461E-07    8.5477749197E-07
    8.3949055268E-07    8.2447669691E-07    8.0973105315E-07    7.9524883665E-07
    7.8102534784E-07    7.6705597091E-07    7.5333617222E-07    7.3986149888E-07
    7.2662757733E-07    7.1363011191E-07    7.0086488345E-07    6.8832774800E-07
    6.7601463538E-07    6.6392154794E-07    6.5204455925E-07    6.4037981283E-07
    6.2892352092E-07    6.1767196324E-07    6.0662148581E-07    5.9576849975E-07
    5.8510948013E-07    5.7464096484E-07    5.6435955346E-07    5.5426190620E-07
    5.4434474274E-07    5.3460484128E-07    5.2503903739E-07    5.1564422307E-07
    5.0641734573E-07    4.9735540716E-07    4.8845546263E-07    4.7971461988E-07
    4.7113003820E-07    4.6269892756E-07    4.5441854763E-07    4.4628620697E-07
    4.3829926210E-07    4.3045511670E-07    4.2275122070E-07    4.1518506955E-07
    4.0775420332E-07    4.0045620599E-07    3.9328870457E-07    3.8624936843E-07
    3.7933590847E-07    3.7254607646E-07    3.6587766423E-07    3.5932850300E-07
    3.5289646269E-07    3.4657945119E-07    3.4037541373E-07    3.3428233216E-07
    3.2829822438E-07    3.2242114361E-07    3.1664917781E-07    3.1098044904E-07
    3.0541311289E-07    2.9994535784E-07    2.9457540468E-07    2.8930150597E-07
    2.8412194544E-07    2.7903503742E-07    2.7403912635E-07    2.6913258621E-07
    2.6431381998E-07    2.5958125915E-07    2.5493336320E-07    2.5036861909E-07
    2.4588554081E-07    2.4148266886E-07    2.3715856977E-07    2.3291183569E-07
    2.2874108388E-07    2.2464495627E-07    2.2062211904E-07    2.1667126221E-07
    2.1279109914E-07    2.0898036619E-07    2.0523782225E-07    2.0156224840E-07
    1.9795244746E-07    1.9440724363E-07    1.9092548210E-07    1.8750602869E-07
    1.8414776945E-07    1.8084961035E-07    1.7761047687E-07    1.7442931368E-07
    1.7130508432E-07    1.6823677081E-07    1.6522337336E-07    1.6226391003E-07
    1.5935741643E-07    1.5650294538E-07    1.5369956662E-07    1.5094636652E-07
    1.4824244775E-07    1.4558692901E-07    1.4297894474E-07    1.4041764486E-07
    1.3790219446E-07    1.3543177353E-07    1.3300557674E-07    1.3062281313E-07
    1.2828270586E-07    1.2598449200E-07    1.2372742221E-07    1.2151076057E-07
    1.1933378430E-07    1.1719578352E-07    1.1509606105E-07    1.1303393217E-07
    1.1100872437E-07    1.0901977719E-07    1.0706644195E-07    1.0514808157E-07
    1.0326407034E-07    1.0141379376E-07    9.9596648297E-08    9.7812041194E-08
    9.6059390302E-08    9.4338123869E-08    9.2647680365E-08    9.0987508297E-08
    8.9357066029E-08    8.7755821604E-08    8.6183252577E-08    8.4638845837E-08
    8.3122097446E-08    8.1632512479E-08    8.0169604854E-08    7.8732897182E-08
    7.7321920604E-08    7.5936214647E-08    7.4575327065E-08    7.3238813702E-08
    7.1926238343E-08    7.0637172570E-08    6.9371195627E-08    6.8127894280E-08
    6.6906862681E-08    6.5707702241E-08    6.4530021500E-08    6.3373435997E-08
    6.2237568146E-08    6.1122047110E-08    6.0026508688E-08    5.8950595187E-08
    5.7893955316E-08    5.6856244063E-08    5.5837122588E-08    5.4836258111E-08
    5.3853323802E-08    5.2887998677E-08    5.1939967492E-08    5.1008920646E-08
    5.0094554072E-08    4.9196569141E-08    4.8314672569E-08    4.7448576314E-08
    4.6597997488E-08    4.5762658265E-08    4.4942285788E-08    4.4136612081E-08
    4.3345373962E-08    4.2568312957E-08    4.1805175215E-08    4.1055711427E-08
    4.0319676746E-08    3.9596830705E-08    3.8886937139E-08    3.8189764108E-08
    3.7505083821E-08    3.6832672563E-08    3.6172310625E-08    3.5523782225E-08
    3.4886875446E-08    3.4261382160E-08    3.3647097964E-08    3.3043822113E-08
    3.2451357454E-08    3.1869510363E-08    3.1298090680E-08    3.0736911649E-08
    3.0185789855E-08    2.9644545167E-08    2.9113000674E-08    2.8590982636E-08
    2.8078320421E-08    2.7574846449E-08    2.7080396142E-08    2.6594807867E-08
    2.6117922881E-08    2.5649585286E-08    2.5189641973E-08    2.4737942574E-08
    2.4294339414E-08    2.3858687457E-08    2.3430844268E-08    2.3010669959E-08
    2.2598027146E-08    2.2192780906E-08    2.1794798731E-08    2.1403950485E-08
    2.1020108361E-08    2.0643146840E-08    2.0272942650E-08    1.9909374729E-08
    1.9552324178E-08    1.9201674230E-08    1.8857310207E-08    1.8519119485E-08
    1.8186991456E-08    1.7860817492E-08    1.7540490911E-08    1.7225906942E-08
    1.6916962686E-08    1.6613557092E-08    1.6315590915E-08    1.6022966688E-08
    1.5735588687E-08    1.5453362907E-08    1.5176197023E-08    1.4904000364E-08
    1.4636683883E-08    1.4374160128E-08    1.4116343211E-08    1.3863148784E-08
    1.3614494010E-08    1.3370297536E-08    1.3130479463E-08    1.2894961326E-08
    1.2663666064E-08    1.2436517996E-08    1.2213442797E-08    1.1994367473E-08
    1.1779220338E-08    1.1567930989E-08    1.1360430285E-08    1.1156650322E-08
    1.0956524415E-08    1.0759987069E-08    1.0566973967E-08    1.0377421942E-08
    1.0191268958E-08    1.0008454092E-08    9.8289175091E-09    9.6526004494E-09
    9.4794452043E-09    9.3093950996E-09    9.1423944760E-09    8.9783886716E-09
    8.8173240033E-09    8.6591477502E-09    8.5038081354E-09    8.3512543097E-09
    8.2014363358E-09    8.0543051702E-09    7.9098126484E-09    7.7679114689E-09
    7.6285551774E-09    7.4916981520E-09    7.3572955880E-09    7.2253034842E-09
    7.0956786276E-09    6.9683785791E-09    6.8433616602E-09    6.7205869395E-09
    6.6000142183E-09    6.4816040186E-09    6.3653175702E-09    6.2511167975E-09
    6.1389643068E-09    6.0288233749E-09    5.9206579364E-09    5.8144325723E-09
    5.7101124977E-09    5.6076635523E-09    5.5070521873E-09    5.4082454551E-09
    5.3112109987E-09    5.2159170409E-09    5.1223323740E-09    5.0304263492E-09
    4.9401688677E-09    4.8515303699E-09    4.7644818260E-09    4.6789947262E-09
    4.5950410720E-09    4.5125933666E-09    4.4316246057E-09    4.3521082693E-09
    4.2740183131E-09    4.1973291592E-09    4.1220156882E-09    4.0480532310E-09
    3.9754175605E-09    3.9040848840E-09    3.8340318352E-09    3.7652354668E-09
    3.6976732428E-09    3.6313230311E-09    3.5661630964E-09    3.5021720929E-09
    3.4393290575E-09    3.3776134025E-09    3.3170049099E-09    3.2574837240E-09
    3.1990303448E-09    3.1416256221E-09    3.0852507489E-09    3.0298872551E-09
    2.9755170020E-09    2.9221221759E-09    2.8696852829E-09    2.8181891422E-09
    2.7676168815E-09    2.7179519305E-09    2.6691780162E-09    2.6212791574E-09
    2.5742396591E-09    2.5280441082E-09    2.4826773676E-09    2.4381245719E-09
    2.3943711218E-09    2.3514026801E-09    2.3092051664E-09    2.2677647528E-09
    2.2270678594E-09    2.1871011501E-09    2.1478515274E-09    2.1093061289E-09
    2.0714523229E-09    2.0342777041E-09    1.9977700893E-09    1.9619175143E-09
    1.9267082292E-09    1.8921306948E-09    1.8581735789E-09    1.8248257523E-09
    1.7920762856E-09    1.7599144453E-09    1.7283296900E-09    1.6973116680E-09
    1.6668502128E-09    1.6369353403E-09    1.6075572456E-09    1.5787062994E-09
    1.5503730452E-09    1.5225481960E-09    1.4952226312E-09    1.4683873942E-09
    1.4420336887E-09    1.4161528763E-09    1.3907364735E-09    1.3657761487E-09
    1.3412637201E-09    1.3171911523E-09    1.2935505541E-09    1.2703341760E-09
    1.2475344074E-09    1.2251437741E-09    1.2031549360E-09    1.1815606846E-09
    1.1603539409E-09    1.1395277524E-09    1.1190752918E-09    1.0989898540E-09
    1.0792648543E-09    1.0598938258E-09    1.0408704180E-09    1.0221883941E-09
    1.0038416290E-09    9.8582410754E-10    9.6812992272E-10    9.5075327328E-10
    9.3368846205E-10    9.1692989402E-10    9.0047207457E-10    8.8430960761E-10
    8.6843719380E-10    8.5284962886E-10    8.3754180201E-10    8.2250869403E-10
    8.0774537577E-10    7.9324700645E-10    7.7900883215E-10    7.6502618423E-10
    7.5129447771E-10    7.3780920994E-10    7.2456595909E-10    7.1156038261E-10
    6.9878821584E-10    6.8624527059E-10    6.7392743385E-10    6.6183066635E-10
    6.4995100123E-10    6.3828454290E-10    6.2682746565E-10    6.1557601238E-10
    6.0452649336E-10    5.9367528508E-10    5.8301882902E-10    5.7255363049E-10
    5.6227625744E-10    5.5218333950E-10    5.4227156674E-10    5.3253768861E-10
    5.2297851286E-10    5.1359090449E-10    5.0437178477E-10    4.9531813019E-10
    4.8642697142E-10    4.7769539252E-10    4.6912052984E-10    4.6069957107E-10
    4.5242975439E-10    4.4430836749E-10    4.3633274675E-10    4.2850027633E-10
    4.2080838725E-10    4.1325455673E-10    4.0583630725E-10    3.9855120570E-10
    3.9139686264E-10    3.8437093149E-10    3.7747110777E-10    3.7069512836E-10
    3.6404077067E-10    3.5750585209E-10    3.5108822917E-10    3.4478579688E-10
    3.3859648797E-10    3.3251827228E-10    3.2654915607E-10    3.2068718137E-10
    3.1493042532E-10    3.0927699960E-10    3.0372504979E-10    2.9827275472E-10
    2.9291832590E-10    2.8766000693E-10    2.8249607291E-10    2.7742482992E-10
    2.7244461438E-10    2.6755379261E-10    2.6275076024E-10    2.5803394171E-10
    2.5340178969E-10    2.4885278464E-10    2.4438543428E-10    2.3999827309E-10
    2.3568986186E-10    2.3145878718E-10    2.2730366107E-10    2.2322312042E-10
    2.1921582658E-10    2.1528046492E-10    2.1141574440E-10    2.0762039714E-10
    2.0389317804E-10    2.0023286425E-10    1.9663825501E-10    1.9310817102E-10
    1.8964145417E-10    1.8623696712E-10    1.8289359293E-10    1.7961023473E-10
    1.7638581531E-10    1.7321927677E-10    1.7010958024E-10    1.6705570550E-10
    1.6405665061E-10    1.6111143163E-10    1.5821908225E-10    1.5537865352E-10
    1.5258921353E-10    1.4984984705E-10    1.4715965531E-10    1.4451775567E-10
    1.4192328135E-10    1.3937538109E-10    1.3687321891E-10    1.3441597386E-10
    1.3200283970E-10    1.2963302465E-10    1.2730575114E-10    1.2502025558E-10
    1.2277578809E-10    1.2057161223E-10    1.1840700478E-10    1.1628125549E-10
    1.1419366687E-10    1.1214355395E-10    1.1013024401E-10    1.0815307646E-10
    1.0621140254E-10    1.0430458517E-10    1.0243199864E-10    1.0059302853E-10
    9.8787071410E-11    9.7013534690E-11    9.5271836416E-11    9.3561405054E-11
    9.1881679378E-11    9.0232108212E-11    8.8612150271E-11    8.7021273985E-11
    8.5458957325E-11    8.3924687630E-11    8.2417961440E-11    8.0938284321E-11
    7.9485170723E-11    7.8058143825E-11    7.6656735353E-11    7.5280485438E-11
    7.3928942462E-11    7.2601662915E-11    7.1298211248E-11    7.0018159726E-11
    6.8761088276E-11    6.7526584397E-11    6.6314242981E-11    6.5123666190E-11
    6.3954463324E-11    6.2806250696E-11    6.1678651507E-11    6.0571295720E-11
    5.9483819935E-11    5.8415867268E-11    5.7367087270E-11    5.6337135763E-11
    5.5325674752E-11    5.4332372305E-11    5.3356902450E-11    5.2398945063E-11
    5.1458185768E-11    5.0534315824E-11    4.9627032039E-11    4.8736036671E-11
    4.7861037318E-11    4.7001746823E-11    4.6157883185E-11    4.5329169464E-11
    4.4515333690E-11    4.3716108777E-11    4.2931232420E-11    4.2160447042E-11
    4.1403499687E-11    4.0660141936E-11    3.9930129829E-11    3.9213223785E-11
    3.8509188522E-11    3.7817792983E-11    3.7138810258E-11    3.6472017498E-11
    3.5817195876E-11    3.5174130485E-11    3.4542610274E-11    3.3922427980E-11
    3.3313380060E-11    3.2715266626E-11    3.2127891377E-11    3.1551061535E-11
    3.0984587776E-11    3.0428284189E-11    2.9881968195E-11    2.9345460492E-11
    2.8818584995E-11    2.8301168780E-11    2.7793042030E-11    2.7294037973E-11
    2.6803992832E-11    2.6322745756E-11    2.5850138814E-11    2.5386016895E-11
    2.4930227671E-11    2.4482621552E-11    2.4043051629E-11    2.3611373633E-11
    2.3187445884E-11    2.2771129246E-11    2.2362287075E-11    2.1960785191E-11
    2.1566491815E-11    2.1179277536E-11    2.0799015266E-11    2.0425580196E-11
    2.0058849758E-11    1.9698703586E-11    1.9345023472E-11    1.8997693325E-11
    1.8656599149E-11    1.8321628991E-11    1.7992672905E-11    1.7669622919E-11
    1.7352372999E-11    1.7040819016E-11    1.6734858708E-11    1.6434391649E-11
    1.6139319207E-11    1.5849544541E-11    1.5564972536E-11    1.5285509788E-11
    1.5011064567E-11    1.4741546792E-11    1.4476867998E-11    1.4216941307E-11
    1.3961681402E-11    1.3711004493E-11
   </PP_CHI.3>
   <PP_CHI.4
       type="real"
       size="1534"
       columns="4"
       index="4"
       occupation=" 1.800"
       pseudo_energy="   -0.3777201348E+00"
       label="3D"
       l="2" >
    4.9886358065E-12    4.6312826166E-06    3.7031640133E-05    1.2487711323E-04
    2.9565800259E-04    5.7658681979E-04    9.9450721980E-04    1.5758042365E-03
    2.3463161374E-03    3.3312482080E-03    4.5550887681E-03    6.0415277147E-03
    7.8133778749E-03    9.8924994447E-03    1.2299727773E-02    1.5054804740E-02
    1.8176313971E-02    2.1681620095E-02    2.5586812267E-02    2.9906652129E-02
    3.4654526395E-02    3.9842404207E-02    4.5480799393E-02    5.1578737764E-02
    5.8143729525E-02    6.5181746896E-02    7.2697206997E-02    8.0692960035E-02
    8.9170282819E-02    9.8128877597E-02    1.0756687620E-01    1.1748084944E-01
    1.2786582175E-01    1.3871529089E-01    1.5002125275E-01    1.6177423102E-01
    1.7396331170E-01    1.8657618214E-01    1.9959917468E-01    2.1301731446E-01
    2.2681437137E-01    2.4097291589E-01    2.5547437848E-01    2.7029911255E-01
    2.8542646040E-01    3.0083482219E-01    3.1650172755E-01    3.3240390942E-01
    3.4851738014E-01    3.6481750915E-01    3.8127910237E-01    3.9787648258E-01
    4.1458357085E-01    4.3137396850E-01    4.4822103937E-01    4.6509799209E-01
    4.8197796205E-01    4.9883409282E-01    5.1563961664E-01    5.3236793382E-01
    5.4899269068E-01    5.6548785582E-01    5.8182779446E-01    5.9798734053E-01
    6.1394186646E-01    6.2966735022E-01    6.4514043956E-01    6.6033851318E-01
    6.7523973877E-01    6.8982312751E-01    7.0406858514E-01    7.1795695933E-01
    7.3147008324E-01    7.4459081519E-01    7.5730307436E-01    7.6959187244E-01
    7.8144334113E-01    7.9284475559E-01    8.0378455365E-01    8.1425235088E-01
    8.2423895159E-01    8.3373635559E-01    8.4273776096E-01    8.5123756283E-01
    8.5923134817E-01    8.6671588680E-01    8.7368911858E-01    8.8015013710E-01
    8.8609916975E-01    8.9153755456E-01    8.9646771375E-01    9.0089312428E-01
    9.0481828558E-01    9.0824868445E-01    9.1119075766E-01    9.1365185204E-01
    9.1564018259E-01    9.1716478860E-01    9.1823548812E-01    9.1886283087E-01
    9.1905804991E-01    9.1883301216E-01    9.1820016811E-01    9.1717250084E-01
    9.1576347454E-01    9.1398698281E-01    9.1185729690E-01    9.0938901405E-01
    9.0659700617E-01    9.0349636899E-01    9.0010237197E-01    8.9643040895E-01
    8.9249594988E-01    8.8831449369E-01    8.8390152245E-01    8.7927245699E-01
    8.7444261403E-01    8.6942716508E-01    8.6424109706E-01    8.5889917476E-01
    8.5341590535E-01    8.4780550486E-01    8.4208186679E-01    8.3625853284E-01
    8.3034866585E-01    8.2436502501E-01    8.1831994319E-01    8.1222530667E-01
    8.0609253707E-01    7.9993257550E-01    7.9375586900E-01    7.8757235918E-01
    7.8139147302E-01    7.7522211586E-01    7.6907266640E-01    7.6295097384E-01
    7.5686435691E-01    7.5081960484E-01    7.4482298019E-01    7.3888022342E-01
    7.3299655911E-01    7.2717670385E-01    7.2142487554E-01    7.1574480419E-01
    7.1013974397E-01    7.0461248657E-01    6.9916537555E-01    6.9380032192E-01
    6.8851882047E-01    6.8332196702E-01    6.7821047647E-01    6.7318470136E-01
    6.6824465112E-01    6.6339001169E-01    6.5862016558E-01    6.5393421213E-01
    6.4933098809E-01    6.4480908819E-01    6.4036688587E-01    6.3600255386E-01
    6.3171408475E-01    6.2749931136E-01    6.2335592683E-01    6.1928150443E-01
    6.1527351706E-01    6.1132935628E-01    6.0744635091E-01    6.0362178512E-01
    5.9985291594E-01    5.9613699028E-01    5.9247126121E-01    5.8885300367E-01
    5.8527952944E-01    5.8174820151E-01    5.7825644757E-01    5.7480177287E-01
    5.7138177230E-01    5.6799414161E-01    5.6463668795E-01    5.6130733956E-01
    5.5800415460E-01    5.5472532925E-01    5.5146920492E-01    5.4823427472E-01
    5.4501918893E-01    5.4182275984E-01    5.3864396564E-01    5.3548195354E-01
    5.3233604202E-01    5.2920572214E-01    5.2609065842E-01    5.2299068855E-01
    5.1990580970E-01    5.1683612130E-01    5.1378172237E-01    5.1074269947E-01
    5.0771913486E-01    5.0471110300E-01    5.0171867140E-01    4.9874190071E-01
    4.9578084491E-01    4.9283555144E-01    4.8990606139E-01    4.8699240961E-01
    4.8409462489E-01    4.8121273008E-01    4.7834674227E-01    4.7549667291E-01
    4.7266252795E-01    4.6984430803E-01    4.6704200858E-01    4.6425562001E-01
    4.6148512781E-01    4.5873051279E-01    4.5599175115E-01    4.5326881468E-01
    4.5056167093E-01    4.4787028335E-01    4.4519461145E-01    4.4253461101E-01
    4.3989023418E-01    4.3726142972E-01    4.3464814310E-01    4.3205031673E-01
    4.2946789006E-01    4.2690079983E-01    4.2434898015E-01    4.2181236272E-01
    4.1929087699E-01    4.1678445028E-01    4.1429300798E-01    4.1181647367E-01
    4.0935476928E-01    4.0690781524E-01    4.0447553063E-01    4.0205783327E-01
    3.9965463991E-01    3.9726586632E-01    3.9489142740E-01    3.9253123734E-01
    3.9018520969E-01    3.8785325746E-01    3.8553529327E-01    3.8323122937E-01
    3.8094097780E-01    3.7866445042E-01    3.7640155902E-01    3.7415221537E-01
    3.7191633129E-01    3.6969381874E-01    3.6748458986E-01    3.6528855699E-01
    3.6310563278E-01    3.6093573022E-01    3.5877876262E-01    3.5663464376E-01
    3.5450328780E-01    3.5238460943E-01    3.5027852379E-01    3.4818494658E-01
    3.4610379404E-01    3.4403498297E-01    3.4197843076E-01    3.3993405542E-01
    3.3790177555E-01    3.3588151037E-01    3.3387317976E-01    3.3187670424E-01
    3.2989200495E-01    3.2791900372E-01    3.2595762301E-01    3.2400778596E-01
    3.2206941637E-01    3.2014243869E-01    3.1822677805E-01    3.1632236021E-01
    3.1442911163E-01    3.1254695939E-01    3.1067583126E-01    3.0881565562E-01
    3.0696636154E-01    3.0512787870E-01    3.0330013742E-01    3.0148306866E-01
    2.9967660402E-01    2.9788067570E-01    2.9609521652E-01    2.9432015992E-01
    2.9255543993E-01    2.9080099119E-01    2.8905674893E-01    2.8732264896E-01
    2.8559862767E-01    2.8388462203E-01    2.8218056955E-01    2.8048640834E-01
    2.7880207703E-01    2.7712751481E-01    2.7546266141E-01    2.7380745710E-01
    2.7216184265E-01    2.7052575939E-01    2.6889914914E-01    2.6728195424E-01
    2.6567411751E-01    2.6407558230E-01    2.6248629243E-01    2.6090619221E-01
    2.5933522642E-01    2.5777334033E-01    2.5622047965E-01    2.5467659058E-01
    2.5314161977E-01    2.5161551429E-01    2.5009822169E-01    2.4858968995E-01
    2.4708986748E-01    2.4559870311E-01    2.4411614610E-01    2.4264214614E-01
    2.4117665331E-01    2.3971961812E-01    2.3827099146E-01    2.3683072464E-01
    2.3539876935E-01    2.3397507767E-01    2.3255960207E-01    2.3115229539E-01
    2.2975311084E-01    2.2836200203E-01    2.2697892289E-01    2.2560382775E-01
    2.2423667128E-01    2.2287740849E-01    2.2152599476E-01    2.2018238580E-01
    2.1884653766E-01    2.1751840674E-01    2.1619794975E-01    2.1488512373E-01
    2.1357988607E-01    2.1228219445E-01    2.1099200686E-01    2.0970928163E-01
    2.0843397738E-01    2.0716605304E-01    2.0590546783E-01    2.0465218127E-01
    2.0340615319E-01    2.0216734367E-01    2.0093571312E-01    1.9971122219E-01
    1.9849383185E-01    1.9728350331E-01    1.9608019807E-01    1.9488387788E-01
    1.9369450478E-01    1.9251204105E-01    1.9133644923E-01    1.9016769212E-01
    1.8900573278E-01    1.8785053449E-01    1.8670206080E-01    1.8556027550E-01
    1.8442514259E-01    1.8329662633E-01    1.8217469122E-01    1.8105930197E-01
    1.7995042351E-01    1.7884802101E-01    1.7775205986E-01    1.7666250565E-01
    1.7557932420E-01    1.7450248153E-01    1.7343194387E-01    1.7236767767E-01
    1.7130964956E-01    1.7025782638E-01    1.6921217518E-01    1.6817266318E-01
    1.6713925780E-01    1.6611192665E-01    1.6509063755E-01    1.6407535846E-01
    1.6306605755E-01    1.6206270317E-01    1.6106526384E-01    1.6007370824E-01
    1.5908800524E-01    1.5810812389E-01    1.5713403337E-01    1.5616570305E-01
    1.5520310247E-01    1.5424620132E-01    1.5329496943E-01    1.5234937682E-01
    1.5140939364E-01    1.5047499020E-01    1.4954613696E-01    1.4862280453E-01
    1.4770496366E-01    1.4679258525E-01    1.4588564033E-01    1.4498410010E-01
    1.4408793586E-01    1.4319711908E-01    1.4231162135E-01    1.4143141438E-01
    1.4055647005E-01    1.3968676033E-01    1.3882225734E-01    1.3796293332E-01
    1.3710876065E-01    1.3625971182E-01    1.3541575945E-01    1.3457687627E-01
    1.3374303514E-01    1.3291420904E-01    1.3209037107E-01    1.3127149445E-01
    1.3045755249E-01    1.2964851864E-01    1.2884436646E-01    1.2804506961E-01
    1.2725060187E-01    1.2646093714E-01    1.2567604941E-01    1.2489591278E-01
    1.2412050147E-01    1.2334978981E-01    1.2258375221E-01    1.2182236320E-01
    1.2106559742E-01    1.2031342962E-01    1.1956583462E-01    1.1882278737E-01
    1.1808426291E-01    1.1735023639E-01    1.1662068305E-01    1.1589557824E-01
    1.1517489739E-01    1.1445861605E-01    1.1374670985E-01    1.1303915453E-01
    1.1233592592E-01    1.1163699995E-01    1.1094235265E-01    1.1025196013E-01
    1.0956579862E-01    1.0888384441E-01    1.0820607393E-01    1.0753246366E-01
    1.0686299020E-01    1.0619763024E-01    1.0553636056E-01    1.0487915803E-01
    1.0422599963E-01    1.0357686240E-01    1.0293172351E-01    1.0229056020E-01
    1.0165334981E-01    1.0102006976E-01    1.0039069759E-01    9.9765210892E-02
    9.9143587387E-02    9.8525804870E-02    9.7911841228E-02    9.7301674443E-02
    9.6695282587E-02    9.6092643824E-02    9.5493736409E-02    9.4898538688E-02
    9.4307029100E-02    9.3719186172E-02    9.3134988527E-02    9.2554414874E-02
    9.1977444017E-02    9.1404054849E-02    9.0834226356E-02    9.0267937614E-02
    8.9705167790E-02    8.9145896142E-02    8.8590102021E-02    8.8037764867E-02
    8.7488864213E-02    8.6943379681E-02    8.6401290987E-02    8.5862577936E-02
    8.5327220426E-02    8.4795198444E-02    8.4266492069E-02    8.3741081474E-02
    8.3218946920E-02    8.2700068761E-02    8.2184427440E-02    8.1672003496E-02
    8.1162777554E-02    8.0656730333E-02    8.0153842645E-02    7.9654095389E-02
    7.9157469560E-02    7.8663946241E-02    7.8173506607E-02    7.7686131925E-02
    7.7201803554E-02    7.6720502942E-02    7.6242211630E-02    7.5766911250E-02
    7.5294583525E-02    7.4825210268E-02    7.4358773385E-02    7.3895254873E-02
    7.3434636818E-02    7.2976901399E-02    7.2522030885E-02    7.2070007635E-02
    7.1620814102E-02    7.1174432826E-02    7.0730846439E-02    7.0290037664E-02
    6.9851989314E-02    6.9416684293E-02    6.8984105595E-02    6.8554236303E-02
    6.8127059591E-02    6.7702558724E-02    6.7280717055E-02    6.6861518028E-02
    6.6444945175E-02    6.6030982121E-02    6.5619612575E-02    6.5210820339E-02
    6.4804589304E-02    6.4400903448E-02    6.3999746839E-02    6.3601103633E-02
    6.3204958074E-02    6.2811294496E-02    6.2420097318E-02    6.2031351049E-02
    6.1645040287E-02    6.1261149713E-02    6.0879664099E-02    6.0500568303E-02
    6.0123847270E-02    5.9749486031E-02    5.9377469703E-02    5.9007783491E-02
    5.8640412685E-02    5.8275342659E-02    5.7912558875E-02    5.7552046879E-02
    5.7193792303E-02    5.6837780861E-02    5.6483998356E-02    5.6132430670E-02
    5.5783063774E-02    5.5435883718E-02    5.5090876640E-02    5.4748028756E-02
    5.4407326370E-02    5.4068755866E-02    5.3732303709E-02    5.3397956448E-02
    5.3065700714E-02    5.2735523219E-02    5.2407410754E-02    5.2081350194E-02
    5.1757328492E-02    5.1435332683E-02    5.1115349881E-02    5.0797367278E-02
    5.0481372150E-02    5.0167351846E-02    4.9855293797E-02    4.9545185512E-02
    4.9237014578E-02    4.8930768658E-02    4.8626435494E-02    4.8324002905E-02
    4.8023458784E-02    4.7724791104E-02    4.7427987912E-02    4.7133037329E-02
    4.6839927554E-02    4.6548646859E-02    4.6259183592E-02    4.5971526174E-02
    4.5685663099E-02    4.5401582937E-02    4.5119274329E-02    4.4838725989E-02
    4.4559926704E-02    4.4282865333E-02    4.4007530806E-02    4.3733912124E-02
    4.3461998360E-02    4.3191778656E-02    4.2923242227E-02    4.2656378354E-02
    4.2391176390E-02    4.2127625757E-02    4.1865715944E-02    4.1605436510E-02
    4.1346777082E-02    4.1089727352E-02    4.0834277082E-02    4.0580416100E-02
    4.0328134300E-02    4.0077421642E-02    3.9828268152E-02    3.9580663922E-02
    3.9334599108E-02    3.9090063930E-02    3.8847048674E-02    3.8605543688E-02
    3.8365539384E-02    3.8127026238E-02    3.7889994788E-02    3.7654435633E-02
    3.7420339437E-02    3.7187696922E-02    3.6956498873E-02    3.6726736137E-02
    3.6498399618E-02    3.6271480284E-02    3.6045969160E-02    3.5821857332E-02
    3.5599135943E-02    3.5377796196E-02    3.5157829352E-02    3.4939226730E-02
    3.4721979705E-02    3.4506079712E-02    3.4291518240E-02    3.4078286835E-02
    3.3866377100E-02    3.3655780693E-02    3.3446489328E-02    3.3238494772E-02
    3.3031788848E-02    3.2826363434E-02    3.2622210460E-02    3.2419321910E-02
    3.2217689822E-02    3.2017306287E-02    3.1818163446E-02    3.1620253495E-02
    3.1423568681E-02    3.1228101300E-02    3.1033843702E-02    3.0840788287E-02
    3.0648927504E-02    3.0458253854E-02    3.0268759886E-02    3.0080438198E-02
    2.9893281440E-02    2.9707282306E-02    2.9522433543E-02    2.9338727944E-02
    2.9156158347E-02    2.8974717642E-02    2.8794398763E-02    2.8615194692E-02
    2.8437098456E-02    2.8260103130E-02    2.8084201832E-02    2.7909387728E-02
    2.7735654027E-02    2.7562993985E-02    2.7391400899E-02    2.7220868115E-02
    2.7051389017E-02    2.6882957038E-02    2.6715565651E-02    2.6549208371E-02
    2.6383878759E-02    2.6219570416E-02    2.6056276985E-02    2.5893992151E-02
    2.5732709641E-02    2.5572423222E-02    2.5413126703E-02    2.5254813931E-02
    2.5097478797E-02    2.4941115229E-02    2.4785717196E-02    2.4631278706E-02
    2.4477793805E-02    2.4325256580E-02    2.4173661155E-02    2.4023001692E-02
    2.3873272392E-02    2.3724467493E-02    2.3576581270E-02    2.3429608038E-02
    2.3283542144E-02    2.3138377976E-02    2.2994109956E-02    2.2850732543E-02
    2.2708240231E-02    2.2566627551E-02    2.2425889068E-02    2.2286019383E-02
    2.2147013131E-02    2.2008864982E-02    2.1871569640E-02    2.1735121845E-02
    2.1599516367E-02    2.1464748013E-02    2.1330811622E-02    2.1197702067E-02
    2.1065414251E-02    2.0933943114E-02    2.0803283626E-02    2.0673430787E-02
    2.0544379634E-02    2.0416125232E-02    2.0288662679E-02    2.0161987102E-02
    2.0036093663E-02    1.9910977552E-02    1.9786633990E-02    1.9663058228E-02
    1.9540245548E-02    1.9418191263E-02    1.9296890714E-02    1.9176339271E-02
    1.9056532335E-02    1.8937465336E-02    1.8819133732E-02    1.8701533009E-02
    1.8584658684E-02    1.8468506300E-02    1.8353071430E-02    1.8238349672E-02
    1.8124336656E-02    1.8011028035E-02    1.7898419492E-02    1.7786506738E-02
    1.7675285507E-02    1.7564751564E-02    1.7454900698E-02    1.7345728726E-02
    1.7237231489E-02    1.7129404857E-02    1.7022244723E-02    1.6915747007E-02
    1.6809907654E-02    1.6704722636E-02    1.6600187947E-02    1.6496299609E-02
    1.6393053667E-02    1.6290446192E-02    1.6188473276E-02    1.6087131041E-02
    1.5986415627E-02    1.5886323202E-02    1.5786849958E-02    1.5687992107E-02
    1.5589745887E-02    1.5492107561E-02    1.5395073410E-02    1.5298639744E-02
    1.5202802891E-02    1.5107559204E-02    1.5012905058E-02    1.4918836850E-02
    1.4825351001E-02    1.4732443951E-02    1.4640112165E-02    1.4548352128E-02
    1.4457160346E-02    1.4366533349E-02    1.4276467685E-02    1.4186959927E-02
    1.4098006665E-02    1.4009604513E-02    1.3921750105E-02    1.3834440094E-02
    1.3747671156E-02    1.3661439986E-02    1.3575743300E-02    1.3490577831E-02
    1.3405940337E-02    1.3321827593E-02    1.3238236392E-02    1.3155163551E-02
    1.3072605902E-02    1.2990560299E-02    1.2909023615E-02    1.2827992741E-02
    1.2747464587E-02    1.2667436083E-02    1.2587904177E-02    1.2508865835E-02
    1.2430318043E-02    1.2352257803E-02    1.2274682137E-02    1.2197588085E-02
    1.2120972704E-02    1.2044833070E-02    1.1969166275E-02    1.1893969432E-02
    1.1819239668E-02    1.1744974129E-02    1.1671169978E-02    1.1597824395E-02
    1.1524934578E-02    1.1452497741E-02    1.1380511115E-02    1.1308971948E-02
    1.1237877505E-02    1.1167225067E-02    1.1097011932E-02    1.1027235412E-02
    1.0957892839E-02    1.0888981559E-02    1.0820498935E-02    1.0752442343E-02
    1.0684809179E-02    1.0617596852E-02    1.0550802788E-02    1.0484424427E-02
    1.0418459227E-02    1.0352904659E-02    1.0287758209E-02    1.0223017380E-02
    1.0158679690E-02    1.0094742670E-02    1.0031203868E-02    9.9680608449E-03
    9.9053111777E-03    9.8429524577E-03    9.7809822902E-03    9.7193982955E-03
    9.6581981079E-03    9.5973793761E-03    9.5369397629E-03    9.4768769450E-03
    9.4171886134E-03    9.3578724728E-03    9.2989262418E-03    9.2403476526E-03
    9.1821344512E-03    9.1242843970E-03    9.0667952631E-03    9.0096648358E-03
    8.9528909147E-03    8.8964713129E-03    8.8404038562E-03    8.7846863840E-03
    8.7293167484E-03    8.6742928143E-03    8.6196124597E-03    8.5652735752E-03
    8.5112740643E-03    8.4576118427E-03    8.4042848391E-03    8.3512909943E-03
    8.2986282616E-03    8.2462946067E-03    8.1942880074E-03    8.1426064538E-03
    8.0912479479E-03    8.0402105038E-03    7.9894921476E-03    7.9390909173E-03
    7.8890048625E-03    7.8392320446E-03    7.7897705369E-03    7.7406184239E-03
    7.6917738020E-03    7.6432347788E-03    7.5949994732E-03    7.5470660158E-03
    7.4994325481E-03    7.4520972228E-03    7.4050582040E-03    7.3583136665E-03
    7.3118617963E-03    7.2657007903E-03    7.2198288561E-03    7.1742442122E-03
    7.1289450879E-03    7.0839297230E-03    7.0391963679E-03    6.9947432838E-03
    6.9505687420E-03    6.9066710245E-03    6.8630484235E-03    6.8196992415E-03
    6.7766217912E-03    6.7338143956E-03    6.6912753876E-03    6.6490031104E-03
    6.6069959170E-03    6.5652521703E-03    6.5237702432E-03    6.4825485183E-03
    6.4415853881E-03    6.4008792546E-03    6.3604285295E-03    6.3202316343E-03
    6.2802869997E-03    6.2405930661E-03    6.2011482831E-03    6.1619511098E-03
    6.1230000147E-03    6.0842934753E-03    6.0458299785E-03    6.0076080202E-03
    5.9696261055E-03    5.9318827484E-03    5.8943764719E-03    5.8571058082E-03
    5.8200692980E-03    5.7832654909E-03    5.7466929455E-03    5.7103502289E-03
    5.6742359169E-03    5.6383485939E-03    5.6026868530E-03    5.5672492956E-03
    5.5320345317E-03    5.4970411798E-03    5.4622678666E-03    5.4277132271E-03
    5.3933759047E-03    5.3592545510E-03    5.3253478257E-03    5.2916543966E-03
    5.2581729396E-03    5.2249021388E-03    5.1918406860E-03    5.1589872812E-03
    5.1263406319E-03    5.0938994539E-03    5.0616624706E-03    5.0296284130E-03
    4.9977960199E-03    4.9661640380E-03    4.9347312212E-03    4.9034963312E-03
    4.8724581373E-03    4.8416154160E-03    4.8109669516E-03    4.7805115355E-03
    4.7502479664E-03    4.7201750507E-03    4.6902916017E-03    4.6605964399E-03
    4.6310883933E-03    4.6017662967E-03    4.5726289922E-03    4.5436753288E-03
    4.5149041627E-03    4.4863143568E-03    4.4579047812E-03    4.4296743128E-03
    4.4016218351E-03    4.3737462388E-03    4.3460464212E-03    4.3185212861E-03
    4.2911697444E-03    4.2639907133E-03    4.2369831168E-03    4.2101458854E-03
    4.1834779561E-03    4.1569782724E-03    4.1306457844E-03    4.1044794484E-03
    4.0784782272E-03    4.0526410899E-03    4.0269670118E-03    4.0014549748E-03
    3.9761039666E-03    3.9509129813E-03    3.9258810193E-03    3.9010070868E-03
    3.8762901963E-03    3.8517293663E-03    3.8273236212E-03    3.8030719916E-03
    3.7789735138E-03    3.7550272301E-03    3.7312321888E-03    3.7075874438E-03
    3.6840920549E-03    3.6607450878E-03    3.6375456136E-03    3.6144927095E-03
    3.5915854580E-03    3.5688229476E-03    3.5462042719E-03    3.5237285306E-03
    3.5013948286E-03    3.4792022763E-03    3.4571499897E-03    3.4352370902E-03
    3.4134627046E-03    3.3918259649E-03    3.3703260087E-03    3.3489619787E-03
    3.3277330230E-03    3.3066382949E-03    3.2856769528E-03    3.2648481605E-03
    3.2441510868E-03    3.2235849056E-03    3.2031487959E-03    3.1828419419E-03
    3.1626635327E-03    3.1426127623E-03    3.1226888299E-03    3.1028909394E-03
    3.0832182997E-03    3.0636701248E-03    3.0442456331E-03    3.0249440483E-03
    3.0057645984E-03    2.9867065167E-03    2.9677690407E-03    2.9489514130E-03
    2.9302528808E-03    2.9116726957E-03    2.8932101143E-03    2.8748643975E-03
    2.8566348108E-03    2.8385206245E-03    2.8205211131E-03    2.8026355557E-03
    2.7848632359E-03    2.7672034418E-03    2.7496554656E-03    2.7322186042E-03
    2.7148921587E-03    2.6976754346E-03    2.6805677416E-03    2.6635683938E-03
    2.6466767095E-03    2.6298920111E-03    2.6132136254E-03    2.5966408832E-03
    2.5801731196E-03    2.5638096737E-03    2.5475498888E-03    2.5313931122E-03
    2.5153386952E-03    2.4993859932E-03    2.4835343657E-03    2.4677831759E-03
    2.4521317913E-03    2.4365795831E-03    2.4211259263E-03    2.4057702001E-03
    2.3905117873E-03    2.3753500747E-03    2.3602844527E-03    2.3453143158E-03
    2.3304390619E-03    2.3156580930E-03    2.3009708145E-03    2.2863766358E-03
    2.2718749697E-03    2.2574652328E-03    2.2431468453E-03    2.2289192310E-03
    2.2147818174E-03    2.2007340353E-03    2.1867753194E-03    2.1729051075E-03
    2.1591228413E-03    2.1454279658E-03    2.1318199293E-03    2.1182981839E-03
    2.1048621848E-03    2.0915113908E-03    2.0782452639E-03    2.0650632696E-03
    2.0519648767E-03    2.0389495572E-03    2.0260167866E-03    2.0131660434E-03
    2.0003968097E-03    1.9877085705E-03    1.9751008142E-03    1.9625730324E-03
    1.9501247198E-03    1.9377553742E-03    1.9254644968E-03    1.9132515916E-03
    1.9011161658E-03    1.8890577299E-03    1.8770757971E-03    1.8651698840E-03
    1.8533395098E-03    1.8415841971E-03    1.8299034714E-03    1.8182968609E-03
    1.8067638972E-03    1.7953041143E-03    1.7839170497E-03    1.7726022432E-03
    1.7613592380E-03    1.7501875799E-03    1.7390868175E-03    1.7280565023E-03
    1.7170961887E-03    1.7062054338E-03    1.6953837974E-03    1.6846308421E-03
    1.6739461335E-03    1.6633292395E-03    1.6527797309E-03    1.6422971814E-03
    1.6318811670E-03    1.6215312665E-03    1.6112470616E-03    1.6010281361E-03
    1.5908740770E-03    1.5807844734E-03    1.5707589172E-03    1.5607970029E-03
    1.5508983275E-03    1.5410624904E-03    1.5312890937E-03    1.5215777420E-03
    1.5119280422E-03    1.5023396038E-03    1.4928120388E-03    1.4833449615E-03
    1.4739379887E-03    1.4645907396E-03    1.4553028359E-03    1.4460739013E-03
    1.4369035624E-03    1.4277914478E-03    1.4187371885E-03    1.4097404179E-03
    1.4008007715E-03    1.3919178874E-03    1.3830914057E-03    1.3743209689E-03
    1.3656062218E-03    1.3569468112E-03    1.3483423865E-03    1.3397925989E-03
    1.3312971021E-03    1.3228555518E-03    1.3144676060E-03    1.3061329247E-03
    1.2978511702E-03    1.2896220068E-03    1.2814451010E-03    1.2733201214E-03
    1.2652467386E-03    1.2572246253E-03    1.2492534564E-03    1.2413329087E-03
    1.2334626611E-03    1.2256423944E-03    1.2178717916E-03    1.2101505376E-03
    1.2024783194E-03    1.1948548257E-03    1.1872797474E-03    1.1797527774E-03
    1.1722736102E-03    1.1648419427E-03    1.1574574733E-03    1.1501199025E-03
    1.1428289327E-03    1.1355842681E-03    1.1283856148E-03    1.1212326808E-03
    1.1141251759E-03    1.1070628116E-03    1.1000453015E-03    1.0930723608E-03
    1.0861437066E-03    1.0792590577E-03    1.0724181347E-03    1.0656206601E-03
    1.0588663579E-03    1.0521549541E-03    1.0454861762E-03    1.0388597536E-03
    1.0322754174E-03    1.0257329003E-03    1.0192319367E-03    1.0127722628E-03
    1.0063536163E-03    9.9997573664E-04    9.9363836495E-04    9.8734124393E-04
    9.8108411794E-04    9.7486673294E-04    9.6868883652E-04    9.6255017783E-04
    9.5645050764E-04    9.5038957828E-04    9.4436714365E-04    9.3838295921E-04
    9.3243678196E-04    9.2652837045E-04    9.2065748474E-04    9.1482388643E-04
    9.0902733861E-04    9.0326760588E-04    8.9754445433E-04    8.9185765152E-04
    8.8620696650E-04    8.8059216976E-04    8.7501303327E-04    8.6946933042E-04
    8.6396083605E-04    8.5848732641E-04    8.5304857918E-04    8.4764437345E-04
    8.4227448971E-04    8.3693870983E-04    8.3163681706E-04    8.2636859604E-04
    8.2113383277E-04    8.1593231459E-04    8.1076383020E-04    8.0562816964E-04
    8.0052512428E-04    7.9545448681E-04    7.9041605124E-04    7.8540961288E-04
    7.8043496833E-04    7.7549191549E-04    7.7058025355E-04    7.6569978295E-04
    7.6085030542E-04    7.5603162392E-04    7.5124354269E-04    7.4648586719E-04
    7.4175840411E-04    7.3706096140E-04    7.3239334818E-04    7.2775537482E-04
    7.2314685288E-04    7.1856759510E-04    7.1401741544E-04    7.0949612900E-04
    7.0500355210E-04    7.0053950218E-04    6.9610379788E-04    6.9169625895E-04
    6.8731670632E-04    6.8296496203E-04    6.7864084927E-04    6.7434419234E-04
    6.7007481666E-04    6.6583254874E-04    6.6161721623E-04    6.5742864785E-04
    6.5326667340E-04    6.4913112377E-04    6.4502183093E-04    6.4093862790E-04
    6.3688134879E-04    6.3284982873E-04    6.2884390392E-04    6.2486341159E-04
    6.2090819001E-04    6.1697807846E-04    6.1307291727E-04    6.0919254775E-04
    6.0533681226E-04    6.0150555412E-04    5.9769861767E-04    5.9391584824E-04
    5.9015709212E-04    5.8642219660E-04    5.8271100993E-04    5.7902338133E-04
    5.7535916097E-04    5.7171819998E-04    5.6810035043E-04    5.6450546534E-04
    5.6093339865E-04    5.5738400524E-04    5.5385714090E-04    5.5035266235E-04
    5.4687042722E-04    5.4341029403E-04    5.3997212221E-04    5.3655577210E-04
    5.3316110489E-04    5.2978798269E-04    5.2643626846E-04    5.2310582605E-04
    5.1979652016E-04    5.1650821636E-04    5.1324078107E-04    5.0999408157E-04
    5.0676798597E-04    5.0356236322E-04    5.0037708312E-04    4.9721201627E-04
    4.9406703413E-04    4.9094200894E-04    4.8783681377E-04    4.8475132251E-04
    4.8168540982E-04    4.7863895119E-04    4.7561182289E-04    4.7260390196E-04
    4.6961506625E-04    4.6664519437E-04    4.6369416571E-04    4.6076186042E-04
    4.5784815942E-04    4.5495294437E-04    4.5207609772E-04    4.4921750263E-04
    4.4637704302E-04    4.4355460355E-04    4.4075006960E-04    4.3796332731E-04
    4.3519426351E-04    4.3244276577E-04    4.2970872237E-04    4.2699202230E-04
    4.2429255526E-04    4.2161021164E-04    4.1894488255E-04    4.1629645978E-04
    4.1366483580E-04    4.1104990377E-04    4.0845155755E-04    4.0586969165E-04
    4.0330420126E-04    4.0075498224E-04    3.9822193110E-04    3.9570494504E-04
    3.9320392187E-04    3.9071876009E-04    3.8824935882E-04    3.8579561784E-04
    3.8335743756E-04    3.8093471902E-04    3.7852736390E-04    3.7613527449E-04
    3.7375835372E-04    3.7139650513E-04    3.6904963288E-04    3.6671764172E-04
    3.6440043703E-04    3.6209792478E-04    3.5981001155E-04    3.5753660450E-04
    3.5527761138E-04    3.5303294055E-04    3.5080250094E-04    3.4858620205E-04
    3.4638395396E-04    3.4419566734E-04    3.4202125341E-04    3.3986062397E-04
    3.3771369136E-04    3.3558036850E-04    3.3346056885E-04    3.3135420643E-04
    3.2926119581E-04    3.2718145210E-04    3.2511489093E-04    3.2306142851E-04
    3.2102098155E-04    3.1899346730E-04    3.1697880354E-04    3.1497690856E-04
    3.1298770120E-04    3.1101110079E-04    3.0904702719E-04    3.0709540074E-04
    3.0515614233E-04    3.0322917333E-04    3.0131441561E-04    2.9941179155E-04
    2.9752122401E-04    2.9564263635E-04    2.9377595241E-04    2.9192109653E-04
    2.9007799352E-04    2.8824656867E-04    2.8642674774E-04    2.8461845699E-04
    2.8282162311E-04    2.8103617329E-04    2.7926203517E-04    2.7749913684E-04
    2.7574740687E-04    2.7400677427E-04    2.7227716852E-04    2.7055851951E-04
    2.6885075763E-04    2.6715381367E-04    2.6546761887E-04    2.6379210493E-04
    2.6212720397E-04    2.6047284853E-04    2.5882897160E-04    2.5719550658E-04
    2.5557238732E-04    2.5395954805E-04    2.5235692347E-04    2.5076444865E-04
    2.4918205909E-04    2.4760969072E-04    2.4604727984E-04    2.4449476320E-04
    2.4295207792E-04    2.4141916152E-04    2.3989595194E-04    2.3838238751E-04
    2.3687840693E-04    2.3538394932E-04    2.3389895417E-04    2.3242336136E-04
    2.3095711115E-04    2.2950014420E-04    2.2805240150E-04    2.2661382448E-04
    2.2518435489E-04    2.2376393488E-04    2.2235250696E-04    2.2095001400E-04
    2.1955639925E-04    2.1817160630E-04    2.1679557912E-04    2.1542826202E-04
    2.1406959968E-04    2.1271953713E-04    2.1137801972E-04    2.1004499320E-04
    2.0872040362E-04    2.0740419740E-04    2.0609632130E-04    2.0479672240E-04
    2.0350534813E-04    2.0222214626E-04    2.0094706489E-04    1.9968005244E-04
    1.9842105767E-04    1.9717002965E-04    1.9592691781E-04    1.9469167186E-04
    1.9346424185E-04    1.9224457816E-04    1.9103263146E-04    1.8982835275E-04
    1.8863169334E-04    1.8744260486E-04    1.8626103922E-04    1.8508694866E-04
    1.8392028572E-04    1.8276100324E-04    1.8160905437E-04    1.8046439253E-04
    1.7932697146E-04    1.7819674519E-04    1.7707366804E-04    1.7595769463E-04
    1.7484877986E-04    1.7374687892E-04    1.7265194728E-04    1.7156394069E-04
    1.7048281521E-04    1.6940852715E-04    1.6834103312E-04    1.6728028999E-04
    1.6622625491E-04    1.6517888531E-04    1.6413813888E-04    1.6310397359E-04
    1.6207634766E-04    1.6105521958E-04    1.6004054812E-04    1.5903229230E-04
    1.5803041140E-04    1.5703486495E-04    1.5604561276E-04    1.5506261488E-04
    1.5408583164E-04    1.5311522358E-04    1.5215075151E-04    1.5119237648E-04
    1.5024005981E-04    1.4929376306E-04    1.4835344802E-04    1.4741907674E-04
    1.4649061152E-04    1.4556801484E-04    1.4465124953E-04    1.4374027861E-04
    1.4283506532E-04    1.4193557317E-04    1.4104176588E-04    1.4015360739E-04
    1.3927106191E-04    1.3839409383E-04    1.3752266783E-04    1.3665674875E-04
    1.3579630166E-04    1.3494129188E-04    1.3409168492E-04    1.3324744654E-04
    1.3240854269E-04    1.3157493956E-04    1.3074660352E-04    1.2992350120E-04
    1.2910559939E-04    1.2829286513E-04    1.2748526563E-04    1.2668276834E-04
    1.2588534090E-04    1.2509295116E-04    1.2430556718E-04    1.2352315721E-04
    1.2274568970E-04    1.2197313332E-04    1.2120545693E-04    1.2044262958E-04
    1.1968462053E-04    1.1893139923E-04    1.1818293532E-04    1.1743919864E-04
    1.1670015922E-04    1.1596578728E-04
   </PP_CHI.4>
   <PP_CHI.5
       type="real"
       size="1534"
       columns="4"
       index="5"
       occupation=" 1.200"
       pseudo_energy="   -0.3825439550E+00"
       label="3D"
       l="2" >
    5.0161450514E-12    4.6503796592E-06    3.7184326752E-05    1.2539192624E-04
    2.9687662834E-04    5.7896275622E-04    9.9860400056E-04    1.5822932238E-03
    2.3559738922E-03    3.3449534472E-03    4.5738189208E-03    6.0663550901E-03
    7.8454654573E-03    9.9330963303E-03    1.2350164267E-02    1.5116487133E-02
    1.8250719013E-02    2.1770289188E-02    2.5691345398E-02    3.0028701572E-02
    3.4795790196E-02    4.0004619481E-02    4.5665735466E-02    5.1788189168E-02
    5.8379508889E-02    6.5445677753E-02    7.2991116533E-02    8.1018671806E-02
    8.9529609469E-02    9.8523613595E-02    1.0799879063E-01    1.1795167887E-01
    1.2837726320E-01    1.3926899493E-01    1.5061881675E-01    1.6241719260E-01
    1.7465314231E-01    1.8731428097E-01    2.0038686273E-01    2.1385582892E-01
    2.2770486028E-01    2.4191643305E-01    2.5647187879E-01    2.7135144759E-01
    2.8653437439E-01    3.0199894838E-01    3.1772258483E-01    3.3368189952E-01
    3.4985278503E-01    3.6621048900E-01    3.8272969380E-01    3.9938459740E-01
    4.1614899519E-01    4.3299636232E-01    4.4989993643E-01    4.6683280031E-01
    4.8376796430E-01    5.0067844806E-01    5.1753736152E-01    5.3431798462E-01
    5.5099384565E-01    5.6753879788E-01    5.8392709423E-01    6.0013345978E-01
    6.1613316177E-01    6.3190207704E-01    6.4741675651E-01    6.6265448672E-01
    6.7759334795E-01    6.9221226915E-01    7.0649107909E-01    7.2041055402E-01
    7.3395246133E-01    7.4709959944E-01    7.5983583359E-01    7.7214612759E-01
    7.8401657150E-01    7.9543440501E-01    8.0638803680E-01    8.1686705960E-01
    8.2686226117E-01    8.3636563105E-01    8.4537036334E-01    8.5387085531E-01
    8.6186270223E-01    8.6934268814E-01    8.7630877307E-01    8.8276007646E-01
    8.8869685716E-01    8.9412049005E-01    8.9903343940E-01    9.0343922926E-01
    9.0734241092E-01    9.1074852764E-01    9.1366407692E-01    9.1609647043E-01
    9.1805399181E-01    9.1954575255E-01    9.2058164616E-01    9.2117230079E-01
    9.2132903065E-01    9.2106378623E-01    9.2038910371E-01    9.1931805367E-01
    9.1786418937E-01    9.1604149472E-01    9.1386433224E-01    9.1134739110E-01
    9.0850563555E-01    9.0535425380E-01    9.0190860761E-01    8.9818418273E-01
    8.9419654035E-01    8.8996126973E-01    8.8549394212E-01    8.8081006616E-01
    8.7592504483E-01    8.7085413405E-01    8.6561240321E-01    8.6021469739E-01
    8.5467560174E-01    8.4900940776E-01    8.4323008182E-01    8.3735123572E-01
    8.3138609956E-01    8.2534749676E-01    8.1924782144E-01    8.1309901794E-01
    8.0691256277E-01    8.0069944867E-01    7.9447017105E-01    7.8823471658E-01
    7.8200255400E-01    7.7578262706E-01    7.6958334962E-01    7.6341260273E-01
    7.5727773374E-01    7.5118555730E-01    7.4514235825E-01    7.3915389625E-01
    7.3322541206E-01    7.2736163553E-01    7.2156679498E-01    7.1584462807E-01
    7.1019839401E-01    7.0463088693E-01    6.9914445044E-01    6.9374099325E-01
    6.8842200565E-01    6.8318857691E-01    6.7804141337E-01    6.7298085721E-01
    6.6800690577E-01    6.6311923136E-01    6.5831720135E-01    6.5359989867E-01
    6.4896614242E-01    6.4441450864E-01    6.3994335111E-01    6.3555082211E-01
    6.3123489304E-01    6.2699337497E-01    6.2282393879E-01    6.1872413521E-01
    6.1469141429E-01    6.1072314460E-01    6.0681663194E-01    6.0296913750E-01
    5.9917789552E-01    5.9544013029E-01    5.9175307263E-01    5.8811397560E-01
    5.8452012962E-01    5.8096887680E-01    5.7745762462E-01    5.7398385877E-01
    5.7054515530E-01    5.6713919195E-01    5.6376375865E-01    5.6041676731E-01
    5.5709626067E-01    5.5380042045E-01    5.5052757461E-01    5.4727620375E-01
    5.4404494676E-01    5.4083260551E-01    5.3763814890E-01    5.3446071586E-01
    5.3129961774E-01    5.2815433954E-01    5.2502454077E-01    5.2191005524E-01
    5.1881087761E-01    5.1572710701E-01    5.1265884145E-01    5.0960616538E-01
    5.0656915872E-01    5.0354789370E-01    5.0054243560E-01    4.9755284287E-01
    4.9457916728E-01    4.9162145413E-01    4.8867974233E-01    4.8575406460E-01
    4.8284444763E-01    4.7995091219E-01    4.7707347327E-01    4.7421214029E-01
    4.7136691719E-01    4.6853780258E-01    4.6572478991E-01    4.6292786764E-01
    4.6014701934E-01    4.5738222388E-01    4.5463345558E-01    4.5190068436E-01
    4.4918387592E-01    4.4648299189E-01    4.4379799000E-01    4.4112882422E-01
    4.3847544497E-01    4.3583779927E-01    4.3321583088E-01    4.3060948052E-01
    4.2801868598E-01    4.2544338235E-01    4.2288350213E-01    4.2033897542E-01
    4.1780973007E-01    4.1529569186E-01    4.1279678463E-01    4.1031293043E-01
    4.0784404971E-01    4.0539006142E-01    4.0295088316E-01    4.0052643131E-01
    3.9811662120E-01    3.9572136718E-01    3.9334058278E-01    3.9097418079E-01
    3.8862207340E-01    3.8628417230E-01    3.8396038876E-01    3.8165063373E-01
    3.7935481795E-01    3.7707285200E-01    3.7480464639E-01    3.7255011163E-01
    3.7030915833E-01    3.6808169719E-01    3.6586763913E-01    3.6366689531E-01
    3.6147937718E-01    3.5930499653E-01    3.5714366554E-01    3.5499529679E-01
    3.5285980333E-01    3.5073709869E-01    3.4862709691E-01    3.4652971255E-01
    3.4444486076E-01    3.4237245725E-01    3.4031241833E-01    3.3826466091E-01
    3.3622910254E-01    3.3420566140E-01    3.3219425631E-01    3.3019480674E-01
    3.2820723282E-01    3.2623145535E-01    3.2426739579E-01    3.2231497627E-01
    3.2037411958E-01    3.1844474921E-01    3.1652678928E-01    3.1462016462E-01
    3.1272480070E-01    3.1084062365E-01    3.0896756029E-01    3.0710553807E-01
    3.0525448511E-01    3.0341433017E-01    3.0158500267E-01    2.9976643265E-01
    2.9795855080E-01    2.9616128842E-01    2.9437457745E-01    2.9259835044E-01
    2.9083254056E-01    2.8907708157E-01    2.8733190783E-01    2.8559695430E-01
    2.8387215652E-01    2.8215745062E-01    2.8045277328E-01    2.7875806176E-01
    2.7707325389E-01    2.7539828803E-01    2.7373310310E-01    2.7207763855E-01
    2.7043183439E-01    2.6879563112E-01    2.6716896979E-01    2.6555179195E-01
    2.6394403966E-01    2.6234565549E-01    2.6075658249E-01    2.5917676422E-01
    2.5760614472E-01    2.5604466849E-01    2.5449228051E-01    2.5294892626E-01
    2.5141455162E-01    2.4988910298E-01    2.4837252716E-01    2.4686477141E-01
    2.4536578344E-01    2.4387551138E-01    2.4239390379E-01    2.4092090967E-01
    2.3945647841E-01    2.3800055985E-01    2.3655310419E-01    2.3511406207E-01
    2.3368338452E-01    2.3226102295E-01    2.3084692918E-01    2.2944105540E-01
    2.2804335417E-01    2.2665377845E-01    2.2527228155E-01    2.2389881715E-01
    2.2253333930E-01    2.2117580240E-01    2.1982616119E-01    2.1848437079E-01
    2.1715038662E-01    2.1582416449E-01    2.1450566050E-01    2.1319483112E-01
    2.1189163311E-01    2.1059602358E-01    2.0930795996E-01    2.0802739999E-01
    2.0675430170E-01    2.0548862347E-01    2.0423032396E-01    2.0297936212E-01
    2.0173569722E-01    2.0049928881E-01    1.9927009673E-01    1.9804808111E-01
    1.9683320237E-01    1.9562542118E-01    1.9442469852E-01    1.9323099562E-01
    1.9204427398E-01    1.9086449538E-01    1.8969162184E-01    1.8852561566E-01
    1.8736643937E-01    1.8621405578E-01    1.8506842793E-01    1.8392951910E-01
    1.8279729283E-01    1.8167171289E-01    1.8055274328E-01    1.7944034824E-01
    1.7833449224E-01    1.7723513997E-01    1.7614225635E-01    1.7505580652E-01
    1.7397575583E-01    1.7290206986E-01    1.7183471438E-01    1.7077365539E-01
    1.6971885909E-01    1.6867029188E-01    1.6762792035E-01    1.6659171132E-01
    1.6556163176E-01    1.6453764889E-01    1.6351973006E-01    1.6250784285E-01
    1.6150195501E-01    1.6050203447E-01    1.5950804934E-01    1.5851996792E-01
    1.5753775867E-01    1.5656139024E-01    1.5559083143E-01    1.5462605122E-01
    1.5366701875E-01    1.5271370334E-01    1.5176607445E-01    1.5082410172E-01
    1.4988775493E-01    1.4895700402E-01    1.4803181909E-01    1.4711217039E-01
    1.4619802832E-01    1.4528936341E-01    1.4438614637E-01    1.4348834802E-01
    1.4259593934E-01    1.4170889145E-01    1.4082717560E-01    1.3995076319E-01
    1.3907962574E-01    1.3821373492E-01    1.3735306251E-01    1.3649758045E-01
    1.3564726079E-01    1.3480207571E-01    1.3396199751E-01    1.3312699863E-01
    1.3229705163E-01    1.3147212918E-01    1.3065220408E-01    1.2983724926E-01
    1.2902723775E-01    1.2822214271E-01    1.2742193740E-01    1.2662659522E-01
    1.2583608967E-01    1.2505039436E-01    1.2426948301E-01    1.2349332948E-01
    1.2272190770E-01    1.2195519174E-01    1.2119315575E-01    1.2043577402E-01
    1.1968302093E-01    1.1893487096E-01    1.1819129871E-01    1.1745227887E-01
    1.1671778625E-01    1.1598779575E-01    1.1526228239E-01    1.1454122127E-01
    1.1382458760E-01    1.1311235670E-01    1.1240450399E-01    1.1170100497E-01
    1.1100183527E-01    1.1030697059E-01    1.0961638675E-01    1.0893005965E-01
    1.0824796532E-01    1.0757007985E-01    1.0689637944E-01    1.0622684040E-01
    1.0556143913E-01    1.0490015211E-01    1.0424295594E-01    1.0358982731E-01
    1.0294074300E-01    1.0229567987E-01    1.0165461492E-01    1.0101752519E-01
    1.0038438786E-01    9.9755180177E-02    9.9129879498E-02    9.8508463267E-02
    9.7890909023E-02    9.7277194400E-02    9.6667297128E-02    9.6061195026E-02
    9.5458866012E-02    9.4860288094E-02    9.4265439377E-02    9.3674298057E-02
    9.3086842423E-02    9.2503050862E-02    9.1922901848E-02    9.1346373954E-02
    9.0773445843E-02    9.0204096274E-02    8.9638304095E-02    8.9076048253E-02
    8.8517307784E-02    8.7962061818E-02    8.7410289580E-02    8.6861970386E-02
    8.6317083647E-02    8.5775608866E-02    8.5237525640E-02    8.4702813658E-02
    8.4171452704E-02    8.3643422653E-02    8.3118703475E-02    8.2597275233E-02
    8.2079118082E-02    8.1564212270E-02    8.1052538140E-02    8.0544076127E-02
    8.0038806758E-02    7.9536710655E-02    7.9037768531E-02    7.8541961195E-02
    7.8049269546E-02    7.7559674578E-02    7.7073157376E-02    7.6589699121E-02
    7.6109281083E-02    7.5631884629E-02    7.5157491215E-02    7.4686082392E-02
    7.4217639803E-02    7.3752145185E-02    7.3289580365E-02    7.2829927265E-02
    7.2373167898E-02    7.1919284370E-02    7.1468258880E-02    7.1020073717E-02
    7.0574711265E-02    7.0132153998E-02    6.9692384483E-02    6.9255385378E-02
    6.8821139434E-02    6.8389629493E-02    6.7960838489E-02    6.7534749446E-02
    6.7111345481E-02    6.6690609801E-02    6.6272525705E-02    6.5857076583E-02
    6.5444245914E-02    6.5034017270E-02    6.4626374312E-02    6.4221300791E-02
    6.3818780549E-02    6.3418797519E-02    6.3021335720E-02    6.2626379266E-02
    6.2233912355E-02    6.1843919278E-02    6.1456384413E-02    6.1071292229E-02
    6.0688627281E-02    6.0308374215E-02    5.9930517762E-02    5.9555042744E-02
    5.9181934070E-02    5.8811176736E-02    5.8442755825E-02    5.8076656508E-02
    5.7712864042E-02    5.7351363772E-02    5.6992141127E-02    5.6635181623E-02
    5.6280470864E-02    5.5927994537E-02    5.5577738414E-02    5.5229688354E-02
    5.4883830300E-02    5.4540150279E-02    5.4198634401E-02    5.3859268863E-02
    5.3522039944E-02    5.3186934004E-02    5.2853937491E-02    5.2523036931E-02
    5.2194218934E-02    5.1867470194E-02    5.1542777483E-02    5.1220127659E-02
    5.0899507657E-02    5.0580904495E-02    5.0264305271E-02    4.9949697163E-02
    4.9637067429E-02    4.9326403407E-02    4.9017692514E-02    4.8710922246E-02
    4.8406080175E-02    4.8103153955E-02    4.7802131315E-02    4.7503000064E-02
    4.7205748085E-02    4.6910363340E-02    4.6616833868E-02    4.6325147781E-02
    4.6035293270E-02    4.5747258599E-02    4.5461032108E-02    4.5176602212E-02
    4.4893957399E-02    4.4613086233E-02    4.4333977349E-02    4.4056619458E-02
    4.3781001340E-02    4.3507111851E-02    4.3234939917E-02    4.2964474537E-02
    4.2695704780E-02    4.2428619786E-02    4.2163208768E-02    4.1899461005E-02
    4.1637365850E-02    4.1376912722E-02    4.1118091112E-02    4.0860890577E-02
    4.0605300745E-02    4.0351311308E-02    4.0098912030E-02    3.9848092739E-02
    3.9598843332E-02    3.9351153770E-02    3.9105014081E-02    3.8860414360E-02
    3.8617344766E-02    3.8375795523E-02    3.8135756918E-02    3.7897219305E-02
    3.7660173100E-02    3.7424608782E-02    3.7190516895E-02    3.6957888042E-02
    3.6726712892E-02    3.6496982174E-02    3.6268686678E-02    3.6041817255E-02
    3.5816364819E-02    3.5592320341E-02    3.5369674855E-02    3.5148419453E-02
    3.4928545285E-02    3.4710043562E-02    3.4492905552E-02    3.4277122583E-02
    3.4062686038E-02    3.3849587359E-02    3.3637818044E-02    3.3427369650E-02
    3.3218233786E-02    3.3010402121E-02    3.2803866376E-02    3.2598618330E-02
    3.2394649816E-02    3.2191952720E-02    3.1990518983E-02    3.1790340601E-02
    3.1591409620E-02    3.1393718142E-02    3.1197258321E-02    3.1002022362E-02
    3.0808002523E-02    3.0615191113E-02    3.0423580492E-02    3.0233163073E-02
    3.0043931316E-02    2.9855877734E-02    2.9668994888E-02    2.9483275390E-02
    2.9298711900E-02    2.9115297127E-02    2.8933023828E-02    2.8751884810E-02
    2.8571872927E-02    2.8392981078E-02    2.8215202212E-02    2.8038529324E-02
    2.7862955456E-02    2.7688473694E-02    2.7515077173E-02    2.7342759070E-02
    2.7171512610E-02    2.7001331062E-02    2.6832207739E-02    2.6664135999E-02
    2.6497109244E-02    2.6331120918E-02    2.6166164509E-02    2.6002233550E-02
    2.5839321614E-02    2.5677422319E-02    2.5516529321E-02    2.5356636323E-02
    2.5197737064E-02    2.5039825330E-02    2.4882894943E-02    2.4726939767E-02
    2.4571953709E-02    2.4417930711E-02    2.4264864760E-02    2.4112749879E-02
    2.3961580130E-02    2.3811349617E-02    2.3662052479E-02    2.3513682896E-02
    2.3366235085E-02    2.3219703299E-02    2.3074081832E-02    2.2929365014E-02
    2.2785547209E-02    2.2642622822E-02    2.2500586293E-02    2.2359432096E-02
    2.2219154744E-02    2.2079748784E-02    2.1941208798E-02    2.1803529405E-02
    2.1666705257E-02    2.1530731042E-02    2.1395601481E-02    2.1261311330E-02
    2.1127855380E-02    2.0995228453E-02    2.0863425407E-02    2.0732441131E-02
    2.0602270549E-02    2.0472908615E-02    2.0344350320E-02    2.0216590682E-02
    2.0089624754E-02    1.9963447620E-02    1.9838054397E-02    1.9713440230E-02
    1.9589600299E-02    1.9466529811E-02    1.9344224008E-02    1.9222678157E-02
    1.9101887561E-02    1.8981847550E-02    1.8862553482E-02    1.8744000749E-02
    1.8626184769E-02    1.8509100989E-02    1.8392744888E-02    1.8277111971E-02
    1.8162197773E-02    1.8047997856E-02    1.7934507811E-02    1.7821723257E-02
    1.7709639840E-02    1.7598253235E-02    1.7487559143E-02    1.7377553293E-02
    1.7268231440E-02    1.7159589366E-02    1.7051622882E-02    1.6944327821E-02
    1.6837700046E-02    1.6731735445E-02    1.6626429930E-02    1.6521779441E-02
    1.6417779943E-02    1.6314427425E-02    1.6211717904E-02    1.6109647418E-02
    1.6008212034E-02    1.5907407840E-02    1.5807230951E-02    1.5707677504E-02
    1.5608743663E-02    1.5510425614E-02    1.5412719567E-02    1.5315621756E-02
    1.5219128438E-02    1.5123235893E-02    1.5027940427E-02    1.4933238365E-02
    1.4839126056E-02    1.4745599874E-02    1.4652656213E-02    1.4560291491E-02
    1.4468502146E-02    1.4377284640E-02    1.4286635457E-02    1.4196551101E-02
    1.4107028100E-02    1.4018063002E-02    1.3929652377E-02    1.3841792815E-02
    1.3754480928E-02    1.3667713350E-02    1.3581486733E-02    1.3495797752E-02
    1.3410643102E-02    1.3326019497E-02    1.3241923674E-02    1.3158352387E-02
    1.3075302412E-02    1.2992770544E-02    1.2910753598E-02    1.2829248408E-02
    1.2748251829E-02    1.2667760734E-02    1.2587772014E-02    1.2508282582E-02
    1.2429289369E-02    1.2350789322E-02    1.2272779411E-02    1.2195256621E-02
    1.2118217958E-02    1.2041660444E-02    1.1965581123E-02    1.1889977052E-02
    1.1814845309E-02    1.1740182990E-02    1.1665987209E-02    1.1592255095E-02
    1.1518983798E-02    1.1446170482E-02    1.1373812331E-02    1.1301906546E-02
    1.1230450342E-02    1.1159440955E-02    1.1088875636E-02    1.1018751652E-02
    1.0949066288E-02    1.0879816845E-02    1.0811000640E-02    1.0742615007E-02
    1.0674657297E-02    1.0607124874E-02    1.0540015122E-02    1.0473325438E-02
    1.0407053236E-02    1.0341195946E-02    1.0275751013E-02    1.0210715897E-02
    1.0146088075E-02    1.0081865039E-02    1.0018044294E-02    9.9546233631E-03
    9.8915997828E-03    9.8289711049E-03    9.7667348962E-03    9.7048887380E-03
    9.6434302265E-03    9.5823569723E-03    9.5216666007E-03    9.4613567513E-03
    9.4014250778E-03    9.3418692486E-03    9.2826869457E-03    9.2238758654E-03
    9.1654337182E-03    9.1073582280E-03    9.0496471329E-03    8.9922981843E-03
    8.9353091477E-03    8.8786778017E-03    8.8224019387E-03    8.7664793641E-03
    8.7109078971E-03    8.6556853695E-03    8.6008096268E-03    8.5462785271E-03
    8.4920899418E-03    8.4382417550E-03    8.3847318636E-03    8.3315581773E-03
    8.2787186186E-03    8.2262111223E-03    8.1740336358E-03    8.1221841190E-03
    8.0706605442E-03    8.0194608958E-03    7.9685831705E-03    7.9180253771E-03
    7.8677855365E-03    7.8178616816E-03    7.7682518571E-03    7.7189541196E-03
    7.6699665376E-03    7.6212871910E-03    7.5729141716E-03    7.5248455827E-03
    7.4770795389E-03    7.4296141665E-03    7.3824476029E-03    7.3355779970E-03
    7.2890035087E-03    7.2427223092E-03    7.1967325807E-03    7.1510325164E-03
    7.1056203206E-03    7.0604942083E-03    7.0156524055E-03    6.9710931486E-03
    6.9268146851E-03    6.8828152730E-03    6.8390931806E-03    6.7956466871E-03
    6.7524740819E-03    6.7095736647E-03    6.6669437458E-03    6.6245826454E-03
    6.5824886942E-03    6.5406602328E-03    6.4990956120E-03    6.4577931925E-03
    6.4167513451E-03    6.3759684504E-03    6.3354428987E-03    6.2951730904E-03
    6.2551574352E-03    6.2153943528E-03    6.1758822723E-03    6.1366196324E-03
    6.0976048814E-03    6.0588364768E-03    6.0203128856E-03    5.9820325842E-03
    5.9439940580E-03    5.9061958020E-03    5.8686363199E-03    5.8313141249E-03
    5.7942277390E-03    5.7573756932E-03    5.7207565276E-03    5.6843687909E-03
    5.6482110410E-03    5.6122818443E-03    5.5765797760E-03    5.5411034200E-03
    5.5058513688E-03    5.4708222236E-03    5.4360145938E-03    5.4014270976E-03
    5.3670583614E-03    5.3329070202E-03    5.2989717171E-03    5.2652511036E-03
    5.2317438393E-03    5.1984485922E-03    5.1653640382E-03    5.1324888613E-03
    5.0998217537E-03    5.0673614154E-03    5.0351065545E-03    5.0030558868E-03
    4.9712081361E-03    4.9395620339E-03    4.9081163195E-03    4.8768697399E-03
    4.8458210498E-03    4.8149690113E-03    4.7843123944E-03    4.7538499763E-03
    4.7235805419E-03    4.6935028835E-03    4.6636158006E-03    4.6339181003E-03
    4.6044085969E-03    4.5750861120E-03    4.5459494743E-03    4.5169975197E-03
    4.4882290913E-03    4.4596430393E-03    4.4312382209E-03    4.4030135004E-03
    4.3749677488E-03    4.3470998442E-03    4.3194086718E-03    4.2918931232E-03
    4.2645520971E-03    4.2373844989E-03    4.2103892406E-03    4.1835652411E-03
    4.1569114257E-03    4.1304267265E-03    4.1041100819E-03    4.0779604373E-03
    4.0519767440E-03    4.0261579601E-03    4.0005030501E-03    3.9750109847E-03
    3.9496807411E-03    3.9245113027E-03    3.8995016591E-03    3.8746508063E-03
    3.8499577463E-03    3.8254214873E-03    3.8010410437E-03    3.7768154358E-03
    3.7527436900E-03    3.7288248389E-03    3.7050579208E-03    3.6814419799E-03
    3.6579760666E-03    3.6346592369E-03    3.6114905526E-03    3.5884690814E-03
    3.5655938969E-03    3.5428640780E-03    3.5202787097E-03    3.4978368825E-03
    3.4755376923E-03    3.4533802410E-03    3.4313636358E-03    3.4094869893E-03
    3.3877494199E-03    3.3661500512E-03    3.3446880123E-03    3.3233624377E-03
    3.3021724672E-03    3.2811172461E-03    3.2601959247E-03    3.2394076588E-03
    3.2187516093E-03    3.1982269424E-03    3.1778328293E-03    3.1575684465E-03
    3.1374329755E-03    3.1174256029E-03    3.0975455203E-03    3.0777919245E-03
    3.0581640170E-03    3.0386610045E-03    3.0192820985E-03    3.0000265153E-03
    2.9808934762E-03    2.9618822073E-03    2.9429919396E-03    2.9242219087E-03
    2.9055713550E-03    2.8870395236E-03    2.8686256645E-03    2.8503290321E-03
    2.8321488855E-03    2.8140844884E-03    2.7961351092E-03    2.7783000208E-03
    2.7605785004E-03    2.7429698300E-03    2.7254732960E-03    2.7080881890E-03
    2.6908138044E-03    2.6736494417E-03    2.6565944048E-03    2.6396480021E-03
    2.6228095461E-03    2.6060783537E-03    2.5894537460E-03    2.5729350485E-03
    2.5565215906E-03    2.5402127061E-03    2.5240077330E-03    2.5079060132E-03
    2.4919068929E-03    2.4760097224E-03    2.4602138558E-03    2.4445186515E-03
    2.4289234718E-03    2.4134276830E-03    2.3980306553E-03    2.3827317629E-03
    2.3675303840E-03    2.3524259004E-03    2.3374176980E-03    2.3225051665E-03
    2.3076876994E-03    2.2929646939E-03    2.2783355512E-03    2.2637996760E-03
    2.2493564769E-03    2.2350053659E-03    2.2207457592E-03    2.2065770762E-03
    2.1924987401E-03    2.1785101777E-03    2.1646108194E-03    2.1508000991E-03
    2.1370774545E-03    2.1234423264E-03    2.1098941594E-03    2.0964324016E-03
    2.0830565044E-03    2.0697659227E-03    2.0565601148E-03    2.0434385425E-03
    2.0304006709E-03    2.0174459684E-03    2.0045739068E-03    1.9917839612E-03
    1.9790756101E-03    1.9664483350E-03    1.9539016210E-03    1.9414349562E-03
    1.9290478319E-03    1.9167397428E-03    1.9045101866E-03    1.8923586641E-03
    1.8802846795E-03    1.8682877398E-03    1.8563673554E-03    1.8445230395E-03
    1.8327543086E-03    1.8210606820E-03    1.8094416823E-03    1.7978968349E-03
    1.7864256683E-03    1.7750277138E-03    1.7637025058E-03    1.7524495816E-03
    1.7412684814E-03    1.7301587484E-03    1.7191199284E-03    1.7081515703E-03
    1.6972532258E-03    1.6864244495E-03    1.6756647985E-03    1.6649738330E-03
    1.6543511159E-03    1.6437962128E-03    1.6333086920E-03    1.6228881247E-03
    1.6125340845E-03    1.6022461481E-03    1.5920238945E-03    1.5818669055E-03
    1.5717747657E-03    1.5617470619E-03    1.5517833840E-03    1.5418833241E-03
    1.5320464772E-03    1.5222724405E-03    1.5125608140E-03    1.5029112002E-03
    1.4933232040E-03    1.4837964329E-03    1.4743304968E-03    1.4649250081E-03
    1.4555795818E-03    1.4462938350E-03    1.4370673875E-03    1.4278998614E-03
    1.4187908811E-03    1.4097400737E-03    1.4007470682E-03    1.3918114963E-03
    1.3829329918E-03    1.3741111910E-03    1.3653457325E-03    1.3566362569E-03
    1.3479824075E-03    1.3393838295E-03    1.3308401706E-03    1.3223510804E-03
    1.3139162112E-03    1.3055352170E-03    1.2972077544E-03    1.2889334819E-03
    1.2807120603E-03    1.2725431525E-03    1.2644264236E-03    1.2563615406E-03
    1.2483481730E-03    1.2403859920E-03    1.2324746711E-03    1.2246138858E-03
    1.2168033138E-03    1.2090426346E-03    1.2013315299E-03    1.1936696833E-03
    1.1860567806E-03    1.1784925094E-03    1.1709765594E-03    1.1635086221E-03
    1.1560883912E-03    1.1487155622E-03    1.1413898325E-03    1.1341109015E-03
    1.1268784705E-03    1.1196922427E-03    1.1125519231E-03    1.1054572186E-03
    1.0984078381E-03    1.0914034922E-03    1.0844438933E-03    1.0775287558E-03
    1.0706577957E-03    1.0638307311E-03    1.0570472816E-03    1.0503071687E-03
    1.0436101156E-03    1.0369558475E-03    1.0303440910E-03    1.0237745747E-03
    1.0172470288E-03    1.0107611852E-03    1.0043167776E-03    9.9791354127E-04
    9.9155121333E-04    9.8522953242E-04    9.7894823891E-04    9.7270707481E-04
    9.6650578376E-04    9.6034411104E-04    9.5422180355E-04    9.4813860979E-04
    9.4209427988E-04    9.3608856551E-04    9.3012121996E-04    9.2419199808E-04
    9.1830065628E-04    9.1244695250E-04    9.0663064626E-04    9.0085149857E-04
    8.9510927199E-04    8.8940373058E-04    8.8373463990E-04    8.7810176701E-04
    8.7250488045E-04    8.6694375022E-04    8.6141814781E-04    8.5592784616E-04
    8.5047261963E-04    8.4505224404E-04    8.3966649664E-04    8.3431515609E-04
    8.2899800246E-04    8.2371481724E-04    8.1846538327E-04    8.1324948482E-04
    8.0806690750E-04    8.0291743832E-04    7.9780086561E-04    7.9271697907E-04
    7.8766556975E-04    7.8264643001E-04    7.7765935355E-04    7.7270413537E-04
    7.6778057179E-04    7.6288846042E-04    7.5802760017E-04    7.5319779123E-04
    7.4839883505E-04    7.4363053437E-04    7.3889269317E-04    7.3418511668E-04
    7.2950761139E-04    7.2485998501E-04    7.2024204647E-04    7.1565360594E-04
    7.1109447478E-04    7.0656446557E-04    7.0206339208E-04    6.9759106926E-04
    6.9314731325E-04    6.8873194137E-04    6.8434477209E-04    6.7998562504E-04
    6.7565432102E-04    6.7135068195E-04    6.6707453091E-04    6.6282569209E-04
    6.5860399081E-04    6.5440925351E-04    6.5024130773E-04    6.4609998211E-04
    6.4198510639E-04    6.3789651140E-04    6.3383402905E-04    6.2979749231E-04
    6.2578673524E-04    6.2180159293E-04    6.1784190154E-04    6.1390749830E-04
    6.0999822142E-04    6.0611391021E-04    6.0225440497E-04    5.9841954701E-04
    5.9460917868E-04    5.9082314334E-04    5.8706128532E-04    5.8332344997E-04
    5.7960948362E-04    5.7591923358E-04    5.7225254815E-04    5.6860927657E-04
    5.6498926909E-04    5.6139237686E-04    5.5781845203E-04    5.5426734766E-04
    5.5073891778E-04    5.4723301733E-04    5.4374950219E-04    5.4028822915E-04
    5.3684905592E-04    5.3343184113E-04    5.3003644431E-04    5.2666272587E-04
    5.2331054713E-04    5.1997977030E-04    5.1667025845E-04    5.1338187556E-04
    5.1011448645E-04    5.0686795680E-04    5.0364215319E-04    5.0043694301E-04
    4.9725219451E-04    4.9408777680E-04    4.9094355981E-04    4.8781941430E-04
    4.8471521187E-04    4.8163082493E-04    4.7856612672E-04    4.7552099127E-04
    4.7249529343E-04    4.6948890886E-04    4.6650171398E-04    4.6353358605E-04
    4.6058440307E-04    4.5765404385E-04    4.5474238796E-04    4.5184931575E-04
    4.4897470833E-04    4.4611844757E-04    4.4328041611E-04    4.4046049731E-04
    4.3765857531E-04    4.3487453498E-04    4.3210826191E-04    4.2935964244E-04
    4.2662856365E-04    4.2391491330E-04    4.2121857992E-04    4.1853945271E-04
    4.1587742161E-04    4.1323237724E-04    4.1060421095E-04    4.0799281475E-04
    4.0539808136E-04    4.0281990419E-04    4.0025817733E-04    3.9771279555E-04
    3.9518365428E-04    3.9267064963E-04    3.9017367838E-04    3.8769263796E-04
    3.8522742646E-04    3.8277794263E-04    3.8034408586E-04    3.7792575619E-04
    3.7552285428E-04    3.7313528147E-04    3.7076293968E-04    3.6840573149E-04
    3.6606356010E-04    3.6373632933E-04    3.6142394360E-04    3.5912630796E-04
    3.5684332806E-04    3.5457491016E-04    3.5232096111E-04    3.5008138837E-04
    3.4785609997E-04    3.4564500457E-04    3.4344801137E-04    3.4126503018E-04
    3.3909597137E-04    3.3694074590E-04    3.3479926529E-04    3.3267144163E-04
    3.3055718757E-04    3.2845641633E-04    3.2636904167E-04    3.2429497791E-04
    3.2223413992E-04    3.2018644312E-04    3.1815180346E-04    3.1613013743E-04
    3.1412136207E-04    3.1212539494E-04    3.1014215411E-04    3.0817155822E-04
    3.0621352639E-04    3.0426797827E-04    3.0233483403E-04    3.0041401435E-04
    2.9850544042E-04    2.9660903393E-04    2.9472471708E-04    2.9285241254E-04
    2.9099204352E-04    2.8914353368E-04    2.8730680720E-04    2.8548178874E-04
    2.8366840342E-04    2.8186657686E-04    2.8007623516E-04    2.7829730488E-04
    2.7652971306E-04    2.7477338720E-04    2.7302825527E-04    2.7129424569E-04
    2.6957128737E-04    2.6785930964E-04    2.6615824229E-04    2.6446801558E-04
    2.6278856019E-04    2.6111980727E-04    2.5946168839E-04    2.5781413557E-04
    2.5617708126E-04    2.5455045834E-04    2.5293420013E-04    2.5132824037E-04
    2.4973251323E-04    2.4814695330E-04    2.4657149558E-04    2.4500607550E-04
    2.4345062889E-04    2.4190509201E-04    2.4036940150E-04    2.3884349444E-04
    2.3732730829E-04    2.3582078091E-04    2.3432385057E-04    2.3283645593E-04
    2.3135853604E-04    2.2989003035E-04    2.2843087868E-04    2.2698102126E-04
    2.2554039869E-04    2.2410895194E-04    2.2268662237E-04    2.2127335172E-04
    2.1986908210E-04    2.1847375598E-04    2.1708731622E-04    2.1570970602E-04
    2.1434086895E-04    2.1298074897E-04    2.1162929037E-04    2.1028643780E-04
    2.0895213626E-04    2.0762633114E-04    2.0630896812E-04    2.0499999327E-04
    2.0369935301E-04    2.0240699407E-04    2.0112286354E-04    1.9984690885E-04
    1.9857907777E-04    1.9731931840E-04    1.9606757917E-04    1.9482380884E-04
    1.9358795650E-04    1.9235997156E-04    1.9113980378E-04    1.8992740321E-04
    1.8872272023E-04    1.8752570555E-04    1.8633631018E-04    1.8515448544E-04
    1.8398018299E-04    1.8281335478E-04    1.8165395306E-04    1.8050193039E-04
    1.7935723966E-04    1.7821983402E-04    1.7708966695E-04    1.7596669222E-04
    1.7485086389E-04    1.7374213633E-04    1.7264046418E-04    1.7154580239E-04
    1.7045810618E-04    1.6937733107E-04    1.6830343287E-04    1.6723636766E-04
    1.6617609180E-04    1.6512256194E-04    1.6407573500E-04    1.6303556818E-04
    1.6200201897E-04    1.6097504510E-04    1.5995460460E-04    1.5894065575E-04
    1.5793315711E-04    1.5693206750E-04    1.5593734600E-04    1.5494895195E-04
    1.5396684497E-04    1.5299098491E-04    1.5202133188E-04    1.5105784627E-04
    1.5010048869E-04    1.4914922004E-04    1.4820400143E-04    1.4726479425E-04
    1.4633156014E-04    1.4540426095E-04    1.4448285879E-04    1.4356731603E-04
    1.4265759525E-04    1.4175365931E-04    1.4085547127E-04    1.3996299446E-04
    1.3907619242E-04    1.3819502891E-04    1.3731946800E-04    1.3644947394E-04
    1.3558501123E-04    1.3472604458E-04    1.3387253894E-04    1.3302445948E-04
    1.3218177160E-04    1.3134444092E-04    1.3051243328E-04    1.2968571473E-04
    1.2886425152E-04    1.2804801015E-04    1.2723695731E-04    1.2643105990E-04
    1.2563028506E-04    1.2483460010E-04    1.2404397257E-04    1.2325837021E-04
    1.2247776097E-04    1.2170211300E-04    1.2093139465E-04    1.2016557447E-04
    1.1940462122E-04    1.1864850386E-04    1.1789719154E-04    1.1715065362E-04
    1.1640885961E-04    1.1567177928E-04    1.1493938256E-04    1.1421163958E-04
    1.1348852067E-04    1.1276999631E-04    1.1205603722E-04    1.1134661428E-04
    1.1064169856E-04    1.0994126132E-04
   </PP_CHI.5>
   <PP_CHI.6
       type="real"
       size="1534"
       columns="4"
       index="6"
       occupation=" 2.000"
       pseudo_energy="   -0.3455759594E+00"
       label="4S"
       l="0" >
   -1.0718440024E-12   -4.9061559431E-03   -9.8120714276E-03   -1.4717494136E-02
   -1.9622148097E-02   -2.4525722000E-02   -2.9427857698E-02   -3.4328138936E-02
   -3.9226080377E-02   -4.4121116967E-02   -4.9012593709E-02   -5.3899755877E-02
   -5.8781739740E-02   -6.3657563824E-02   -6.8526120770E-02   -7.3386169821E-02
   -7.8236329976E-02   -8.3075073852E-02   -8.7900722277E-02   -9.2711439649E-02
   -9.7505230075E-02   -1.0227993433E-01   -1.0703322761E-01   -1.1176261817E-01
   -1.1646544674E-01   -1.2113888687E-01   -1.2577994603E-01   -1.3038546764E-01
   -1.3495213387E-01   -1.3947646934E-01   -1.4395484558E-01   -1.4838348625E-01
   -1.5275847328E-01   -1.5707575355E-01   -1.6133114647E-01   -1.6552035217E-01
   -1.6963896032E-01   -1.7368245961E-01   -1.7764624783E-01   -1.8152564241E-01
   -1.8531589154E-01   -1.8901218566E-01   -1.9260966943E-01   -1.9610345396E-01
   -1.9948862947E-01   -2.0276027808E-01   -2.0591348688E-01   -2.0894336110E-01
   -2.1184503747E-01   -2.1461369752E-01   -2.1724458095E-01   -2.1973299893E-01
   -2.2207434731E-01   -2.2426411963E-01   -2.2629792001E-01   -2.2817147574E-01
   -2.2988064958E-01   -2.3142145175E-01   -2.3279005155E-01   -2.3398278850E-01
   -2.3499618311E-01   -2.3582694710E-01   -2.3647199312E-01   -2.3692844388E-01
   -2.3719364076E-01   -2.3726515174E-01   -2.3714077869E-01   -2.3681856409E-01
   -2.3629679693E-01   -2.3557401806E-01   -2.3464902471E-01   -2.3352087436E-01
   -2.3218888783E-01   -2.3065265171E-01   -2.2891201996E-01   -2.2696711480E-01
   -2.2481832692E-01   -2.2246631483E-01   -2.1991200364E-01   -2.1715658294E-01
   -2.1420150417E-01   -2.1104847709E-01   -2.0769946575E-01   -2.0415668368E-01
   -2.0042258851E-01   -1.9649987592E-01   -1.9239147305E-01   -1.8810053127E-01
   -1.8363041849E-01   -1.7898471093E-01   -1.7416718435E-01   -1.6918180494E-01
   -1.6403271968E-01   -1.5872424643E-01   -1.5326086360E-01   -1.4764719954E-01
   -1.4188802163E-01   -1.3598822519E-01   -1.2995282216E-01   -1.2378692959E-01
   -1.1749575813E-01   -1.1108460028E-01   -1.0455881873E-01   -9.7923834664E-02
   -9.1185116065E-02   -8.4348166141E-02   -7.7418511851E-02   -7.0401692580E-02
   -6.3303249003E-02   -5.6128712173E-02   -4.8883592862E-02   -4.1573371190E-02
   -3.4203486577E-02   -2.6779328042E-02   -1.9306224874E-02   -1.1789437712E-02
   -4.2341500477E-03    3.3545398216E-03    1.0971626373E-02    1.8612203953E-02
    2.6271473365E-02    3.3944747951E-02    4.1627459138E-02    4.9315161460E-02
    5.7003537032E-02    6.4688399487E-02    7.2365697366E-02    8.0031516966E-02
    8.7682084655E-02    9.5313768649E-02    1.0292308027E-01    1.1050667470E-01
    1.1806135122E-01    1.2558405299E-01    1.3307186638E-01    1.4052201979E-01
    1.4793188214E-01    1.5529896091E-01    1.6262089983E-01    1.6989547620E-01
    1.7712059797E-01    1.8429430042E-01    1.9141474271E-01    1.9848020412E-01
    2.0548908014E-01    2.1243987842E-01    2.1933121453E-01    2.2616180773E-01
    2.3293047658E-01    2.3963613459E-01    2.4627778589E-01    2.5285452087E-01
    2.5936551197E-01    2.6581000949E-01    2.7218733763E-01    2.7849689055E-01
    2.8473812878E-01    2.9091057563E-01    2.9701381403E-01    3.0304748361E-01
    3.0901127808E-01    3.1490494272E-01    3.2072827190E-01    3.2648110720E-01
    3.3216333560E-01    3.3777488826E-01    3.4331573928E-01    3.4878590240E-01
    3.5418542320E-01    3.5951437332E-01    3.6477285001E-01    3.6996097542E-01
    3.7507889501E-01    3.8012677669E-01    3.8510480974E-01    3.9001320382E-01
    3.9485218805E-01    3.9962201005E-01    4.0432293509E-01    4.0895524521E-01
    4.1351923837E-01    4.1801522768E-01    4.2244354061E-01    4.2680451820E-01
    4.3109851438E-01    4.3532589521E-01    4.3948703819E-01    4.4358233161E-01
    4.4761217388E-01    4.5157697290E-01    4.5547714541E-01    4.5931311640E-01
    4.6308531855E-01    4.6679419159E-01    4.7044018181E-01    4.7402374146E-01
    4.7754532823E-01    4.8100540478E-01    4.8440443816E-01    4.8774289938E-01
    4.9102126293E-01    4.9424000631E-01    4.9739960958E-01    5.0050055496E-01
    5.0354332641E-01    5.0652840921E-01    5.0945628964E-01    5.1232745455E-01
    5.1514239110E-01    5.1790158635E-01    5.2060552701E-01    5.2325469914E-01
    5.2584958787E-01    5.2839067715E-01    5.3087844953E-01    5.3331338593E-01
    5.3569596543E-01    5.3802666514E-01    5.4030595998E-01    5.4253432257E-01
    5.4471222308E-01    5.4684012916E-01    5.4891850577E-01    5.5094781516E-01
    5.5292851677E-01    5.5486106720E-01    5.5674592012E-01    5.5858352628E-01
    5.6037433349E-01    5.6211878656E-01    5.6381732736E-01    5.6547039476E-01
    5.6707842470E-01    5.6864185016E-01    5.7016110122E-01    5.7163660507E-01
    5.7306878602E-01    5.7445806559E-01    5.7580486248E-01    5.7710959266E-01
    5.7837266939E-01    5.7959450326E-01    5.8077550222E-01    5.8191607166E-01
    5.8301661440E-01    5.8407753077E-01    5.8509921862E-01    5.8608207337E-01
    5.8702648807E-01    5.8793285337E-01    5.8880155763E-01    5.8963298688E-01
    5.9042752491E-01    5.9118555326E-01    5.9190745124E-01    5.9259359599E-01
    5.9324436245E-01    5.9386012343E-01    5.9444124959E-01    5.9498810948E-01
    5.9550106954E-01    5.9598049410E-01    5.9642674544E-01    5.9684018372E-01
    5.9722116709E-01    5.9757005158E-01    5.9788719122E-01    5.9817293796E-01
    5.9842764171E-01    5.9865165034E-01    5.9884530967E-01    5.9900896351E-01
    5.9914295360E-01    5.9924761965E-01    5.9932329933E-01    5.9937032829E-01
    5.9938904011E-01    5.9937976636E-01    5.9934283653E-01    5.9927857810E-01
    5.9918731648E-01    5.9906937505E-01    5.9892507512E-01    5.9875473597E-01
    5.9855867481E-01    5.9833720680E-01    5.9809064505E-01    5.9781930060E-01
    5.9752348244E-01    5.9720349750E-01    5.9685965065E-01    5.9649224469E-01
    5.9610158035E-01    5.9568795633E-01    5.9525166925E-01    5.9479301365E-01
    5.9431228203E-01    5.9380976484E-01    5.9328575043E-01    5.9274052515E-01
    5.9217437324E-01    5.9158757692E-01    5.9098041634E-01    5.9035316960E-01
    5.8970611278E-01    5.8903951989E-01    5.8835366290E-01    5.8764881176E-01
    5.8692523436E-01    5.8618319660E-01    5.8542296231E-01    5.8464479334E-01
    5.8384894950E-01    5.8303568859E-01    5.8220526642E-01    5.8135793679E-01
    5.8049395149E-01    5.7961356035E-01    5.7871701120E-01    5.7780454989E-01
    5.7687642031E-01    5.7593286437E-01    5.7497412204E-01    5.7400043133E-01
    5.7301202829E-01    5.7200914706E-01    5.7099201984E-01    5.6996087690E-01
    5.6891594659E-01    5.6785745536E-01    5.6678562776E-01    5.6570068644E-01
    5.6460285217E-01    5.6349234383E-01    5.6236937845E-01    5.6123417118E-01
    5.6008693532E-01    5.5892788233E-01    5.5775722181E-01    5.5657516156E-01
    5.5538190754E-01    5.5417766389E-01    5.5296263296E-01    5.5173701529E-01
    5.5050100964E-01    5.4925481297E-01    5.4799862050E-01    5.4673262565E-01
    5.4545702010E-01    5.4417199378E-01    5.4287773489E-01    5.4157442987E-01
    5.4026226348E-01    5.3894141871E-01    5.3761207690E-01    5.3627441764E-01
    5.3492861887E-01    5.3357485682E-01    5.3221330606E-01    5.3084413949E-01
    5.2946752836E-01    5.2808364224E-01    5.2669264910E-01    5.2529471525E-01
    5.2389000538E-01    5.2247868256E-01    5.2106090825E-01    5.1963684231E-01
    5.1820664301E-01    5.1677046703E-01    5.1532846947E-01    5.1388080386E-01
    5.1242762216E-01    5.1096907479E-01    5.0950531062E-01    5.0803647695E-01
    5.0656271960E-01    5.0508418281E-01    5.0360100936E-01    5.0211334047E-01
    5.0062131588E-01    4.9912507384E-01    4.9762475111E-01    4.9612048296E-01
    4.9461240320E-01    4.9310064418E-01    4.9158533677E-01    4.9006661042E-01
    4.8854459311E-01    4.8701941140E-01    4.8549119043E-01    4.8396005390E-01
    4.8242612412E-01    4.8088952198E-01    4.7935036697E-01    4.7780877720E-01
    4.7626486939E-01    4.7471875888E-01    4.7317055967E-01    4.7162038436E-01
    4.7006834422E-01    4.6851454918E-01    4.6695910780E-01    4.6540212735E-01
    4.6384371374E-01    4.6228397160E-01    4.6072300422E-01    4.5916091360E-01
    4.5759780046E-01    4.5603376421E-01    4.5446890301E-01    4.5290331373E-01
    4.5133709198E-01    4.4977033212E-01    4.4820312727E-01    4.4663556928E-01
    4.4506774881E-01    4.4349975527E-01    4.4193167686E-01    4.4036360058E-01
    4.3879561221E-01    4.3722779636E-01    4.3566023644E-01    4.3409301470E-01
    4.3252621220E-01    4.3095990887E-01    4.2939418345E-01    4.2782911357E-01
    4.2626477571E-01    4.2470124522E-01    4.2313859634E-01    4.2157690219E-01
    4.2001623481E-01    4.1845666510E-01    4.1689826292E-01    4.1534109704E-01
    4.1378523514E-01    4.1223074387E-01    4.1067768881E-01    4.0912613451E-01
    4.0757614445E-01    4.0602778114E-01    4.0448110602E-01    4.0293617956E-01
    4.0139306120E-01    3.9985180940E-01    3.9831248165E-01    3.9677513445E-01
    3.9523982332E-01    3.9370660286E-01    3.9217552670E-01    3.9064664752E-01
    3.8912001709E-01    3.8759568624E-01    3.8607370491E-01    3.8455412211E-01
    3.8303698597E-01    3.8152234372E-01    3.8001024173E-01    3.7850072548E-01
    3.7699383960E-01    3.7548962787E-01    3.7398813323E-01    3.7248939776E-01
    3.7099346275E-01    3.6950036865E-01    3.6801015510E-01    3.6652286096E-01
    3.6503852427E-01    3.6355718231E-01    3.6207887158E-01    3.6060362782E-01
    3.5913148600E-01    3.5766248035E-01    3.5619664436E-01    3.5473401079E-01
    3.5327461168E-01    3.5181847835E-01    3.5036564141E-01    3.4891613078E-01
    3.4746997571E-01    3.4602720473E-01    3.4458784572E-01    3.4315192590E-01
    3.4171947183E-01    3.4029050941E-01    3.3886506393E-01    3.3744316001E-01
    3.3602482168E-01    3.3461007234E-01    3.3319893479E-01    3.3179143121E-01
    3.3038758322E-01    3.2898741184E-01    3.2759093750E-01    3.2619818010E-01
    3.2480915893E-01    3.2342389278E-01    3.2204239985E-01    3.2066469784E-01
    3.1929080388E-01    3.1792073462E-01    3.1655450616E-01    3.1519213410E-01
    3.1383363357E-01    3.1247901916E-01    3.1112830500E-01    3.0978150474E-01
    3.0843863156E-01    3.0709969815E-01    3.0576471678E-01    3.0443369924E-01
    3.0310665688E-01    3.0178360062E-01    3.0046454095E-01    2.9914948792E-01
    2.9783845118E-01    2.9653143996E-01    2.9522846309E-01    2.9392952899E-01
    2.9263464569E-01    2.9134382084E-01    2.9005706172E-01    2.8877437521E-01
    2.8749576783E-01    2.8622124576E-01    2.8495081480E-01    2.8368448041E-01
    2.8242224770E-01    2.8116412144E-01    2.7991010608E-01    2.7866020573E-01
    2.7741442418E-01    2.7617276490E-01    2.7493523107E-01    2.7370182554E-01
    2.7247255086E-01    2.7124740931E-01    2.7002640285E-01    2.6880953318E-01
    2.6759680171E-01    2.6638820956E-01    2.6518375760E-01    2.6398344644E-01
    2.6278727641E-01    2.6159524759E-01    2.6040735982E-01    2.5922361269E-01
    2.5804400554E-01    2.5686853747E-01    2.5569720738E-01    2.5453001389E-01
    2.5336695544E-01    2.5220803023E-01    2.5105323625E-01    2.4990257127E-01
    2.4875603287E-01    2.4761361840E-01    2.4647532505E-01    2.4534114978E-01
    2.4421108936E-01    2.4308514041E-01    2.4196329931E-01    2.4084556231E-01
    2.3973192546E-01    2.3862238463E-01    2.3751693554E-01    2.3641557372E-01
    2.3531829457E-01    2.3422509331E-01    2.3313596501E-01    2.3205090457E-01
    2.3096990677E-01    2.2989296622E-01    2.2882007741E-01    2.2775123467E-01
    2.2668643221E-01    2.2562566409E-01    2.2456892424E-01    2.2351620648E-01
    2.2246750449E-01    2.2142281183E-01    2.2038212195E-01    2.1934542817E-01
    2.1831272371E-01    2.1728400166E-01    2.1625925501E-01    2.1523847666E-01
    2.1422165938E-01    2.1320879586E-01    2.1219987867E-01    2.1119490030E-01
    2.1019385315E-01    2.0919672951E-01    2.0820352160E-01    2.0721422153E-01
    2.0622882135E-01    2.0524731301E-01    2.0426968837E-01    2.0329593925E-01
    2.0232605735E-01    2.0136003432E-01    2.0039786174E-01    1.9943953109E-01
    1.9848503381E-01    1.9753436127E-01    1.9658750476E-01    1.9564445552E-01
    1.9470520472E-01    1.9376974348E-01    1.9283806284E-01    1.9191015381E-01
    1.9098600734E-01    1.9006561430E-01    1.8914896553E-01    1.8823605184E-01
    1.8732686394E-01    1.8642139254E-01    1.8551962829E-01    1.8462156177E-01
    1.8372718355E-01    1.8283648415E-01    1.8194945404E-01    1.8106608365E-01
    1.8018636340E-01    1.7931028363E-01    1.7843783469E-01    1.7756900685E-01
    1.7670379039E-01    1.7584217553E-01    1.7498415248E-01    1.7412971139E-01
    1.7327884241E-01    1.7243153567E-01    1.7158778123E-01    1.7074756918E-01
    1.6991088954E-01    1.6907773233E-01    1.6824808755E-01    1.6742194517E-01
    1.6659929515E-01    1.6578012741E-01    1.6496443187E-01    1.6415219843E-01
    1.6334341697E-01    1.6253807736E-01    1.6173616945E-01    1.6093768306E-01
    1.6014260804E-01    1.5935093418E-01    1.5856265129E-01    1.5777774915E-01
    1.5699621754E-01    1.5621804624E-01    1.5544322498E-01    1.5467174354E-01
    1.5390359165E-01    1.5313875905E-01    1.5237723546E-01    1.5161901062E-01
    1.5086407424E-01    1.5011241603E-01    1.4936402572E-01    1.4861889299E-01
    1.4787700757E-01    1.4713835915E-01    1.4640293743E-01    1.4567073212E-01
    1.4494173292E-01    1.4421592951E-01    1.4349331161E-01    1.4277386892E-01
    1.4205759113E-01    1.4134446795E-01    1.4063448908E-01    1.3992764425E-01
    1.3922392315E-01    1.3852331550E-01    1.3782581103E-01    1.3713139945E-01
    1.3644007050E-01    1.3575181391E-01    1.3506661942E-01    1.3438447677E-01
    1.3370537572E-01    1.3302930603E-01    1.3235625745E-01    1.3168621977E-01
    1.3101918276E-01    1.3035513622E-01    1.2969406993E-01    1.2903597370E-01
    1.2838083736E-01    1.2772865071E-01    1.2707940360E-01    1.2643308586E-01
    1.2578968735E-01    1.2514919793E-01    1.2451160748E-01    1.2387690587E-01
    1.2324508301E-01    1.2261612881E-01    1.2199003317E-01    1.2136678603E-01
    1.2074637734E-01    1.2012879704E-01    1.1951403511E-01    1.1890208153E-01
    1.1829292628E-01    1.1768655938E-01    1.1708297084E-01    1.1648215069E-01
    1.1588408899E-01    1.1528877580E-01    1.1469620119E-01    1.1410635524E-01
    1.1351922807E-01    1.1293480980E-01    1.1235309055E-01    1.1177406047E-01
    1.1119770974E-01    1.1062402853E-01    1.1005300703E-01    1.0948463545E-01
    1.0891890403E-01    1.0835580300E-01    1.0779532263E-01    1.0723745319E-01
    1.0668218497E-01    1.0612950828E-01    1.0557941345E-01    1.0503189082E-01
    1.0448693074E-01    1.0394452360E-01    1.0340465979E-01    1.0286732971E-01
    1.0233252381E-01    1.0180023252E-01    1.0127044631E-01    1.0074315567E-01
    1.0021835109E-01    9.9696023089E-02    9.9176162209E-02    9.8658759003E-02
    9.8143804046E-02    9.7631287930E-02    9.7121201266E-02    9.6613534684E-02
    9.6108278834E-02    9.5605424382E-02    9.5104962017E-02    9.4606882445E-02
    9.4111176391E-02    9.3617834600E-02    9.3126847838E-02    9.2638206887E-02
    9.2151902552E-02    9.1667925657E-02    9.1186267045E-02    9.0706917579E-02
    9.0229868142E-02    8.9755109639E-02    8.9282632992E-02    8.8812429146E-02
    8.8344489064E-02    8.7878803732E-02    8.7415364154E-02    8.6954161356E-02
    8.6495186385E-02    8.6038430307E-02    8.5583884210E-02    8.5131539203E-02
    8.4681386414E-02    8.4233416996E-02    8.3787622118E-02    8.3343992974E-02
    8.2902520777E-02    8.2463196762E-02    8.2026012186E-02    8.1590958325E-02
    8.1158026480E-02    8.0727207971E-02    8.0298494138E-02    7.9871876347E-02
    7.9447345981E-02    7.9024894449E-02    7.8604513178E-02    7.8186193618E-02
    7.7769927243E-02    7.7355705545E-02    7.6943520042E-02    7.6533362271E-02
    7.6125223791E-02    7.5719096186E-02    7.5314971058E-02    7.4912840036E-02
    7.4512694766E-02    7.4114526921E-02    7.3718328192E-02    7.3324090296E-02
    7.2931804970E-02    7.2541463975E-02    7.2153059093E-02    7.1766582129E-02
    7.1382024911E-02    7.0999379289E-02    7.0618637136E-02    7.0239790348E-02
    6.9862830842E-02    6.9487750559E-02    6.9114541463E-02    6.8743195540E-02
    6.8373704799E-02    6.8006061272E-02    6.7640257013E-02    6.7276284101E-02
    6.6914134635E-02    6.6553800739E-02    6.6195274559E-02    6.5838548265E-02
    6.5483614048E-02    6.5130464124E-02    6.4779090732E-02    6.4429486132E-02
    6.4081642609E-02    6.3735552471E-02    6.3391208047E-02    6.3048601693E-02
    6.2707725785E-02    6.2368572722E-02    6.2031134928E-02    6.1695404851E-02
    6.1361374958E-02    6.1029037743E-02    6.0698385723E-02    6.0369411436E-02
    6.0042107446E-02    5.9716466337E-02    5.9392480720E-02    5.9070143226E-02
    5.8749446511E-02    5.8430383255E-02    5.8112946160E-02    5.7797127951E-02
    5.7482921377E-02    5.7170319211E-02    5.6859314248E-02    5.6549899307E-02
    5.6242067231E-02    5.5935810884E-02    5.5631123157E-02    5.5327996961E-02
    5.5026425232E-02    5.4726400928E-02    5.4427917033E-02    5.4130966551E-02
    5.3835542513E-02    5.3541637969E-02    5.3249245995E-02    5.2958359691E-02
    5.2668972179E-02    5.2381076603E-02    5.2094666134E-02    5.1809733963E-02
    5.1526273304E-02    5.1244277398E-02    5.0963739506E-02    5.0684652913E-02
    5.0407010927E-02    5.0130806880E-02    4.9856034127E-02    4.9582686045E-02
    4.9310756037E-02    4.9040237526E-02    4.8771123960E-02    4.8503408809E-02
    4.8237085568E-02    4.7972147753E-02    4.7708588904E-02    4.7446402585E-02
    4.7185582381E-02    4.6926121902E-02    4.6668014780E-02    4.6411254670E-02
    4.6155835250E-02    4.5901750221E-02    4.5648993308E-02    4.5397558258E-02
    4.5147438840E-02    4.4898628847E-02    4.4651122094E-02    4.4404912421E-02
    4.4159993687E-02    4.3916359778E-02    4.3674004600E-02    4.3432922082E-02
    4.3193106177E-02    4.2954550858E-02    4.2717250125E-02    4.2481197995E-02
    4.2246388513E-02    4.2012815744E-02    4.1780473774E-02    4.1549356714E-02
    4.1319458696E-02    4.1090773876E-02    4.0863296432E-02    4.0637020561E-02
    4.0411940488E-02    4.0188050455E-02    3.9965344730E-02    3.9743817601E-02
    3.9523463380E-02    3.9304276399E-02    3.9086251014E-02    3.8869381602E-02
    3.8653662563E-02    3.8439088318E-02    3.8225653310E-02    3.8013352004E-02
    3.7802178888E-02    3.7592128471E-02    3.7383195283E-02    3.7175373878E-02
    3.6968658828E-02    3.6763044732E-02    3.6558526205E-02    3.6355097888E-02
    3.6152754441E-02    3.5951490547E-02    3.5751300910E-02    3.5552180254E-02
    3.5354123327E-02    3.5157124896E-02    3.4961179751E-02    3.4766282703E-02
    3.4572428584E-02    3.4379612245E-02    3.4187828563E-02    3.3997072432E-02
    3.3807338768E-02    3.3618622508E-02    3.3430918611E-02    3.3244222057E-02
    3.3058527844E-02    3.2873830994E-02    3.2690126548E-02    3.2507409570E-02
    3.2325675141E-02    3.2144918365E-02    3.1965134367E-02    3.1786318291E-02
    3.1608465302E-02    3.1431570586E-02    3.1255629349E-02    3.1080636817E-02
    3.0906588237E-02    3.0733478876E-02    3.0561304019E-02    3.0390058975E-02
    3.0219739071E-02    3.0050339653E-02    2.9881856090E-02    2.9714283767E-02
    2.9547618092E-02    2.9381854492E-02    2.9216988412E-02    2.9053015320E-02
    2.8889930701E-02    2.8727730060E-02    2.8566408923E-02    2.8405962834E-02
    2.8246387357E-02    2.8087678074E-02    2.7929830590E-02    2.7772840525E-02
    2.7616703521E-02    2.7461415239E-02    2.7306971357E-02    2.7153367574E-02
    2.7000599608E-02    2.6848663195E-02    2.6697554090E-02    2.6547268068E-02
    2.6397800922E-02    2.6249148463E-02    2.6101306522E-02    2.5954270947E-02
    2.5808037607E-02    2.5662602388E-02    2.5517961193E-02    2.5374109946E-02
    2.5231044588E-02    2.5088761079E-02    2.4947255397E-02    2.4806523537E-02
    2.4666561513E-02    2.4527365358E-02    2.4388931122E-02    2.4251254873E-02
    2.4114332696E-02    2.3978160696E-02    2.3842734994E-02    2.3708051729E-02
    2.3574107059E-02    2.3440897157E-02    2.3308418216E-02    2.3176666446E-02
    2.3045638073E-02    2.2915329341E-02    2.2785736513E-02    2.2656855867E-02
    2.2528683700E-02    2.2401216324E-02    2.2274450071E-02    2.2148381286E-02
    2.2023006335E-02    2.1898321599E-02    2.1774323476E-02    2.1651008381E-02
    2.1528372745E-02    2.1406413016E-02    2.1285125661E-02    2.1164507159E-02
    2.1044554009E-02    2.0925262726E-02    2.0806629839E-02    2.0688651898E-02
    2.0571325463E-02    2.0454647116E-02    2.0338613452E-02    2.0223221083E-02
    2.0108466637E-02    1.9994346757E-02    1.9880858104E-02    1.9767997353E-02
    1.9655761196E-02    1.9544146339E-02    1.9433149506E-02    1.9322767436E-02
    1.9212996882E-02    1.9103834613E-02    1.8995277416E-02    1.8887322091E-02
    1.8779965453E-02    1.8673204334E-02    1.8567035580E-02    1.8461456052E-02
    1.8356462628E-02    1.8252052198E-02    1.8148221670E-02    1.8044967966E-02
    1.7942288021E-02    1.7840178788E-02    1.7738637233E-02    1.7637660335E-02
    1.7537245092E-02    1.7437388512E-02    1.7338087622E-02    1.7239339459E-02
    1.7141141078E-02    1.7043489546E-02    1.6946381946E-02    1.6849815374E-02
    1.6753786942E-02    1.6658293773E-02    1.6563333008E-02    1.6468901799E-02
    1.6374997313E-02    1.6281616731E-02    1.6188757248E-02    1.6096416073E-02
    1.6004590427E-02    1.5913277548E-02    1.5822474685E-02    1.5732179102E-02
    1.5642388074E-02    1.5553098893E-02    1.5464308863E-02    1.5376015300E-02
    1.5288215535E-02    1.5200906912E-02    1.5114086788E-02    1.5027752533E-02
    1.4941901530E-02    1.4856531175E-02    1.4771638878E-02    1.4687222062E-02
    1.4603278160E-02    1.4519804620E-02    1.4436798905E-02    1.4354258486E-02
    1.4272180851E-02    1.4190563497E-02    1.4109403936E-02    1.4028699693E-02
    1.3948448302E-02    1.3868647312E-02    1.3789294285E-02    1.3710386794E-02
    1.3631922425E-02    1.3553898774E-02    1.3476313453E-02    1.3399164082E-02
    1.3322448295E-02    1.3246163740E-02    1.3170308073E-02    1.3094878965E-02
    1.3019874096E-02    1.2945291161E-02    1.2871127864E-02    1.2797381922E-02
    1.2724051064E-02    1.2651133029E-02    1.2578625569E-02    1.2506526447E-02
    1.2434833438E-02    1.2363544326E-02    1.2292656910E-02    1.2222168997E-02
    1.2152078406E-02    1.2082382970E-02    1.2013080529E-02    1.1944168936E-02
    1.1875646056E-02    1.1807509763E-02    1.1739757943E-02    1.1672388493E-02
    1.1605399321E-02    1.1538788344E-02    1.1472553491E-02    1.1406692704E-02
    1.1341203930E-02    1.1276085133E-02    1.1211334282E-02    1.1146949361E-02
    1.1082928361E-02    1.1019269286E-02    1.0955970148E-02    1.0893028971E-02
    1.0830443788E-02    1.0768212644E-02    1.0706333592E-02    1.0644804697E-02
    1.0583624032E-02    1.0522789683E-02    1.0462299743E-02    1.0402152317E-02
    1.0342345518E-02    1.0282877470E-02    1.0223746307E-02    1.0164950173E-02
    1.0106487220E-02    1.0048355611E-02    9.9905535185E-03    9.9330791245E-03
    9.8759306204E-03    9.8191062070E-03    9.7626040948E-03    9.7064225033E-03
    9.6505596616E-03    9.5950138081E-03    9.5397831905E-03    9.4848660655E-03
    9.4302606991E-03    9.3759653665E-03    9.3219783518E-03    9.2682979482E-03
    9.2149224580E-03    9.1618501923E-03    9.1090794713E-03    9.0566086239E-03
    9.0044359879E-03    8.9525599097E-03    8.9009787448E-03    8.8496908571E-03
    8.7986946193E-03    8.7479884127E-03    8.6975706270E-03    8.6474396607E-03
    8.5975939207E-03    8.5480318223E-03    8.4987517891E-03    8.4497522534E-03
    8.4010316555E-03    8.3525884442E-03    8.3044210765E-03    8.2565280175E-03
    8.2089077406E-03    8.1615587273E-03    8.1144794671E-03    8.0676684578E-03
    8.0211242048E-03    7.9748452219E-03    7.9288300305E-03    7.8830771602E-03
    7.8375851482E-03    7.7923525396E-03    7.7473778874E-03    7.7026597521E-03
    7.6581967022E-03    7.6139873135E-03    7.5700301699E-03    7.5263238625E-03
    7.4828669900E-03    7.4396581589E-03    7.3966959828E-03    7.3539790830E-03
    7.3115060881E-03    7.2692756341E-03    7.2272863643E-03    7.1855369295E-03
    7.1440259874E-03    7.1027522031E-03    7.0617142490E-03    7.0209108046E-03
    6.9803405563E-03    6.9400021978E-03    6.8998944298E-03    6.8600159601E-03
    6.8203655033E-03    6.7809417810E-03    6.7417435218E-03    6.7027694610E-03
    6.6640183409E-03    6.6254889106E-03    6.5871799258E-03    6.5490901490E-03
    6.5112183496E-03    6.4735633034E-03    6.4361237930E-03    6.3988986075E-03
    6.3618865426E-03    6.3250864006E-03    6.2884969902E-03    6.2521171266E-03
    6.2159456315E-03    6.1799813329E-03    6.1442230653E-03    6.1086696693E-03
    6.0733199921E-03    6.0381728869E-03    6.0032272135E-03    5.9684818374E-03
    5.9339356308E-03    5.8995874717E-03    5.8654362444E-03    5.8314808391E-03
    5.7977201522E-03    5.7641530861E-03    5.7307785492E-03    5.6975954558E-03
    5.6646027261E-03    5.6317992864E-03    5.5991840687E-03    5.5667560108E-03
    5.5345140565E-03    5.5024571551E-03    5.4705842620E-03    5.4388943379E-03
    5.4073863497E-03    5.3760592694E-03    5.3449120752E-03    5.3139437504E-03
    5.2831532841E-03    5.2525396711E-03    5.2221019114E-03    5.1918390108E-03
    5.1617499802E-03    5.1318338363E-03    5.1020896009E-03    5.0725163015E-03
    5.0431129706E-03    5.0138786462E-03    4.9848123716E-03    4.9559131953E-03
    4.9271801711E-03    4.8986123580E-03    4.8702088202E-03    4.8419686269E-03
    4.8138908526E-03    4.7859745770E-03    4.7582188844E-03    4.7306228648E-03
    4.7031856127E-03    4.6759062279E-03    4.6487838150E-03    4.6218174836E-03
    4.5950063482E-03    4.5683495284E-03    4.5418461482E-03    4.5154953369E-03
    4.4892962285E-03    4.4632479616E-03    4.4373496797E-03    4.4116005310E-03
    4.3859996686E-03    4.3605462501E-03    4.3352394377E-03    4.3100783984E-03
    4.2850623038E-03    4.2601903300E-03    4.2354616578E-03    4.2108754723E-03
    4.1864309635E-03    4.1621273256E-03    4.1379637573E-03    4.1139394618E-03
    4.0900536468E-03    4.0663055243E-03    4.0426943107E-03    4.0192192267E-03
    3.9958794975E-03    3.9726743524E-03    3.9496030252E-03    3.9266647537E-03
    3.9038587803E-03    3.8811843512E-03    3.8586407171E-03    3.8362271327E-03
    3.8139428571E-03    3.7917871531E-03    3.7697592881E-03    3.7478585332E-03
    3.7260841638E-03    3.7044354592E-03    3.6829117027E-03    3.6615121818E-03
    3.6402361877E-03    3.6190830159E-03    3.5980519654E-03    3.5771423395E-03
    3.5563534452E-03    3.5356845934E-03    3.5151350988E-03    3.4947042802E-03
    3.4743914597E-03    3.4541959637E-03    3.4341171221E-03    3.4141542686E-03
    3.3943067406E-03    3.3745738793E-03    3.3549550295E-03    3.3354495397E-03
    3.3160567621E-03    3.2967760523E-03    3.2776067699E-03    3.2585482777E-03
    3.2395999423E-03    3.2207611339E-03    3.2020312259E-03    3.1834095957E-03
    3.1648956237E-03    3.1464886942E-03    3.1281881946E-03    3.1099935161E-03
    3.0919040529E-03    3.0739192029E-03    3.0560383674E-03    3.0382609508E-03
    3.0205863612E-03    3.0030140097E-03    2.9855433108E-03    2.9681736825E-03
    2.9509045459E-03    2.9337353252E-03    2.9166654482E-03    2.8996943456E-03
    2.8828214515E-03    2.8660462031E-03    2.8493680407E-03    2.8327864079E-03
    2.8163007514E-03    2.7999105210E-03    2.7836151695E-03    2.7674141529E-03
    2.7513069302E-03    2.7352929636E-03    2.7193717181E-03    2.7035426618E-03
    2.6878052660E-03    2.6721590046E-03    2.6566033548E-03    2.6411377967E-03
    2.6257618131E-03    2.6104748900E-03    2.5952765161E-03    2.5801661832E-03
    2.5651433857E-03    2.5502076210E-03    2.5353583895E-03    2.5205951941E-03
    2.5059175408E-03    2.4913249381E-03    2.4768168976E-03    2.4623929334E-03
    2.4480525625E-03    2.4337953045E-03    2.4196206819E-03    2.4055282198E-03
    2.3915174459E-03    2.3775878907E-03    2.3637390874E-03    2.3499705717E-03
    2.3362818819E-03    2.3226725592E-03    2.3091421470E-03    2.2956901917E-03
    2.2823162418E-03    2.2690198489E-03    2.2558005667E-03    2.2426579516E-03
    2.2295915625E-03    2.2166009609E-03    2.2036857106E-03    2.1908453780E-03
    2.1780795320E-03    2.1653877437E-03    2.1527695869E-03    2.1402246378E-03
    2.1277524749E-03    2.1153526791E-03    2.1030248336E-03    2.0907685243E-03
    2.0785833390E-03    2.0664688682E-03    2.0544247045E-03    2.0424504431E-03
    2.0305456811E-03    2.0187100181E-03    2.0069430561E-03    1.9952443992E-03
    1.9836136538E-03    1.9720504284E-03    1.9605543340E-03    1.9491249836E-03
    1.9377619925E-03    1.9264649781E-03    1.9152335601E-03    1.9040673603E-03
    1.8929660026E-03    1.8819291131E-03    1.8709563200E-03    1.8600472536E-03
    1.8492015465E-03    1.8384188332E-03    1.8276987502E-03    1.8170409362E-03
    1.8064450321E-03    1.7959106806E-03    1.7854375264E-03    1.7750252166E-03
    1.7646734000E-03    1.7543817273E-03    1.7441498516E-03    1.7339774275E-03
    1.7238641121E-03    1.7138095639E-03    1.7038134438E-03    1.6938754143E-03
    1.6839951402E-03    1.6741722877E-03    1.6644065255E-03    1.6546975237E-03
    1.6450449544E-03    1.6354484918E-03    1.6259078117E-03    1.6164225920E-03
    1.6069925120E-03    1.5976172534E-03    1.5882964993E-03    1.5790299348E-03
    1.5698172468E-03    1.5606581239E-03    1.5515522566E-03    1.5424993371E-03
    1.5334990595E-03    1.5245511192E-03    1.5156552140E-03    1.5068110429E-03
    1.4980183069E-03    1.4892767085E-03    1.4805859519E-03    1.4719457433E-03
    1.4633557903E-03    1.4548158022E-03    1.4463254899E-03    1.4378845662E-03
    1.4294927456E-03    1.4211497437E-03    1.4128552781E-03    1.4046090680E-03
    1.3964108341E-03    1.3882602989E-03    1.3801571863E-03    1.3721012219E-03
    1.3640921329E-03    1.3561296477E-03    1.3482134971E-03    1.3403434130E-03
    1.3325191290E-03    1.3247403800E-03    1.3170069027E-03    1.3093184352E-03
    1.3016747170E-03    1.2940754893E-03    1.2865204949E-03    1.2790094776E-03
    1.2715421828E-03    1.2641183575E-03    1.2567377501E-03    1.2494001104E-03
    1.2421051896E-03    1.2348527404E-03    1.2276425169E-03    1.2204742745E-03
    1.2133477702E-03    1.2062627619E-03    1.1992190095E-03    1.1922162738E-03
    1.1852543172E-03    1.1783329033E-03    1.1714517973E-03    1.1646107654E-03
    1.1578095754E-03    1.1510479963E-03    1.1443257986E-03    1.1376427541E-03
    1.1309986356E-03    1.1243932176E-03    1.1178262757E-03    1.1112975868E-03
    1.1048069291E-03    1.0983540820E-03
   </PP_CHI.6>
 </PP_PSWFC>
 <PP_NLCC type="real"  size="1534" columns="4">
    7.7241412397E+00    7.7185109061E+00    7.7016429496E+00    7.6736063774E+00
    7.6345157074E+00    7.5845302379E+00    7.5238530322E+00    7.4527296267E+00
    7.3714464745E+00    7.2803291379E+00    7.1797402434E+00    7.0700772172E+00
    6.9517698200E+00    6.8252775008E+00    6.6910865913E+00    6.5497073639E+00
    6.4016709766E+00    6.2475263288E+00    6.0878368538E+00    5.9231772714E+00
    5.7541303260E+00    5.5812835355E+00    5.4052259738E+00    5.2265451111E+00
    5.0458237347E+00    4.8636369702E+00    4.6805494248E+00    4.4971124704E+00
    4.3138616835E+00    4.1313144571E+00    3.9499677990E+00    3.7702963259E+00
    3.5927504653E+00    3.4177548711E+00    3.2457070584E+00    3.0769762620E+00
    2.9119025190E+00    2.7507959752E+00    2.5939364138E+00    2.4415730001E+00
    2.2939242381E+00    2.1511781313E+00    2.0134925369E+00    1.8809957050E+00
    1.7537869898E+00    1.6319377211E+00    1.5154922215E+00    1.4044689556E+00
    1.2988617971E+00    1.1986413964E+00    1.1037566359E+00    1.0141361553E+00
    9.2968993236E-01    8.5031090461E-01    7.7587661535E-01    7.0625087133E-01
    6.4128539746E-01    5.8082147583E-01    5.2469155673E-01    4.7272083056E-01
    4.2472875009E-01    3.8053049397E-01    3.3993836303E-01    3.0276310245E-01
    2.6881514347E-01    2.3790575991E-01    2.0984813546E-01    1.8445833899E-01
    1.6155620606E-01    1.4096612593E-01    1.2251773401E-01    1.0604651100E-01
    9.1394290351E-02    7.8409676767E-02    6.6948378862E-02    5.6873459882E-02
    4.8055510787E-02    4.0372750471E-02    3.3711058225E-02    2.7963943834E-02
    2.3032460875E-02    1.8825068930E-02    1.5257450433E-02    1.2252287905E-02
    9.7390072071E-03    7.6534923453E-03    5.9377771392E-03    4.5397188728E-03
    3.4126587549E-03    2.5150737268E-03    1.8102238271E-03    1.2657989761E-03
    8.5356868607E-04    5.4903782831E-04    3.3111122125E-04    1.8176942800E-04
    8.5757788814E-05    3.0290357191E-05    4.7700671014E-06    5.2613350887E-07
    1.0569382818E-05    2.9365926024E-05    5.2629326920E-05    7.7131181801E-05
    1.0052981679E-04    1.2121662450E-04    1.3817940301E-04    1.5088192688E-04
    1.5915887179E-04    1.6312512931E-04    1.6309848664E-04    1.5953460471E-04
    1.5297320669E-04    1.4399438504E-04    1.3318394694E-04    1.2110674411E-04
    1.0828697079E-04    9.5194461732E-05    8.2236078055E-05    6.9751331966E-05
    5.8011468126E-05    4.7221290412E-05    3.7523094541E-05    2.9002139468E-05
    2.1693161933E-05    1.5587507561E-05    1.0640518709E-05    6.7788817781E-06
    3.9076951650E-06    1.9170729313E-06    6.8814784804E-07    9.8380835188E-08
    2.6122107219E-08    3.5440202087E-07    9.7395726889E-07    1.7855207930E-06
    2.7014217450E-06    3.6465554398E-06    4.5587928646E-06    5.3889053628E-06
    6.1000829569E-06    6.6671249035E-06    7.0753788749E-06    7.3195011085E-06
    7.4021042618E-06    7.3323530523E-06    7.1245603213E-06    6.7968282799E-06
    6.3697716625E-06    5.8653515953E-06    5.3058413128E-06    4.7129377248E-06
    4.1070262678E-06    3.5066006354E-06    2.9278339132E-06    2.3842933954E-06
    1.8867879282E-06    1.4433340138E-06    1.0592250635E-06    7.3718707697E-07
    4.7760356921E-07    2.7879269866E-07    1.3732018823E-07    4.8332686189E-08
    5.8976057902E-09    3.3371222881E-09    3.3545814882E-08    8.9283342656E-08
    1.6343546937E-07    2.4923864087E-07    3.4046511867E-07    4.3156734040E-07
    5.1778167850E-07    5.9519307721E-07    6.6076314819E-07    7.1232518909E-07
    7.4855025516E-07    7.6888886835E-07    7.7349320132E-07    7.6312464275E-07
    7.3905155318E-07    7.0294178175E-07    6.5675415385E-07    6.0263269165E-07
    5.4280680412E-07    4.7950011867E-07    4.1485003904E-07    3.5083952460E-07
    2.8924201511E-07    2.3157988730E-07    1.7909633922E-07    1.3274016525E-07
    9.3162515035E-08    6.0724433906E-08    3.5515631235E-08    1.7367546748E-08
    5.8949029643E-09    6.1413285302E-10   -1.6980410699E-11    2.3513633403E-11
    5.1155064722E-13   -2.4791629493E-12    0.0000000000E+00    0.0000000000E+00
    0.0000000000E+00    0.0000000000E+00    0.0000000000E+00    0.0000000000E+00
    0.0000000000E+00    0.0000000000E+00    0.0000000000E+00    0.0000000000E+00
    0.0000000000E+00    0.0000000000E+00    0.0000000000E+00    0.0000000000E+00
    0.0000000000E+00    0.0000000000E+00    0.0000000000E+00    0.0000000000E+00
    0.0000000000E+00    0.0000000000E+00    0.0000000000E+00    0.0000000000E+00
    0.0000000000E+00    0.0000000000E+00    0.0000000000E+00    0.0000000000E+00
    0.0000000000E+00    0.0000000000E+00    0.0000000000E+00    0.0000000000E+00
    0.0000000000E+00    0.0000000000E+00    0.0000000000E+00    0.0000000000E+00
    0.0000000000E+00    0.0000000000E+00    0.0000000000E+00    0.0000000000E+00
    0.0000000000E+00    0.0000000000E+00    0.0000000000E+00    0.0000000000E+00
    0.0000000000E+00    0.0000000000E+00    0.0000000000E+00    0.0000000000E+00
    0.0000000000E+00    0.0000000000E+00    0.0000000000E+00    0.0000000000E+00
    0.0000000000E+00    0.0000000000E+00    0.0000000000E+00    0.0000000000E+00
    0.0000000000E+00    0.0000000000E+00    0.0000000000E+00    0.0000000000E+00
    0.0000000000E+00    0.0000000000E+00    0.0000000000E+00    0.0000000000E+00
    0.0000000000E+00    0.0000000000E+00    0.0000000000E+00    0.0000000000E+00
    0.0000000000E+00    0.0000000000E+00    0.0000000000E+00    0.0000000000E+00
    0.0000000000E+00    0.0000000000E+00    0.0000000000E+00    0.0000000000E+00
    0.0000000000E+00    0.0000000000E+00    0.0000000000E+00    0.0000000000E+00
    0.0000000000E+00    0.0000000000E+00    0.0000000000E+00    0.0000000000E+00
    0.0000000000E+00    0.0000000000E+00    0.0000000000E+00    0.0000000000E+00
    0.0000000000E+00    0.0000000000E+00    0.0000000000E+00    0.0000000000E+00
    0.0000000000E+00    0.0000000000E+00    0.0000000000E+00    0.0000000000E+00
    0.0000000000E+00    0.0000000000E+00    0.0000000000E+00    0.0000000000E+00
    0.0000000000E+00    0.0000000000E+00    0.0000000000E+00    0.0000000000E+00
    0.0000000000E+00    0.0000000000E+00    0.0000000000E+00    0.0000000000E+00
    0.0000000000E+00    0.0000000000E+00    0.0000000000E+00    0.0000000000E+00
    0.0000000000E+00    0.0000000000E+00    0.0000000000E+00    0.0000000000E+00
    0.0000000000E+00    0.0000000000E+00    0.0000000000E+00    0.0000000000E+00
    0.0000000000E+00    0.0000000000E+00    0.0000000000E+00    0.0000000000E+00
    0.0000000000E+00    0.0000000000E+00    0.0000000000E+00    0.0000000000E+00
    0.0000000000E+00    0.0000000000E+00    0.0000000000E+00    0.0000000000E+00
    0.0000000000E+00    0.0000000000E+00    0.0000000000E+00    0.0000000000E+00
    0.0000000000E+00    0.0000000000E+00    0.0000000000E+00    0.0000000000E+00
    0.0000000000E+00    0.0000000000E+00    0.0000000000E+00    0.0000000000E+00
    0.0000000000E+00    0.0000000000E+00    0.0000000000E+00    0.0000000000E+00
    0.0000000000E+00    0.0000000000E+00    0.0000000000E+00    0.0000000000E+00
    0.0000000000E+00    0.0000000000E+00    0.0000000000E+00    0.0000000000E+00
    0.0000000000E+00    0.0000000000E+00    0.0000000000E+00    0.0000000000E+00
    0.0000000000E+00    0.0000000000E+00    0.0000000000E+00    0.0000000000E+00
    0.0000000000E+00    0.0000000000E+00    0.0000000000E+00    0.0000000000E+00
    0.0000000000E+00    0.0000000000E+00    0.0000000000E+00    0.0000000000E+00
    0.0000000000E+00    0.0000000000E+00    0.0000000000E+00    0.0000000000E+00
    0.0000000000E+00    0.0000000000E+00    0.0000000000E+00    0.0000000000E+00
    0.0000000000E+00    0.0000000000E+00    0.0000000000E+00    0.0000000000E+00
    0.0000000000E+00    0.0000000000E+00    0.0000000000E+00    0.0000000000E+00
    0.0000000000E+00    0.0000000000E+00    0.0000000000E+00    0.0000000000E+00
    0.0000000000E+00    0.0000000000E+00    0.0000000000E+00    0.0000000000E+00
    0.0000000000E+00    0.0000000000E+00    0.0000000000E+00    0.0000000000E+00
    0.0000000000E+00    0.0000000000E+00    0.0000000000E+00    0.0000000000E+00
    0.0000000000E+00    0.0000000000E+00    0.0000000000E+00    0.0000000000E+00
    0.0000000000E+00    0.0000000000E+00    0.0000000000E+00    0.0000000000E+00
    0.0000000000E+00    0.0000000000E+00    0.0000000000E+00    0.0000000000E+00
    0.0000000000E+00    0.0000000000E+00    0.0000000000E+00    0.0000000000E+00
    0.0000000000E+00    0.0000000000E+00    0.0000000000E+00    0.0000000000E+00
    0.0000000000E+00    0.0000000000E+00    0.0000000000E+00    0.0000000000E+00
    0.0000000000E+00    0.0000000000E+00    0.0000000000E+00    0.0000000000E+00
    0.0000000000E+00    0.0000000000E+00    0.0000000000E+00    0.0000000000E+00
    0.0000000000E+00    0.0000000000E+00    0.0000000000E+00    0.0000000000E+00
    0.0000000000E+00    0.0000000000E+00    0.0000000000E+00    0.0000000000E+00
    0.0000000000E+00    0.0000000000E+00    0.0000000000E+00    0.0000000000E+00
    0.0000000000E+00    0.0000000000E+00    0.0000000000E+00    0.0000000000E+00
    0.0000000000E+00    0.0000000000E+00    0.0000000000E+00    0.0000000000E+00
    0.0000000000E+00    0.0000000000E+00    0.0000000000E+00    0.0000000000E+00
    0.0000000000E+00    0.0000000000E+00    0.0000000000E+00    0.0000000000E+00
    0.0000000000E+00    0.0000000000E+00    0.0000000000E+00    0.0000000000E+00
    0.0000000000E+00    0.0000000000E+00    0.0000000000E+00    0.0000000000E+00
    0.0000000000E+00    0.0000000000E+00    0.0000000000E+00    0.0000000000E+00
    0.0000000000E+00    0.0000000000E+00    0.0000000000E+00    0.0000000000E+00
    0.0000000000E+00    0.0000000000E+00    0.0000000000E+00    0.0000000000E+00
    0.0000000000E+00    0.0000000000E+00    0.0000000000E+00    0.0000000000E+00
    0.0000000000E+00    0.0000000000E+00    0.0000000000E+00    0.0000000000E+00
    0.0000000000E+00    0.0000000000E+00    0.0000000000E+00    0.0000000000E+00
    0.0000000000E+00    0.0000000000E+00    0.0000000000E+00    0.0000000000E+00
    0.0000000000E+00    0.0000000000E+00    0.0000000000E+00    0.0000000000E+00
    0.0000000000E+00    0.0000000000E+00    0.0000000000E+00    0.0000000000E+00
    0.0000000000E+00    0.0000000000E+00    0.0000000000E+00    0.0000000000E+00
    0.0000000000E+00    0.0000000000E+00    0.0000000000E+00    0.0000000000E+00
    0.0000000000E+00    0.0000000000E+00    0.0000000000E+00    0.0000000000E+00
    0.0000000000E+00    0.0000000000E+00    0.0000000000E+00    0.0000000000E+00
    0.0000000000E+00    0.0000000000E+00    0.0000000000E+00    0.0000000000E+00
    0.0000000000E+00    0.0000000000E+00    0.0000000000E+00    0.0000000000E+00
    0.0000000000E+00    0.0000000000E+00    0.0000000000E+00    0.0000000000E+00
    0.0000000000E+00    0.0000000000E+00    0.0000000000E+00    0.0000000000E+00
    0.0000000000E+00    0.0000000000E+00    0.0000000000E+00    0.0000000000E+00
    0.0000000000E+00    0.0000000000E+00    0.0000000000E+00    0.0000000000E+00
    0.0000000000E+00    0.0000000000E+00    0.0000000000E+00    0.0000000000E+00
    0.0000000000E+00    0.0000000000E+00    0.0000000000E+00    0.0000000000E+00
    0.0000000000E+00    0.0000000000E+00    0.0000000000E+00    0.0000000000E+00
    0.0000000000E+00    0.0000000000E+00    0.0000000000E+00    0.0000000000E+00
    0.0000000000E+00    0.0000000000E+00    0.0000000000E+00    0.0000000000E+00
    0.0000000000E+00    0.0000000000E+00    0.0000000000E+00    0.0000000000E+00
    0.0000000000E+00    0.0000000000E+00    0.0000000000E+00    0.0000000000E+00
    0.0000000000E+00    0.0000000000E+00    0.0000000000E+00    0.0000000000E+00
    0.0000000000E+00    0.0000000000E+00    0.0000000000E+00    0.0000000000E+00
    0.0000000000E+00    0.0000000000E+00    0.0000000000E+00    0.0000000000E+00
    0.0000000000E+00    0.0000000000E+00    0.0000000000E+00    0.0000000000E+00
    0.0000000000E+00    0.0000000000E+00    0.0000000000E+00    0.0000000000E+00
    0.0000000000E+00    0.0000000000E+00    0.0000000000E+00    0.0000000000E+00
    0.0000000000E+00    0.0000000000E+00    0.0000000000E+00    0.0000000000E+00
    0.0000000000E+00    0.0000000000E+00    0.0000000000E+00    0.0000000000E+00
    0.0000000000E+00    0.0000000000E+00    0.0000000000E+00    0.0000000000E+00
    0.0000000000E+00    0.0000000000E+00    0.0000000000E+00    0.0000000000E+00
    0.0000000000E+00    0.0000000000E+00    0.0000000000E+00    0.0000000000E+00
    0.0000000000E+00    0.0000000000E+00    0.0000000000E+00    0.0000000000E+00
    0.0000000000E+00    0.0000000000E+00    0.0000000000E+00    0.0000000000E+00
    0.0000000000E+00    0.0000000000E+00    0.0000000000E+00    0.0000000000E+00
    0.0000000000E+00    0.0000000000E+00    0.0000000000E+00    0.0000000000E+00
    0.0000000000E+00    0.0000000000E+00    0.0000000000E+00    0.0000000000E+00
    0.0000000000E+00    0.0000000000E+00    0.0000000000E+00    0.0000000000E+00
    0.0000000000E+00    0.0000000000E+00    0.0000000000E+00    0.0000000000E+00
    0.0000000000E+00    0.0000000000E+00    0.0000000000E+00    0.0000000000E+00
    0.0000000000E+00    0.0000000000E+00    0.0000000000E+00    0.0000000000E+00
    0.0000000000E+00    0.0000000000E+00    0.0000000000E+00    0.0000000000E+00
    0.0000000000E+00    0.0000000000E+00    0.0000000000E+00    0.0000000000E+00
    0.0000000000E+00    0.0000000000E+00    0.0000000000E+00    0.0000000000E+00
    0.0000000000E+00    0.0000000000E+00    0.0000000000E+00    0.0000000000E+00
    0.0000000000E+00    0.0000000000E+00    0.0000000000E+00    0.0000000000E+00
    0.0000000000E+00    0.0000000000E+00    0.0000000000E+00    0.0000000000E+00
    0.0000000000E+00    0.0000000000E+00    0.0000000000E+00    0.0000000000E+00
    0.0000000000E+00    0.0000000000E+00    0.0000000000E+00    0.0000000000E+00
    0.0000000000E+00    0.0000000000E+00    0.0000000000E+00    0.0000000000E+00
    0.0000000000E+00    0.0000000000E+00    0.0000000000E+00    0.0000000000E+00
    0.0000000000E+00    0.0000000000E+00    0.0000000000E+00    0.0000000000E+00
    0.0000000000E+00    0.0000000000E+00    0.0000000000E+00    0.0000000000E+00
    0.0000000000E+00    0.0000000000E+00    0.0000000000E+00    0.0000000000E+00
    0.0000000000E+00    0.0000000000E+00    0.0000000000E+00    0.0000000000E+00
    0.0000000000E+00    0.0000000000E+00    0.0000000000E+00    0.0000000000E+00
    0.0000000000E+00    0.0000000000E+00    0.0000000000E+00    0.0000000000E+00
    0.0000000000E+00    0.0000000000E+00    0.0000000000E+00    0.0000000000E+00
    0.0000000000E+00    0.0000000000E+00    0.0000000000E+00    0.0000000000E+00
    0.0000000000E+00    0.0000000000E+00    0.0000000000E+00    0.0000000000E+00
    0.0000000000E+00    0.0000000000E+00    0.0000000000E+00    0.0000000000E+00
    0.0000000000E+00    0.0000000000E+00    0.0000000000E+00    0.0000000000E+00
    0.0000000000E+00    0.0000000000E+00    0.0000000000E+00    0.0000000000E+00
    0.0000000000E+00    0.0000000000E+00    0.0000000000E+00    0.0000000000E+00
    0.0000000000E+00    0.0000000000E+00    0.0000000000E+00    0.0000000000E+00
    0.0000000000E+00    0.0000000000E+00    0.0000000000E+00    0.0000000000E+00
    0.0000000000E+00    0.0000000000E+00    0.0000000000E+00    0.0000000000E+00
    0.0000000000E+00    0.0000000000E+00    0.0000000000E+00    0.0000000000E+00
    0.0000000000E+00    0.0000000000E+00    0.0000000000E+00    0.0000000000E+00
    0.0000000000E+00    0.0000000000E+00    0.0000000000E+00    0.0000000000E+00
    0.0000000000E+00    0.0000000000E+00    0.0000000000E+00    0.0000000000E+00
    0.0000000000E+00    0.0000000000E+00    0.0000000000E+00    0.0000000000E+00
    0.0000000000E+00    0.0000000000E+00    0.0000000000E+00    0.0000000000E+00
    0.0000000000E+00    0.0000000000E+00    0.0000000000E+00    0.0000000000E+00
    0.0000000000E+00    0.0000000000E+00    0.0000000000E+00    0.0000000000E+00
    0.0000000000E+00    0.0000000000E+00    0.0000000000E+00    0.0000000000E+00
    0.0000000000E+00    0.0000000000E+00    0.0000000000E+00    0.0000000000E+00
    0.0000000000E+00    0.0000000000E+00    0.0000000000E+00    0.0000000000E+00
    0.0000000000E+00    0.0000000000E+00    0.0000000000E+00    0.0000000000E+00
    0.0000000000E+00    0.0000000000E+00    0.0000000000E+00    0.0000000000E+00
    0.0000000000E+00    0.0000000000E+00    0.0000000000E+00    0.0000000000E+00
    0.0000000000E+00    0.0000000000E+00    0.0000000000E+00    0.0000000000E+00
    0.0000000000E+00    0.0000000000E+00    0.0000000000E+00    0.0000000000E+00
    0.0000000000E+00    0.0000000000E+00    0.0000000000E+00    0.0000000000E+00
    0.0000000000E+00    0.0000000000E+00    0.0000000000E+00    0.0000000000E+00
    0.0000000000E+00    0.0000000000E+00    0.0000000000E+00    0.0000000000E+00
    0.0000000000E+00    0.0000000000E+00    0.0000000000E+00    0.0000000000E+00
    0.0000000000E+00    0.0000000000E+00    0.0000000000E+00    0.0000000000E+00
    0.0000000000E+00    0.0000000000E+00    0.0000000000E+00    0.0000000000E+00
    0.0000000000E+00    0.0000000000E+00    0.0000000000E+00    0.0000000000E+00
    0.0000000000E+00    0.0000000000E+00    0.0000000000E+00    0.0000000000E+00
    0.0000000000E+00    0.0000000000E+00    0.0000000000E+00    0.0000000000E+00
    0.0000000000E+00    0.0000000000E+00    0.0000000000E+00    0.0000000000E+00
    0.0000000000E+00    0.0000000000E+00    0.0000000000E+00    0.0000000000E+00
    0.0000000000E+00    0.0000000000E+00    0.0000000000E+00    0.0000000000E+00
    0.0000000000E+00    0.0000000000E+00    0.0000000000E+00    0.0000000000E+00
    0.0000000000E+00    0.0000000000E+00    0.0000000000E+00    0.0000000000E+00
    0.0000000000E+00    0.0000000000E+00    0.0000000000E+00    0.0000000000E+00
    0.0000000000E+00    0.0000000000E+00    0.0000000000E+00    0.0000000000E+00
    0.0000000000E+00    0.0000000000E+00    0.0000000000E+00    0.0000000000E+00
    0.0000000000E+00    0.0000000000E+00    0.0000000000E+00    0.0000000000E+00
    0.0000000000E+00    0.0000000000E+00    0.0000000000E+00    0.0000000000E+00
    0.0000000000E+00    0.0000000000E+00    0.0000000000E+00    0.0000000000E+00
    0.0000000000E+00    0.0000000000E+00    0.0000000000E+00    0.0000000000E+00
    0.0000000000E+00    0.0000000000E+00    0.0000000000E+00    0.0000000000E+00
    0.0000000000E+00    0.0000000000E+00    0.0000000000E+00    0.0000000000E+00
    0.0000000000E+00    0.0000000000E+00    0.0000000000E+00    0.0000000000E+00
    0.0000000000E+00    0.0000000000E+00    0.0000000000E+00    0.0000000000E+00
    0.0000000000E+00    0.0000000000E+00    0.0000000000E+00    0.0000000000E+00
    0.0000000000E+00    0.0000000000E+00    0.0000000000E+00    0.0000000000E+00
    0.0000000000E+00    0.0000000000E+00    0.0000000000E+00    0.0000000000E+00
    0.0000000000E+00    0.0000000000E+00    0.0000000000E+00    0.0000000000E+00
    0.0000000000E+00    0.0000000000E+00    0.0000000000E+00    0.0000000000E+00
    0.0000000000E+00    0.0000000000E+00    0.0000000000E+00    0.0000000000E+00
    0.0000000000E+00    0.0000000000E+00    0.0000000000E+00    0.0000000000E+00
    0.0000000000E+00    0.0000000000E+00    0.0000000000E+00    0.0000000000E+00
    0.0000000000E+00    0.0000000000E+00    0.0000000000E+00    0.0000000000E+00
    0.0000000000E+00    0.0000000000E+00    0.0000000000E+00    0.0000000000E+00
    0.0000000000E+00    0.0000000000E+00    0.0000000000E+00    0.0000000000E+00
    0.0000000000E+00    0.0000000000E+00    0.0000000000E+00    0.0000000000E+00
    0.0000000000E+00    0.0000000000E+00    0.0000000000E+00    0.0000000000E+00
    0.0000000000E+00    0.0000000000E+00    0.0000000000E+00    0.0000000000E+00
    0.0000000000E+00    0.0000000000E+00    0.0000000000E+00    0.0000000000E+00
    0.0000000000E+00    0.0000000000E+00    0.0000000000E+00    0.0000000000E+00
    0.0000000000E+00    0.0000000000E+00    0.0000000000E+00    0.0000000000E+00
    0.0000000000E+00    0.0000000000E+00    0.0000000000E+00    0.0000000000E+00
    0.0000000000E+00    0.0000000000E+00    0.0000000000E+00    0.0000000000E+00
    0.0000000000E+00    0.0000000000E+00    0.0000000000E+00    0.0000000000E+00
    0.0000000000E+00    0.0000000000E+00    0.0000000000E+00    0.0000000000E+00
    0.0000000000E+00    0.0000000000E+00    0.0000000000E+00    0.0000000000E+00
    0.0000000000E+00    0.0000000000E+00    0.0000000000E+00    0.0000000000E+00
    0.0000000000E+00    0.0000000000E+00    0.0000000000E+00    0.0000000000E+00
    0.0000000000E+00    0.0000000000E+00    0.0000000000E+00    0.0000000000E+00
    0.0000000000E+00    0.0000000000E+00    0.0000000000E+00    0.0000000000E+00
    0.0000000000E+00    0.0000000000E+00    0.0000000000E+00    0.0000000000E+00
    0.0000000000E+00    0.0000000000E+00    0.0000000000E+00    0.0000000000E+00
    0.0000000000E+00    0.0000000000E+00    0.0000000000E+00    0.0000000000E+00
    0.0000000000E+00    0.0000000000E+00    0.0000000000E+00    0.0000000000E+00
    0.0000000000E+00    0.0000000000E+00    0.0000000000E+00    0.0000000000E+00
    0.0000000000E+00    0.0000000000E+00    0.0000000000E+00    0.0000000000E+00
    0.0000000000E+00    0.0000000000E+00    0.0000000000E+00    0.0000000000E+00
    0.0000000000E+00    0.0000000000E+00    0.0000000000E+00    0.0000000000E+00
    0.0000000000E+00    0.0000000000E+00    0.0000000000E+00    0.0000000000E+00
    0.0000000000E+00    0.0000000000E+00    0.0000000000E+00    0.0000000000E+00
    0.0000000000E+00    0.0000000000E+00    0.0000000000E+00    0.0000000000E+00
    0.0000000000E+00    0.0000000000E+00    0.0000000000E+00    0.0000000000E+00
    0.0000000000E+00    0.0000000000E+00    0.0000000000E+00    0.0000000000E+00
    0.0000000000E+00    0.0000000000E+00    0.0000000000E+00    0.0000000000E+00
    0.0000000000E+00    0.0000000000E+00    0.0000000000E+00    0.0000000000E+00
    0.0000000000E+00    0.0000000000E+00    0.0000000000E+00    0.0000000000E+00
    0.0000000000E+00    0.0000000000E+00    0.0000000000E+00    0.0000000000E+00
    0.0000000000E+00    0.0000000000E+00    0.0000000000E+00    0.0000000000E+00
    0.0000000000E+00    0.0000000000E+00    0.0000000000E+00    0.0000000000E+00
    0.0000000000E+00    0.0000000000E+00    0.0000000000E+00    0.0000000000E+00
    0.0000000000E+00    0.0000000000E+00    0.0000000000E+00    0.0000000000E+00
    0.0000000000E+00    0.0000000000E+00    0.0000000000E+00    0.0000000000E+00
    0.0000000000E+00    0.0000000000E+00    0.0000000000E+00    0.0000000000E+00
    0.0000000000E+00    0.0000000000E+00    0.0000000000E+00    0.0000000000E+00
    0.0000000000E+00    0.0000000000E+00    0.0000000000E+00    0.0000000000E+00
    0.0000000000E+00    0.0000000000E+00    0.0000000000E+00    0.0000000000E+00
    0.0000000000E+00    0.0000000000E+00    0.0000000000E+00    0.0000000000E+00
    0.0000000000E+00    0.0000000000E+00    0.0000000000E+00    0.0000000000E+00
    0.0000000000E+00    0.0000000000E+00    0.0000000000E+00    0.0000000000E+00
    0.0000000000E+00    0.0000000000E+00    0.0000000000E+00    0.0000000000E+00
    0.0000000000E+00    0.0000000000E+00    0.0000000000E+00    0.0000000000E+00
    0.0000000000E+00    0.0000000000E+00    0.0000000000E+00    0.0000000000E+00
    0.0000000000E+00    0.0000000000E+00    0.0000000000E+00    0.0000000000E+00
    0.0000000000E+00    0.0000000000E+00    0.0000000000E+00    0.0000000000E+00
    0.0000000000E+00    0.0000000000E+00    0.0000000000E+00    0.0000000000E+00
    0.0000000000E+00    0.0000000000E+00    0.0000000000E+00    0.0000000000E+00
    0.0000000000E+00    0.0000000000E+00    0.0000000000E+00    0.0000000000E+00
    0.0000000000E+00    0.0000000000E+00    0.0000000000E+00    0.0000000000E+00
    0.0000000000E+00    0.0000000000E+00    0.0000000000E+00    0.0000000000E+00
    0.0000000000E+00    0.0000000000E+00    0.0000000000E+00    0.0000000000E+00
    0.0000000000E+00    0.0000000000E+00    0.0000000000E+00    0.0000000000E+00
    0.0000000000E+00    0.0000000000E+00    0.0000000000E+00    0.0000000000E+00
    0.0000000000E+00    0.0000000000E+00    0.0000000000E+00    0.0000000000E+00
    0.0000000000E+00    0.0000000000E+00    0.0000000000E+00    0.0000000000E+00
    0.0000000000E+00    0.0000000000E+00    0.0000000000E+00    0.0000000000E+00
    0.0000000000E+00    0.0000000000E+00    0.0000000000E+00    0.0000000000E+00
    0.0000000000E+00    0.0000000000E+00    0.0000000000E+00    0.0000000000E+00
    0.0000000000E+00    0.0000000000E+00    0.0000000000E+00    0.0000000000E+00
    0.0000000000E+00    0.0000000000E+00    0.0000000000E+00    0.0000000000E+00
    0.0000000000E+00    0.0000000000E+00    0.0000000000E+00    0.0000000000E+00
    0.0000000000E+00    0.0000000000E+00    0.0000000000E+00    0.0000000000E+00
    0.0000000000E+00    0.0000000000E+00    0.0000000000E+00    0.0000000000E+00
    0.0000000000E+00    0.0000000000E+00    0.0000000000E+00    0.0000000000E+00
    0.0000000000E+00    0.0000000000E+00    0.0000000000E+00    0.0000000000E+00
    0.0000000000E+00    0.0000000000E+00    0.0000000000E+00    0.0000000000E+00
    0.0000000000E+00    0.0000000000E+00    0.0000000000E+00    0.0000000000E+00
    0.0000000000E+00    0.0000000000E+00    0.0000000000E+00    0.0000000000E+00
    0.0000000000E+00    0.0000000000E+00    0.0000000000E+00    0.0000000000E+00
    0.0000000000E+00    0.0000000000E+00    0.0000000000E+00    0.0000000000E+00
    0.0000000000E+00    0.0000000000E+00    0.0000000000E+00    0.0000000000E+00
    0.0000000000E+00    0.0000000000E+00    0.0000000000E+00    0.0000000000E+00
    0.0000000000E+00    0.0000000000E+00    0.0000000000E+00    0.0000000000E+00
    0.0000000000E+00    0.0000000000E+00    0.0000000000E+00    0.0000000000E+00
    0.0000000000E+00    0.0000000000E+00    0.0000000000E+00    0.0000000000E+00
    0.0000000000E+00    0.0000000000E+00    0.0000000000E+00    0.0000000000E+00
    0.0000000000E+00    0.0000000000E+00    0.0000000000E+00    0.0000000000E+00
    0.0000000000E+00    0.0000000000E+00    0.0000000000E+00    0.0000000000E+00
    0.0000000000E+00    0.0000000000E+00    0.0000000000E+00    0.0000000000E+00
    0.0000000000E+00    0.0000000000E+00    0.0000000000E+00    0.0000000000E+00
    0.0000000000E+00    0.0000000000E+00    0.0000000000E+00    0.0000000000E+00
    0.0000000000E+00    0.0000000000E+00    0.0000000000E+00    0.0000000000E+00
    0.0000000000E+00    0.0000000000E+00    0.0000000000E+00    0.0000000000E+00
    0.0000000000E+00    0.0000000000E+00    0.0000000000E+00    0.0000000000E+00
    0.0000000000E+00    0.0000000000E+00    0.0000000000E+00    0.0000000000E+00
    0.0000000000E+00    0.0000000000E+00    0.0000000000E+00    0.0000000000E+00
    0.0000000000E+00    0.0000000000E+00    0.0000000000E+00    0.0000000000E+00
    0.0000000000E+00    0.0000000000E+00    0.0000000000E+00    0.0000000000E+00
    0.0000000000E+00    0.0000000000E+00    0.0000000000E+00    0.0000000000E+00
    0.0000000000E+00    0.0000000000E+00    0.0000000000E+00    0.0000000000E+00
    0.0000000000E+00    0.0000000000E+00    0.0000000000E+00    0.0000000000E+00
    0.0000000000E+00    0.0000000000E+00    0.0000000000E+00    0.0000000000E+00
    0.0000000000E+00    0.0000000000E+00    0.0000000000E+00    0.0000000000E+00
    0.0000000000E+00    0.0000000000E+00    0.0000000000E+00    0.0000000000E+00
    0.0000000000E+00    0.0000000000E+00    0.0000000000E+00    0.0000000000E+00
    0.0000000000E+00    0.0000000000E+00    0.0000000000E+00    0.0000000000E+00
    0.0000000000E+00    0.0000000000E+00    0.0000000000E+00    0.0000000000E+00
    0.0000000000E+00    0.0000000000E+00    0.0000000000E+00    0.0000000000E+00
    0.0000000000E+00    0.0000000000E+00    0.0000000000E+00    0.0000000000E+00
    0.0000000000E+00    0.0000000000E+00    0.0000000000E+00    0.0000000000E+00
    0.0000000000E+00    0.0000000000E+00    0.0000000000E+00    0.0000000000E+00
    0.0000000000E+00    0.0000000000E+00    0.0000000000E+00    0.0000000000E+00
    0.0000000000E+00    0.0000000000E+00    0.0000000000E+00    0.0000000000E+00
    0.0000000000E+00    0.0000000000E+00    0.0000000000E+00    0.0000000000E+00
    0.0000000000E+00    0.0000000000E+00    0.0000000000E+00    0.0000000000E+00
    0.0000000000E+00    0.0000000000E+00    0.0000000000E+00    0.0000000000E+00
    0.0000000000E+00    0.0000000000E+00    0.0000000000E+00    0.0000000000E+00
    0.0000000000E+00    0.0000000000E+00    0.0000000000E+00    0.0000000000E+00
    0.0000000000E+00    0.0000000000E+00    0.0000000000E+00    0.0000000000E+00
    0.0000000000E+00    0.0000000000E+00    0.0000000000E+00    0.0000000000E+00
    0.0000000000E+00    0.0000000000E+00    0.0000000000E+00    0.0000000000E+00
    0.0000000000E+00    0.0000000000E+00    0.0000000000E+00    0.0000000000E+00
    0.0000000000E+00    0.0000000000E+00    0.0000000000E+00    0.0000000000E+00
    0.0000000000E+00    0.0000000000E+00    0.0000000000E+00    0.0000000000E+00
    0.0000000000E+00    0.0000000000E+00    0.0000000000E+00    0.0000000000E+00
    0.0000000000E+00    0.0000000000E+00    0.0000000000E+00    0.0000000000E+00
    0.0000000000E+00    0.0000000000E+00    0.0000000000E+00    0.0000000000E+00
    0.0000000000E+00    0.0000000000E+00    0.0000000000E+00    0.0000000000E+00
    0.0000000000E+00    0.0000000000E+00    0.0000000000E+00    0.0000000000E+00
    0.0000000000E+00    0.0000000000E+00    0.0000000000E+00    0.0000000000E+00
    0.0000000000E+00    0.0000000000E+00    0.0000000000E+00    0.0000000000E+00
    0.0000000000E+00    0.0000000000E+00    0.0000000000E+00    0.0000000000E+00
    0.0000000000E+00    0.0000000000E+00    0.0000000000E+00    0.0000000000E+00
    0.0000000000E+00    0.0000000000E+00    0.0000000000E+00    0.0000000000E+00
    0.0000000000E+00    0.0000000000E+00    0.0000000000E+00    0.0000000000E+00
    0.0000000000E+00    0.0000000000E+00    0.0000000000E+00    0.0000000000E+00
    0.0000000000E+00    0.0000000000E+00    0.0000000000E+00    0.0000000000E+00
    0.0000000000E+00    0.0000000000E+00    0.0000000000E+00    0.0000000000E+00
    0.0000000000E+00    0.0000000000E+00    0.0000000000E+00    0.0000000000E+00
    0.0000000000E+00    0.0000000000E+00    0.0000000000E+00    0.0000000000E+00
    0.0000000000E+00    0.0000000000E+00    0.0000000000E+00    0.0000000000E+00
    0.0000000000E+00    0.0000000000E+00    0.0000000000E+00    0.0000000000E+00
    0.0000000000E+00    0.0000000000E+00    0.0000000000E+00    0.0000000000E+00
    0.0000000000E+00    0.0000000000E+00    0.0000000000E+00    0.0000000000E+00
    0.0000000000E+00    0.0000000000E+00    0.0000000000E+00    0.0000000000E+00
    0.0000000000E+00    0.0000000000E+00    0.0000000000E+00    0.0000000000E+00
    0.0000000000E+00    0.0000000000E+00    0.0000000000E+00    0.0000000000E+00
    0.0000000000E+00    0.0000000000E+00
 </PP_NLCC>
 <PP_RHOATOM type="real"  size="1534" columns="4">
    0.0000000000E+00    7.0105004970E-04    2.8142060735E-03    6.3694218141E-03
    1.1416407460E-02    1.8024311341E-02    2.6281275859E-02    3.6293869199E-02
    4.8186394868E-02    6.2100081547E-02    7.8192156260E-02    9.6634804353E-02
    1.1761402030E-01    1.4132835393E-01    1.6798755707E-01    1.9781113647E-01
    2.3102681906E-01    2.6786893648E-01    3.0857673631E-01    3.5339262786E-01
    4.0256037130E-01    4.5632321910E-01    5.1492201948E-01    5.7859329217E-01
    6.4756728698E-01    7.2206603639E-01    8.0230141366E-01    8.8847320819E-01
    9.8076723027E-01    1.0793534575E+00    1.1843842351E+00    1.2959925428E+00
    1.4142903402E+00    1.5393670034E+00    1.6712878638E+00    1.8100928617E+00
    1.9557953249E+00    2.1083808833E+00    2.2678065290E+00    2.4339998303E+00
    2.6068583099E+00    2.7862489911E+00    2.9720081212E+00    3.1639410751E+00
    3.3618224437E+00    3.5653963090E+00    3.7743767079E+00    3.9884482834E+00
    4.2072671221E+00    4.4304617758E+00    4.6576344604E+00    4.8883624300E+00
    5.1221995148E+00    5.3586778179E+00    5.5973095594E+00    5.8375890568E+00
    6.0789948307E+00    6.3209918221E+00    6.5630337067E+00    6.8045652928E+00
    7.0450249859E+00    7.2838473048E+00    7.5204654326E+00    7.7543137853E+00
    7.9848305817E+00    8.2114603975E+00    8.4336566865E+00    8.6508842534E+00
    8.8626216600E+00    9.0683635528E+00    9.2676228933E+00    9.4599330797E+00
    9.6448499463E+00    9.8219536281E+00    9.9908502797E+00    1.0151173640E+01
    1.0302586431E+01    1.0444781591E+01    1.0577483326E+01    1.0700447980E+01
    1.0813464731E+01    1.0916356087E+01    1.1008978212E+01    1.1091221056E+01
    1.1163008311E+01    1.1224297187E+01    1.1275078014E+01    1.1315373682E+01
    1.1345238920E+01    1.1364759423E+01    1.1374050843E+01    1.1373257640E+01
    1.1362551827E+01    1.1342131590E+01    1.1312219818E+01    1.1273062555E+01
    1.1224927363E+01    1.1168101639E+01    1.1102890874E+01    1.1029616886E+01
    1.0948616018E+01    1.0860237333E+01    1.0764840807E+01    1.0662795532E+01
    1.0554477939E+01    1.0440270054E+01    1.0320557800E+01    1.0195729336E+01
    1.0066173464E+01    9.9322780995E+00    9.7944288050E+00    9.6530074078E+00
    9.5083906942E+00    9.3609491903E+00    9.2110460295E+00    9.0590359106E+00
    8.9052641478E+00    8.7500658124E+00    8.5937649678E+00    8.4366739962E+00
    8.2790930161E+00    8.1213093891E+00    7.9635973137E+00    7.8062175033E+00
    7.6494169448E+00    7.4934287355E+00    7.3384719933E+00    7.1847518368E+00
    7.0324594309E+00    6.8817720930E+00    6.7328534562E+00    6.5858536839E+00
    6.4409097317E+00    6.2981456518E+00    6.1576729356E+00    6.0195908892E+00
    5.8839870385E+00    5.7509375588E+00    5.6205077252E+00    5.4927523797E+00
    5.3677164118E+00    5.2454352480E+00    5.1259353485E+00    5.0092347065E+00
    4.8953433482E+00    4.7842638310E+00    4.6759917369E+00    4.5705161596E+00
    4.4678201829E+00    4.3678813495E+00    4.2706721177E+00    4.1761603059E+00
    4.0843095229E+00    3.9950795831E+00    3.9084269073E+00    3.8243049066E+00
    3.7426643502E+00    3.6634537165E+00    3.5866195279E+00    3.5121066678E+00
    3.4398586817E+00    3.3698180613E+00    3.3019265118E+00    3.2361252037E+00
    3.1723550074E+00    3.1105567137E+00    3.0506712397E+00    2.9926398462E+00
    2.9364043887E+00    2.8819075092E+00    2.8290927607E+00    2.7779047302E+00
    2.7282891463E+00    2.6801929751E+00    2.6335645049E+00    2.5883534203E+00
    2.5445108651E+00    2.5019894954E+00    2.4607435229E+00    2.4207287493E+00
    2.3819025912E+00    2.3442240967E+00    2.3076539543E+00    2.2721544938E+00
    2.2376896795E+00    2.2042250974E+00    2.1717279358E+00    2.1401669596E+00
    2.1095124798E+00    2.0797363160E+00    2.0508117561E+00    2.0227135104E+00
    1.9954176039E+00    1.9689010739E+00    1.9431414739E+00    1.9181168120E+00
    1.8938055892E+00    1.8701867795E+00    1.8472398288E+00    1.8249446514E+00
    1.8032816251E+00    1.7822315869E+00    1.7617758274E+00    1.7418960856E+00
    1.7225745432E+00    1.7037938184E+00    1.6855369600E+00    1.6677874404E+00
    1.6505291499E+00    1.6337463894E+00    1.6174238636E+00    1.6015466747E+00
    1.5861003148E+00    1.5710706591E+00    1.5564439591E+00    1.5422068355E+00
    1.5283462708E+00    1.5148496028E+00    1.5017045171E+00    1.4888990406E+00
    1.4764215339E+00    1.4642606853E+00    1.4524055031E+00    1.4408453093E+00
    1.4295697327E+00    1.4185687025E+00    1.4078324413E+00    1.3973514591E+00
    1.3871165462E+00    1.3771187676E+00    1.3673494564E+00    1.3578002074E+00
    1.3484628714E+00    1.3393295489E+00    1.3303925844E+00    1.3216445606E+00
    1.3130782921E+00    1.3046868206E+00    1.2964634087E+00    1.2884015346E+00
    1.2804948868E+00    1.2727373588E+00    1.2651230437E+00    1.2576462293E+00
    1.2503013929E+00    1.2430831964E+00    1.2359864817E+00    1.2290062656E+00
    1.2221377351E+00    1.2153762433E+00    1.2087173042E+00    1.2021565889E+00
    1.1956899211E+00    1.1893132727E+00    1.1830227598E+00    1.1768146385E+00
    1.1706853013E+00    1.1646312727E+00    1.1586492058E+00    1.1527358785E+00
    1.1468881895E+00    1.1411031555E+00    1.1353779069E+00    1.1297096849E+00
    1.1240958382E+00    1.1185338194E+00    1.1130211824E+00    1.1075555787E+00
    1.1021347550E+00    1.0967565496E+00    1.0914188904E+00    1.0861197913E+00
    1.0808573498E+00    1.0756297447E+00    1.0704352329E+00    1.0652721474E+00
    1.0601388945E+00    1.0550339516E+00    1.0499558650E+00    1.0449032475E+00
    1.0398747760E+00    1.0348691898E+00    1.0298852884E+00    1.0249219291E+00
    1.0199780256E+00    1.0150525457E+00    1.0101445096E+00    1.0052529882E+00
    1.0003771010E+00    9.9551601486E-01    9.9066894195E-01    9.8583513840E-01
    9.8101390262E-01    9.7620457384E-01    9.7140653060E-01    9.6661918936E-01
    9.6184200309E-01    9.5707445993E-01    9.5231608191E-01    9.4756642363E-01
    9.4282507111E-01    9.3809164052E-01    9.3336577708E-01    9.2864715391E-01
    9.2393547095E-01    9.1923045392E-01    9.1453185327E-01    9.0983944322E-01
    9.0515302078E-01    9.0047240482E-01    8.9579743517E-01    8.9112797177E-01
    8.8646389379E-01    8.8180509881E-01    8.7715150205E-01    8.7250303560E-01
    8.6785964764E-01    8.6322130175E-01    8.5858797622E-01    8.5395966333E-01
    8.4933636874E-01    8.4471811084E-01    8.4010492014E-01    8.3549683866E-01
    8.3089391937E-01    8.2629622566E-01    8.2170383076E-01    8.1711681723E-01
    8.1253527651E-01    8.0795930834E-01    8.0338902039E-01    7.9882452774E-01
    7.9426595248E-01    7.8971342326E-01    7.8516707490E-01    7.8062704799E-01
    7.7609348851E-01    7.7156654747E-01    7.6704638055E-01    7.6253314773E-01
    7.5802701301E-01    7.5352814408E-01    7.4903671197E-01    7.4455289081E-01
    7.4007685751E-01    7.3560879149E-01    7.3114887443E-01    7.2669729001E-01
    7.2225422365E-01    7.1781986229E-01    7.1339439416E-01    7.0897800855E-01
    7.0457089562E-01    7.0017324617E-01    6.9578525149E-01    6.9140710311E-01
    6.8703899268E-01    6.8268111177E-01    6.7833365172E-01    6.7399680345E-01
    6.6967075735E-01    6.6535570311E-01    6.6105182959E-01    6.5675932467E-01
    6.5247837515E-01    6.4820916662E-01    6.4395188332E-01    6.3970670807E-01
    6.3547382214E-01    6.3125340514E-01    6.2704563495E-01    6.2285068760E-01
    6.1866873724E-01    6.1449995596E-01    6.1034451382E-01    6.0620257871E-01
    6.0207431629E-01    5.9795988993E-01    5.9385946067E-01    5.8977318712E-01
    5.8570122543E-01    5.8164372926E-01    5.7760084967E-01    5.7357273515E-01
    5.6955953150E-01    5.6556138188E-01    5.6157842668E-01    5.5761080358E-01
    5.5365864743E-01    5.4972209031E-01    5.4580126142E-01    5.4189628714E-01
    5.3800729093E-01    5.3413439339E-01    5.3027771219E-01    5.2643736206E-01
    5.2261345482E-01    5.1880609932E-01    5.1501540148E-01    5.1124146425E-01
    5.0748438760E-01    5.0374426858E-01    5.0002120124E-01    4.9631527669E-01
    4.9262658306E-01    4.8895520557E-01    4.8530122645E-01    4.8166472501E-01
    4.7804577765E-01    4.7444445783E-01    4.7086083610E-01    4.6729498014E-01
    4.6374695474E-01    4.6021682184E-01    4.5670464050E-01    4.5321046700E-01
    4.4973435478E-01    4.4627635450E-01    4.4283651405E-01    4.3941487858E-01
    4.3601149050E-01    4.3262638952E-01    4.2925961269E-01    4.2591119440E-01
    4.2258116639E-01    4.1926955783E-01    4.1597639530E-01    4.1270170282E-01
    4.0944550191E-01    4.0620781159E-01    4.0298864840E-01    3.9978802648E-01
    3.9660595753E-01    3.9344245090E-01    3.9029751357E-01    3.8717115025E-01
    3.8406336331E-01    3.8097415292E-01    3.7790351699E-01    3.7485145128E-01
    3.7181794936E-01    3.6880300269E-01    3.6580660065E-01    3.6282873054E-01
    3.5986937766E-01    3.5692852529E-01    3.5400615478E-01    3.5110224552E-01
    3.4821677502E-01    3.4534971895E-01    3.4250105112E-01    3.3967074357E-01
    3.3685876656E-01    3.3406508863E-01    3.3128967663E-01    3.2853249574E-01
    3.2579350951E-01    3.2307267990E-01    3.2036996730E-01    3.1768533057E-01
    3.1501872706E-01    3.1237011268E-01    3.0973944188E-01    3.0712666772E-01
    3.0453174187E-01    3.0195461468E-01    2.9939523518E-01    2.9685355114E-01
    2.9432950906E-01    2.9182305424E-01    2.8933413077E-01    2.8686268163E-01
    2.8440864862E-01    2.8197197248E-01    2.7955259288E-01    2.7715044843E-01
    2.7476547677E-01    2.7239761451E-01    2.7004679735E-01    2.6771296004E-01
    2.6539603645E-01    2.6309595957E-01    2.6081266155E-01    2.5854607373E-01
    2.5629612664E-01    2.5406275007E-01    2.5184587307E-01    2.4964542396E-01
    2.4746133039E-01    2.4529351934E-01    2.4314191715E-01    2.4100644955E-01
    2.3888704168E-01    2.3678361810E-01    2.3469610285E-01    2.3262441942E-01
    2.3056849083E-01    2.2852823960E-01    2.2650358780E-01    2.2449445707E-01
    2.2250076864E-01    2.2052244333E-01    2.1855940160E-01    2.1661156357E-01
    2.1467884901E-01    2.1276117737E-01    2.1085846782E-01    2.0897063925E-01
    2.0709761029E-01    2.0523929934E-01    2.0339562456E-01    2.0156650392E-01
    1.9975185519E-01    1.9795159598E-01    1.9616564375E-01    1.9439391579E-01
    1.9263632930E-01    1.9089280136E-01    1.8916324895E-01    1.8744758899E-01
    1.8574573831E-01    1.8405761372E-01    1.8238313196E-01    1.8072220979E-01
    1.7907476392E-01    1.7744071109E-01    1.7581996804E-01    1.7421245156E-01
    1.7261807846E-01    1.7103676561E-01    1.6946842995E-01    1.6791298849E-01
    1.6637035833E-01    1.6484045667E-01    1.6332320079E-01    1.6181850814E-01
    1.6032629626E-01    1.5884648283E-01    1.5737898569E-01    1.5592372284E-01
    1.5448061242E-01    1.5304957277E-01    1.5163052240E-01    1.5022338001E-01
    1.4882806452E-01    1.4744449503E-01    1.4607259086E-01    1.4471227156E-01
    1.4336345691E-01    1.4202606691E-01    1.4070002183E-01    1.3938524216E-01
    1.3808164866E-01    1.3678916235E-01    1.3550770452E-01    1.3423719673E-01
    1.3297756082E-01    1.3172871891E-01    1.3049059343E-01    1.2926310706E-01
    1.2804618283E-01    1.2683974404E-01    1.2564371432E-01    1.2445801760E-01
    1.2328257812E-01    1.2211732046E-01    1.2096216951E-01    1.1981705050E-01
    1.1868188899E-01    1.1755661086E-01    1.1644114236E-01    1.1533541005E-01
    1.1423934085E-01    1.1315286203E-01    1.1207590120E-01    1.1100838634E-01
    1.0995024577E-01    1.0890140818E-01    1.0786180262E-01    1.0683135848E-01
    1.0581000554E-01    1.0479767393E-01    1.0379429417E-01    1.0279979713E-01
    1.0181411406E-01    1.0083717657E-01    9.9868916651E-02    9.8909266683E-02
    9.7958159405E-02    9.7015527941E-02    9.6081305790E-02    9.5155426833E-02
    9.4237825330E-02    9.3328435921E-02    9.2427193629E-02    9.1534033857E-02
    9.0648892392E-02    8.9771705403E-02    8.8902409441E-02    8.8040941442E-02
    8.7187238725E-02    8.6341238991E-02    8.5502880326E-02    8.4672101198E-02
    8.3848840460E-02    8.3033037347E-02    8.2224631476E-02    8.1423562848E-02
    8.0629771847E-02    7.9843199236E-02    7.9063786161E-02    7.8291474149E-02
    7.7526205106E-02    7.6767921319E-02    7.6016565453E-02    7.5272080552E-02
    7.4534410035E-02    7.3803497701E-02    7.3079287722E-02    7.2361724647E-02
    7.1650753397E-02    7.0946319267E-02    7.0248367925E-02    6.9556845407E-02
    6.8871698121E-02    6.8192872843E-02    6.7520316717E-02    6.6853977254E-02
    6.6193802328E-02    6.5539740178E-02    6.4891739406E-02    6.4249748976E-02
    6.3613718211E-02    6.2983596792E-02    6.2359334759E-02    6.1740882508E-02
    6.1128190786E-02    6.0521210699E-02    5.9919893699E-02    5.9324191591E-02
    5.8734056530E-02    5.8149441014E-02    5.7570297890E-02    5.6996580348E-02
    5.6428241920E-02    5.5865236480E-02    5.5307518241E-02    5.4755041752E-02
    5.4207761901E-02    5.3665633909E-02    5.3128613329E-02    5.2596656046E-02
    5.2069718276E-02    5.1547756560E-02    5.1030727767E-02    5.0518589090E-02
    5.0011298045E-02    4.9508812469E-02    4.9011090518E-02    4.8518090665E-02
    4.8029771702E-02    4.7546092730E-02    4.7067013168E-02    4.6592492743E-02
    4.6122491489E-02    4.5656969752E-02    4.5195888179E-02    4.4739207724E-02
    4.4286889640E-02    4.3838895483E-02    4.3395187105E-02    4.2955726658E-02
    4.2520476586E-02    4.2089399626E-02    4.1662458809E-02    4.1239617454E-02
    4.0820839168E-02    4.0406087845E-02    3.9995327661E-02    3.9588523079E-02
    3.9185638838E-02    3.8786639960E-02    3.8391491742E-02    3.8000159759E-02
    3.7612609857E-02    3.7228808157E-02    3.6848721048E-02    3.6472315190E-02
    3.6099557509E-02    3.5730415195E-02    3.5364855704E-02    3.5002846752E-02
    3.4644356315E-02    3.4289352630E-02    3.3937804187E-02    3.3589679734E-02
    3.3244948271E-02    3.2903579049E-02    3.2565541571E-02    3.2230805587E-02
    3.1899341093E-02    3.1571118331E-02    3.1246107786E-02    3.0924280184E-02
    3.0605606493E-02    3.0290057916E-02    2.9977605897E-02    2.9668222110E-02
    2.9361878468E-02    2.9058547111E-02    2.8758200412E-02    2.8460810972E-02
    2.8166351619E-02    2.7874795407E-02    2.7586115612E-02    2.7300285735E-02
    2.7017279496E-02    2.6737070835E-02    2.6459633909E-02    2.6184943091E-02
    2.5912972969E-02    2.5643698345E-02    2.5377094230E-02    2.5113135847E-02
    2.4851798627E-02    2.4593058207E-02    2.4336890432E-02    2.4083271349E-02
    2.3832177207E-02    2.3583584458E-02    2.3337469752E-02    2.3093809937E-02
    2.2852582060E-02    2.2613763361E-02    2.2377331275E-02    2.2143263427E-02
    2.1911537637E-02    2.1682131911E-02    2.1455024446E-02    2.1230193623E-02
    2.1007618011E-02    2.0787276362E-02    2.0569147609E-02    2.0353210868E-02
    2.0139445437E-02    1.9927830787E-02    1.9718346572E-02    1.9510972619E-02
    1.9305688929E-02    1.9102475678E-02    1.8901313214E-02    1.8702182054E-02
    1.8505062885E-02    1.8309936564E-02    1.8116784113E-02    1.7925586718E-02
    1.7736325734E-02    1.7548982673E-02    1.7363539214E-02    1.7179977194E-02
    1.6998278610E-02    1.6818425616E-02    1.6640400524E-02    1.6464185802E-02
    1.6289764071E-02    1.6117118107E-02    1.5946230837E-02    1.5777085338E-02
    1.5609664839E-02    1.5443952716E-02    1.5279932493E-02    1.5117587839E-02
    1.4956902571E-02    1.4797860646E-02    1.4640446166E-02    1.4484643376E-02
    1.4330436660E-02    1.4177810541E-02    1.4026749681E-02    1.3877238880E-02
    1.3729263074E-02    1.3582807333E-02    1.3437856861E-02    1.3294396998E-02
    1.3152413212E-02    1.3011891104E-02    1.2872816405E-02    1.2735174974E-02
    1.2598952797E-02    1.2464135990E-02    1.2330710791E-02    1.2198663564E-02
    1.2067980798E-02    1.1938649102E-02    1.1810655211E-02    1.1683985976E-02
    1.1558628370E-02    1.1434569486E-02    1.1311796532E-02    1.1190296836E-02
    1.1070057839E-02    1.0951067099E-02    1.0833312286E-02    1.0716781186E-02
    1.0601461695E-02    1.0487341821E-02    1.0374409681E-02    1.0262653504E-02
    1.0152061626E-02    1.0042622490E-02    9.9343246465E-03    9.8271567525E-03
    9.7211075692E-03    9.6161659618E-03    9.5123208992E-03    9.4095614525E-03
    9.3078767943E-03    9.2072561980E-03    9.1076890367E-03    9.0091647827E-03
    8.9116730064E-03    8.8152033755E-03    8.7197456543E-03    8.6252897029E-03
    8.5318254763E-03    8.4393430235E-03    8.3478324871E-03    8.2572841020E-03
    8.1676881949E-03    8.0790351837E-03    7.9913155762E-03    7.9045199698E-03
    7.8186390507E-03    7.7336635928E-03    7.6495844574E-03    7.5663925920E-03
    7.4840790300E-03    7.4026348897E-03    7.3220513736E-03    7.2423197677E-03
    7.1634314409E-03    7.0853778440E-03    7.0081505093E-03    6.9317410498E-03
    6.8561411584E-03    6.7813426072E-03    6.7073372470E-03    6.6341170066E-03
    6.5616738918E-03    6.4899999852E-03    6.4190874451E-03    6.3489285052E-03
    6.2795154736E-03    6.2108407324E-03    6.1428967371E-03    6.0756760157E-03
    6.0091711682E-03    5.9433748659E-03    5.8782798511E-03    5.8138789358E-03
    5.7501650020E-03    5.6871310001E-03    5.6247699492E-03    5.5630749356E-03
    5.5020391130E-03    5.4416557016E-03    5.3819179873E-03    5.3228193214E-03
    5.2643531198E-03    5.2065128626E-03    5.1492920936E-03    5.0926844194E-03
    5.0366835091E-03    4.9812830937E-03    4.9264769655E-03    4.8722589776E-03
    4.8186230431E-03    4.7655631352E-03    4.7130732859E-03    4.6611475859E-03
    4.6097801839E-03    4.5589652863E-03    4.5086971565E-03    4.4589701143E-03
    4.4097785356E-03    4.3611168517E-03    4.3129795490E-03    4.2653611683E-03
    4.2182563044E-03    4.1716596057E-03    4.1255657734E-03    4.0799695613E-03
    4.0348657754E-03    3.9902492730E-03    3.9461149627E-03    3.9024578036E-03
    3.8592728050E-03    3.8165550259E-03    3.7742995744E-03    3.7325016076E-03
    3.6911563308E-03    3.6502589970E-03    3.6098049071E-03    3.5697894085E-03
    3.5302078956E-03    3.4910558084E-03    3.4523286332E-03    3.4140219010E-03
    3.3761311881E-03    3.3386521150E-03    3.3015803463E-03    3.2649115900E-03
    3.2286415977E-03    3.1927661634E-03    3.1572811236E-03    3.1221823570E-03
    3.0874657835E-03    3.0531273646E-03    3.0191631024E-03    2.9855690395E-03
    2.9523412584E-03    2.9194758815E-03    2.8869690703E-03    2.8548170254E-03
    2.8230159858E-03    2.7915622288E-03    2.7604520694E-03    2.7296818602E-03
    2.6992479908E-03    2.6691468876E-03    2.6393750135E-03    2.6099288672E-03
    2.5808049834E-03    2.5519999320E-03    2.5235103179E-03    2.4953327809E-03
    2.4674639950E-03    2.4399006682E-03    2.4126395424E-03    2.3856773926E-03
    2.3590110271E-03    2.3326372868E-03    2.3065530452E-03    2.2807552077E-03
    2.2552407116E-03    2.2300065258E-03    2.2050496501E-03    2.1803671155E-03
    2.1559559834E-03    2.1318133456E-03    2.1079363237E-03    2.0843220694E-03
    2.0609677633E-03    2.0378706156E-03    2.0150278650E-03    1.9924367790E-03
    1.9700946532E-03    1.9479988114E-03    1.9261466048E-03    1.9045354126E-03
    1.8831626406E-03    1.8620257219E-03    1.8411221162E-03    1.8204493096E-03
    1.8000048142E-03    1.7797861681E-03    1.7597909351E-03    1.7400167042E-03
    1.7204610896E-03    1.7011217304E-03    1.6819962904E-03    1.6630824576E-03
    1.6443779442E-03    1.6258804865E-03    1.6075878442E-03    1.5894978006E-03
    1.5716081621E-03    1.5539167582E-03    1.5364214409E-03    1.5191200851E-03
    1.5020105875E-03    1.4850908674E-03    1.4683588655E-03    1.4518125443E-03
    1.4354498878E-03    1.4192689011E-03    1.4032676102E-03    1.3874440622E-03
    1.3717963243E-03    1.3563224844E-03    1.3410206506E-03    1.3258889506E-03
    1.3109255322E-03    1.2961285626E-03    1.2814962283E-03    1.2670267352E-03
    1.2527183079E-03    1.2385691899E-03    1.2245776433E-03    1.2107419486E-03
    1.1970604044E-03    1.1835313276E-03    1.1701530526E-03    1.1569239317E-03
    1.1438423346E-03    1.1309066483E-03    1.1181152770E-03    1.1054666419E-03
    1.0929591807E-03    1.0805913481E-03    1.0683616150E-03    1.0562684687E-03
    1.0443104124E-03    1.0324859656E-03    1.0207936633E-03    1.0092320562E-03
    9.9779971051E-04    9.8649520769E-04    9.7531714437E-04    9.6426413218E-04
    9.5333479758E-04    9.4252778173E-04    9.3184174031E-04    9.2127534339E-04
    9.1082727530E-04    9.0049623442E-04    8.9028093312E-04    8.8018009756E-04
    8.7019246754E-04    8.6031679642E-04    8.5055185090E-04    8.4089641096E-04
    8.3134926965E-04    8.2190923302E-04    8.1257511995E-04    8.0334576201E-04
    7.9422000335E-04    7.8519670056E-04    7.7627472255E-04    7.6745295041E-04
    7.5873027728E-04    7.5010560824E-04    7.4157786017E-04    7.3314596166E-04
    7.2480885285E-04    7.1656548530E-04    7.0841482193E-04    7.0035583686E-04
    6.9238751528E-04    6.8450885337E-04    6.7671885818E-04    6.6901654747E-04
    6.6140094967E-04    6.5387110370E-04    6.4642605893E-04    6.3906487501E-04
    6.3178662178E-04    6.2459037917E-04    6.1747523711E-04    6.1044029540E-04
    6.0348466359E-04    5.9660746094E-04    5.8980781625E-04    5.8308486781E-04
    5.7643776325E-04    5.6986565951E-04    5.6336772267E-04    5.5694312790E-04
    5.5059105935E-04    5.4431071006E-04    5.3810128185E-04    5.3196198526E-04
    5.2589203940E-04    5.1989067194E-04    5.1395711895E-04    5.0809062485E-04
    5.0229044229E-04    4.9655583210E-04    4.9088606317E-04    4.8528041240E-04
    4.7973816458E-04    4.7425861233E-04    4.6884105598E-04    4.6348480356E-04
    4.5818917063E-04    4.5295348028E-04    4.4777706299E-04    4.4265925659E-04
    4.3759940615E-04    4.3259686394E-04    4.2765098931E-04    4.2276114867E-04
    4.1792671534E-04    4.1314706955E-04    4.0842159832E-04    4.0374969543E-04
    3.9913076127E-04    3.9456420285E-04    3.9004943371E-04    3.8558587381E-04
    3.8117294951E-04    3.7681009348E-04    3.7249674462E-04    3.6823234801E-04
    3.6401635485E-04    3.5984822239E-04    3.5572741384E-04    3.5165339834E-04
    3.4762565088E-04    3.4364365224E-04    3.3970688892E-04    3.3581485310E-04
    3.3196704255E-04    3.2816296060E-04    3.2440211604E-04    3.2068402311E-04
    3.1700820141E-04    3.1337417585E-04    3.0978147657E-04    3.0622963895E-04
    3.0271820347E-04    2.9924671572E-04    2.9581472629E-04    2.9242179077E-04
    2.8906746966E-04    2.8575132833E-04    2.8247293696E-04    2.7923187051E-04
    2.7602770863E-04    2.7286003563E-04    2.6972844045E-04    2.6663251658E-04
    2.6357186201E-04    2.6054607920E-04    2.5755477503E-04    2.5459756073E-04
    2.5167405185E-04    2.4878386823E-04    2.4592663390E-04    2.4310197711E-04
    2.4030953022E-04    2.3754892966E-04    2.3481981594E-04    2.3212183355E-04
    2.2945463093E-04    2.2681786044E-04    2.2421117833E-04    2.2163424464E-04
    2.1908672322E-04    2.1656828167E-04    2.1407859128E-04    2.1161732700E-04
    2.0918416742E-04    2.0677879471E-04    2.0440089457E-04    2.0205015623E-04
    1.9972627236E-04    1.9742893909E-04    1.9515785591E-04    1.9291272570E-04
    1.9069325463E-04    1.8849915217E-04    1.8633013103E-04    1.8418590712E-04
    1.8206619955E-04    1.7997073054E-04    1.7789922544E-04    1.7585141266E-04
    1.7382702367E-04    1.7182579291E-04    1.6984745781E-04    1.6789175875E-04
    1.6595843900E-04    1.6404724471E-04    1.6215792487E-04    1.6029023130E-04
    1.5844391858E-04    1.5661874405E-04    1.5481446777E-04    1.5303085248E-04
    1.5126766361E-04    1.4952466919E-04    1.4780163986E-04    1.4609834885E-04
    1.4441457191E-04    1.4275008733E-04    1.4110467588E-04    1.3947812079E-04
    1.3787020773E-04    1.3628072476E-04    1.3470946236E-04    1.3315621333E-04
    1.3162077282E-04    1.3010293825E-04    1.2860250937E-04    1.2711928813E-04
    1.2565307875E-04    1.2420368763E-04    1.2277092335E-04    1.2135459665E-04
    1.1995452040E-04    1.1857050958E-04    1.1720238124E-04    1.1584995451E-04
    1.1451305055E-04    1.1319149251E-04    1.1188510559E-04    1.1059371690E-04
    1.0931715553E-04    1.0805525251E-04    1.0680784074E-04    1.0557475503E-04
    1.0435583205E-04    1.0315091030E-04    1.0195983012E-04    1.0078243364E-04
    9.9618564775E-05    9.8468069212E-05    9.7330794367E-05    9.6206589386E-05
    9.5095305119E-05    9.3996794098E-05    9.2910910525E-05    9.1837510247E-05
    9.0776450744E-05    8.9727591105E-05    8.8690792012E-05    8.7665915723E-05
    8.6652826054E-05    8.5651388363E-05    8.4661469529E-05    8.3682937940E-05
    8.2715663472E-05    8.1759517475E-05    8.0814372754E-05    7.9880103556E-05
    7.8956585551E-05    7.8043695817E-05    7.7141312826E-05    7.6249316426E-05
    7.5367587828E-05    7.4496009587E-05    7.3634465590E-05    7.2782841042E-05
    7.1941022446E-05    7.1108897597E-05    7.0286355558E-05    6.9473286655E-05
    6.8669582454E-05    6.7875135755E-05    6.7089840570E-05    6.6313592119E-05
    6.5546286808E-05    6.4787822221E-05    6.4038097104E-05    6.3297011353E-05
    6.2564466002E-05    6.1840363208E-05    6.1124606239E-05    6.0417099464E-05
    5.9717748338E-05    5.9026459390E-05    5.8343140213E-05    5.7667699448E-05
    5.7000046778E-05    5.6340092910E-05    5.5687749569E-05    5.5042929482E-05
    5.4405546371E-05    5.3775514939E-05    5.3152750858E-05    5.2537170762E-05
    5.1928692233E-05    5.1327233790E-05    5.0732714881E-05    5.0145055872E-05
    4.9564178034E-05    4.8990003536E-05    4.8422455432E-05    4.7861457656E-05
    4.7306935004E-05    4.6758813133E-05    4.6217018544E-05    4.5681478579E-05
    4.5152121405E-05    4.4628876011E-05    4.4111672194E-05    4.3600440550E-05
    4.3095112471E-05    4.2595620126E-05    4.2101896462E-05    4.1613875189E-05
    4.1131490776E-05    4.0654678435E-05    4.0183374122E-05    3.9717514521E-05
    3.9257037041E-05    3.8801879803E-05    3.8351981637E-05    3.7907282071E-05
    3.7467721323E-05    3.7033240294E-05    3.6603780559E-05    3.6179284363E-05
    3.5759694609E-05    3.5344954852E-05    3.4935009294E-05    3.4529802773E-05
    3.4129280759E-05    3.3733389344E-05    3.3342075237E-05    3.2955285756E-05
    3.2572968822E-05    3.2195072951E-05    3.1821547248E-05    3.1452341401E-05
    3.1087405673E-05    3.0726690896E-05    3.0370148463E-05    3.0017730327E-05
    2.9669388987E-05    2.9325077489E-05    2.8984749414E-05    2.8648358875E-05
    2.8315860511E-05    2.7987209481E-05    2.7662361456E-05    2.7341272615E-05
    2.7023899640E-05    2.6710199708E-05    2.6400130488E-05    2.6093650131E-05
    2.5790717272E-05    2.5491291016E-05    2.5195330940E-05    2.4902797081E-05
    2.4613649937E-05    2.4327850456E-05    2.4045360036E-05    2.3766140518E-05
    2.3490154179E-05    2.3217363729E-05    2.2947732306E-05    2.2681223470E-05
    2.2417801199E-05    2.2157429887E-05    2.1900074333E-05    2.1645699742E-05
    2.1394271718E-05    2.1145756258E-05    2.0900119752E-05    2.0657328974E-05
    2.0417351079E-05    2.0180153601E-05    1.9945704446E-05    1.9713971887E-05
    1.9484924563E-05    1.9258531474E-05    1.9034761974E-05    1.8813585769E-05
    1.8594972914E-05    1.8378893808E-05    1.8165319191E-05    1.7954220137E-05
    1.7745568054E-05    1.7539334677E-05    1.7335492069E-05    1.7134012611E-05
    1.6934869001E-05    1.6738034255E-05    1.6543481695E-05    1.6351184952E-05
    1.6161117960E-05    1.5973254952E-05    1.5787570457E-05    1.5604039298E-05
    1.5422636588E-05    1.5243337725E-05    1.5066118390E-05    1.4890954544E-05
    1.4717822427E-05    1.4546698548E-05    1.4377559690E-05    1.4210382902E-05
    1.4045145496E-05    1.3881825046E-05    1.3720399385E-05    1.3560846601E-05
    1.3403145033E-05    1.3247273269E-05    1.3093210147E-05    1.2940934745E-05
    1.2790426384E-05    1.2641664621E-05    1.2494629252E-05    1.2349300302E-05
    1.2205658028E-05    1.2063682915E-05    1.1923355671E-05    1.1784657229E-05
    1.1647568738E-05    1.1512071568E-05    1.1378147300E-05    1.1245777731E-05
    1.1114944865E-05    1.0985630915E-05    1.0857818299E-05    1.0731489636E-05
    1.0606627747E-05    1.0483215651E-05    1.0361236563E-05    1.0240673889E-05
    1.0121511230E-05    1.0003732374E-05    9.8873212975E-06    9.7722621594E-06
    9.6585393034E-06    9.5461372531E-06    9.4350407105E-06    9.3252345543E-06
    9.2167038378E-06    9.1094337866E-06    9.0034097969E-06    8.8986174332E-06
    8.7950424269E-06    8.6926706739E-06    8.5914882328E-06    8.4914813232E-06
    8.3926363240E-06    8.2949397711E-06    8.1983783560E-06    8.1029389238E-06
    8.0086084715E-06    7.9153741461E-06    7.8232232434E-06    7.7321432053E-06
    7.6421216193E-06    7.5531462160E-06    7.4652048680E-06    7.3782855877E-06
    7.2923765261E-06    7.2074659710E-06    7.1235423456E-06    7.0405942068E-06
    6.9586102437E-06    6.8775792761E-06    6.7974902533E-06    6.7183322519E-06
    6.6400944749E-06    6.5627662502E-06    6.4863370290E-06    6.4107963842E-06
    6.3361340095E-06    6.2623397175E-06    6.1894034390E-06    6.1173152209E-06
    6.0460652252E-06    5.9756437278E-06    5.9060411170E-06    5.8372478921E-06
    5.7692546623E-06    5.7020521457E-06    5.6356311674E-06    5.5699826587E-06
    5.5050976558E-06    5.4409672988E-06    5.3775828299E-06    5.3149355931E-06
    5.2530170320E-06    5.1918186898E-06    5.1313322066E-06    5.0715493202E-06
    5.0124618641E-06    4.9540617660E-06    4.8963410469E-06    4.8392918205E-06
    4.7829062913E-06    4.7271767545E-06    4.6720955940E-06    4.6176552825E-06
    4.5638483790E-06    4.5106675290E-06    4.4581054631E-06    4.4061549960E-06
    4.3548090255E-06    4.3040605320E-06    4.2539025766E-06    4.2043283013E-06
    4.1553309279E-06    4.1069037554E-06    4.0590401608E-06    4.0117335983E-06
    3.9649775977E-06    3.9187657638E-06    3.8730917755E-06    3.8279493853E-06
    3.7833324176E-06    3.7392347669E-06    3.6956504028E-06    3.6525733629E-06
    3.6099977538E-06    3.5679177506E-06    3.5263275957E-06    3.4852215987E-06
    3.4445941346E-06    3.4044396442E-06    3.3647526335E-06    3.3255276695E-06
    3.2867593835E-06    3.2484424689E-06    3.2105716808E-06    3.1731418346E-06
    3.1361478061E-06    3.0995845303E-06    3.0634470008E-06    3.0277302695E-06
    2.9924294451E-06    2.9575396931E-06    2.9230562350E-06    2.8889743477E-06
    2.8552893629E-06    2.8219966663E-06    2.7890916971E-06    2.7565699473E-06
    2.7244269605E-06    2.6926583337E-06    2.6612597138E-06    2.6302267987E-06
    2.5995553358E-06    2.5692411220E-06    2.5392800030E-06    2.5096678726E-06
    2.4804006724E-06    2.4514743909E-06
 </PP_RHOATOM>
 <PP_SPIN_ORB>
   <PP_RELBETA.1  index="1"  lll="0" jjj="0.5"/>
   <PP_RELBETA.2  index="2"  lll="0" jjj="0.5"/>
   <PP_RELBETA.3  index="3"  lll="1" jjj="0.5"/>
   <PP_RELBETA.4  index="4"  lll="1" jjj="1.5"/>
   <PP_RELBETA.5  index="5"  lll="1" jjj="0.5"/>
   <PP_RELBETA.6  index="6"  lll="1" jjj="1.5"/>
   <PP_RELBETA.7  index="7"  lll="2" jjj="1.5"/>
   <PP_RELBETA.8  index="8"  lll="2" jjj="2.5"/>
   <PP_RELBETA.9  index="9"  lll="2" jjj="1.5"/>
   <PP_RELBETA.10 index="10" lll="2" jjj="2.5"/>
   <PP_RELWFC.1  index="1"  lchi="0" jchi="0.5" nn="1"/>
   <PP_RELWFC.2  index="2"  lchi="1" jchi="1.5" nn="2"/>
   <PP_RELWFC.3  index="3"  lchi="1" jchi="0.5" nn="2"/>
   <PP_RELWFC.4  index="4"  lchi="2" jchi="2.5" nn="3"/>
   <PP_RELWFC.5  index="5"  lchi="2" jchi="1.5" nn="3"/>
   <PP_RELWFC.6  index="6"  lchi="0" jchi="0.5" nn="4"/>
 </PP_SPIN_ORB>
</UPF>

