<UPF version="2.0.1">
  <PP_INFO>

 This pseudopotential file has been produced using the code
 ONCVPSP  (Optimized Norm-Conservinng Vanderbilt PSeudopotential)
 fully-relativistic version 4.0.1 06/20/2107 by D. R. Hamann
 The code is available through a link at URL www.mat-simresearch.com.
 Documentation with the package provides a full discription of the
 input data below.


 While it is not required under the terms of the GNU GPL, it is
 suggested that you cite D. R. Hamann, Phys. Rev. B 88, 085117 (2013)
 in any publication using these pseudopotentials.

    <PP_INPUTFILE>
# ATOM AND REFERENCE CONFIGURATION
# atsym  z   nc   nv     iexc    psfile
  W 74.00   10    4       4      upf
#
#   n    l    f        energy (Ha)
    1    0    2.00
    2    0    2.00
    2    1    6.00
    3    0    2.00
    3    1    6.00
    3    2   10.00
    4    0    2.00
    4    1    6.00
    4    2   10.00
    4    3   14.00
    5    0    2.00
    5    1    6.00
    5    2    4.00
    6    0    2.00
#
# PSEUDOPOTENTIAL AND OPTIMIZATION
# lmax
    3
#
#   l,   rc,     ep,   ncon, nbas, qcut
    0   2.33950  -2.90589    4    7   6.16651
    1   2.49079  -1.58765    4    8   6.10561
    2   2.50531  -0.16465    4    8   5.61095
    3   2.54229   0.15000    4    9   7.43466
#
# LOCAL POTENTIAL
# lloc, lpopt,  rc(5),   dvloc0
    4    5   2.33950      0.00000
#
# VANDERBILT-KLEINMAN-BYLANDER PROJECTORs
# l, nproj, debl
    0    2   2.69594
    1    2   1.53763
    2    2   1.00000
    3    2   2.80000
#
# MODEL CORE CHARGE
# icmod, fcfact, rcfact
    3   5.00000   1.36000
#
# LOG DERIVATIVE ANALYSIS
# epsh1, epsh2, depsh
  -12.00   12.00    0.02
#
# OUTPUT GRID
# rlmax, drl
    6.00    0.01
#
# TEST CONFIGURATIONS
# ncnf
    0
# nvcnf
#   n    l    f
    </PP_INPUTFILE>
  </PP_INFO>
  <!--                               -->
  <!-- END OF HUMAN READABLE SECTION -->
  <!--                               -->
    <PP_HEADER
       generated="Generated using ONCVPSP code by D. R. Hamann"
       author="anonymous"
       date="260612"
       comment=""
       element="W "
       pseudo_type="NC"
       relativistic="full"
       is_ultrasoft="F"
       is_paw="F"
       is_coulomb="F"
       has_so="T"
       has_wfc="F"
       has_gipaw="F"
       core_correction="T"
       functional="PBE"
       z_valence="   14.00"
       total_psenergy="  -1.38667770601E+02"
       rho_cutoff="   1.40700000000E+01"
       l_max="3"
       l_local="-1"
       mesh_size="  1408"
       number_of_wfc="6"
       number_of_proj="14"/>
 <PP_MESH>
   <PP_R type="real"  size="1408" columns="8">
    0.0000    0.0100    0.0200    0.0300    0.0400    0.0500    0.0600    0.0700
    0.0800    0.0900    0.1000    0.1100    0.1200    0.1300    0.1400    0.1500
    0.1600    0.1700    0.1800    0.1900    0.2000    0.2100    0.2200    0.2300
    0.2400    0.2500    0.2600    0.2700    0.2800    0.2900    0.3000    0.3100
    0.3200    0.3300    0.3400    0.3500    0.3600    0.3700    0.3800    0.3900
    0.4000    0.4100    0.4200    0.4300    0.4400    0.4500    0.4600    0.4700
    0.4800    0.4900    0.5000    0.5100    0.5200    0.5300    0.5400    0.5500
    0.5600    0.5700    0.5800    0.5900    0.6000    0.6100    0.6200    0.6300
    0.6400    0.6500    0.6600    0.6700    0.6800    0.6900    0.7000    0.7100
    0.7200    0.7300    0.7400    0.7500    0.7600    0.7700    0.7800    0.7900
    0.8000    0.8100    0.8200    0.8300    0.8400    0.8500    0.8600    0.8700
    0.8800    0.8900    0.9000    0.9100    0.9200    0.9300    0.9400    0.9500
    0.9600    0.9700    0.9800    0.9900    1.0000    1.0100    1.0200    1.0300
    1.0400    1.0500    1.0600    1.0700    1.0800    1.0900    1.1000    1.1100
    1.1200    1.1300    1.1400    1.1500    1.1600    1.1700    1.1800    1.1900
    1.2000    1.2100    1.2200    1.2300    1.2400    1.2500    1.2600    1.2700
    1.2800    1.2900    1.3000    1.3100    1.3200    1.3300    1.3400    1.3500
    1.3600    1.3700    1.3800    1.3900    1.4000    1.4100    1.4200    1.4300
    1.4400    1.4500    1.4600    1.4700    1.4800    1.4900    1.5000    1.5100
    1.5200    1.5300    1.5400    1.5500    1.5600    1.5700    1.5800    1.5900
    1.6000    1.6100    1.6200    1.6300    1.6400    1.6500    1.6600    1.6700
    1.6800    1.6900    1.7000    1.7100    1.7200    1.7300    1.7400    1.7500
    1.7600    1.7700    1.7800    1.7900    1.8000    1.8100    1.8200    1.8300
    1.8400    1.8500    1.8600    1.8700    1.8800    1.8900    1.9000    1.9100
    1.9200    1.9300    1.9400    1.9500    1.9600    1.9700    1.9800    1.9900
    2.0000    2.0100    2.0200    2.0300    2.0400    2.0500    2.0600    2.0700
    2.0800    2.0900    2.1000    2.1100    2.1200    2.1300    2.1400    2.1500
    2.1600    2.1700    2.1800    2.1900    2.2000    2.2100    2.2200    2.2300
    2.2400    2.2500    2.2600    2.2700    2.2800    2.2900    2.3000    2.3100
    2.3200    2.3300    2.3400    2.3500    2.3600    2.3700    2.3800    2.3900
    2.4000    2.4100    2.4200    2.4300    2.4400    2.4500    2.4600    2.4700
    2.4800    2.4900    2.5000    2.5100    2.5200    2.5300    2.5400    2.5500
    2.5600    2.5700    2.5800    2.5900    2.6000    2.6100    2.6200    2.6300
    2.6400    2.6500    2.6600    2.6700    2.6800    2.6900    2.7000    2.7100
    2.7200    2.7300    2.7400    2.7500    2.7600    2.7700    2.7800    2.7900
    2.8000    2.8100    2.8200    2.8300    2.8400    2.8500    2.8600    2.8700
    2.8800    2.8900    2.9000    2.9100    2.9200    2.9300    2.9400    2.9500
    2.9600    2.9700    2.9800    2.9900    3.0000    3.0100    3.0200    3.0300
    3.0400    3.0500    3.0600    3.0700    3.0800    3.0900    3.1000    3.1100
    3.1200    3.1300    3.1400    3.1500    3.1600    3.1700    3.1800    3.1900
    3.2000    3.2100    3.2200    3.2300    3.2400    3.2500    3.2600    3.2700
    3.2800    3.2900    3.3000    3.3100    3.3200    3.3300    3.3400    3.3500
    3.3600    3.3700    3.3800    3.3900    3.4000    3.4100    3.4200    3.4300
    3.4400    3.4500    3.4600    3.4700    3.4800    3.4900    3.5000    3.5100
    3.5200    3.5300    3.5400    3.5500    3.5600    3.5700    3.5800    3.5900
    3.6000    3.6100    3.6200    3.6300    3.6400    3.6500    3.6600    3.6700
    3.6800    3.6900    3.7000    3.7100    3.7200    3.7300    3.7400    3.7500
    3.7600    3.7700    3.7800    3.7900    3.8000    3.8100    3.8200    3.8300
    3.8400    3.8500    3.8600    3.8700    3.8800    3.8900    3.9000    3.9100
    3.9200    3.9300    3.9400    3.9500    3.9600    3.9700    3.9800    3.9900
    4.0000    4.0100    4.0200    4.0300    4.0400    4.0500    4.0600    4.0700
    4.0800    4.0900    4.1000    4.1100    4.1200    4.1300    4.1400    4.1500
    4.1600    4.1700    4.1800    4.1900    4.2000    4.2100    4.2200    4.2300
    4.2400    4.2500    4.2600    4.2700    4.2800    4.2900    4.3000    4.3100
    4.3200    4.3300    4.3400    4.3500    4.3600    4.3700    4.3800    4.3900
    4.4000    4.4100    4.4200    4.4300    4.4400    4.4500    4.4600    4.4700
    4.4800    4.4900    4.5000    4.5100    4.5200    4.5300    4.5400    4.5500
    4.5600    4.5700    4.5800    4.5900    4.6000    4.6100    4.6200    4.6300
    4.6400    4.6500    4.6600    4.6700    4.6800    4.6900    4.7000    4.7100
    4.7200    4.7300    4.7400    4.7500    4.7600    4.7700    4.7800    4.7900
    4.8000    4.8100    4.8200    4.8300    4.8400    4.8500    4.8600    4.8700
    4.8800    4.8900    4.9000    4.9100    4.9200    4.9300    4.9400    4.9500
    4.9600    4.9700    4.9800    4.9900    5.0000    5.0100    5.0200    5.0300
    5.0400    5.0500    5.0600    5.0700    5.0800    5.0900    5.1000    5.1100
    5.1200    5.1300    5.1400    5.1500    5.1600    5.1700    5.1800    5.1900
    5.2000    5.2100    5.2200    5.2300    5.2400    5.2500    5.2600    5.2700
    5.2800    5.2900    5.3000    5.3100    5.3200    5.3300    5.3400    5.3500
    5.3600    5.3700    5.3800    5.3900    5.4000    5.4100    5.4200    5.4300
    5.4400    5.4500    5.4600    5.4700    5.4800    5.4900    5.5000    5.5100
    5.5200    5.5300    5.5400    5.5500    5.5600    5.5700    5.5800    5.5900
    5.6000    5.6100    5.6200    5.6300    5.6400    5.6500    5.6600    5.6700
    5.6800    5.6900    5.7000    5.7100    5.7200    5.7300    5.7400    5.7500
    5.7600    5.7700    5.7800    5.7900    5.8000    5.8100    5.8200    5.8300
    5.8400    5.8500    5.8600    5.8700    5.8800    5.8900    5.9000    5.9100
    5.9200    5.9300    5.9400    5.9500    5.9600    5.9700    5.9800    5.9900
    6.0000    6.0100    6.0200    6.0300    6.0400    6.0500    6.0600    6.0700
    6.0800    6.0900    6.1000    6.1100    6.1200    6.1300    6.1400    6.1500
    6.1600    6.1700    6.1800    6.1900    6.2000    6.2100    6.2200    6.2300
    6.2400    6.2500    6.2600    6.2700    6.2800    6.2900    6.3000    6.3100
    6.3200    6.3300    6.3400    6.3500    6.3600    6.3700    6.3800    6.3900
    6.4000    6.4100    6.4200    6.4300    6.4400    6.4500    6.4600    6.4700
    6.4800    6.4900    6.5000    6.5100    6.5200    6.5300    6.5400    6.5500
    6.5600    6.5700    6.5800    6.5900    6.6000    6.6100    6.6200    6.6300
    6.6400    6.6500    6.6600    6.6700    6.6800    6.6900    6.7000    6.7100
    6.7200    6.7300    6.7400    6.7500    6.7600    6.7700    6.7800    6.7900
    6.8000    6.8100    6.8200    6.8300    6.8400    6.8500    6.8600    6.8700
    6.8800    6.8900    6.9000    6.9100    6.9200    6.9300    6.9400    6.9500
    6.9600    6.9700    6.9800    6.9900    7.0000    7.0100    7.0200    7.0300
    7.0400    7.0500    7.0600    7.0700    7.0800    7.0900    7.1000    7.1100
    7.1200    7.1300    7.1400    7.1500    7.1600    7.1700    7.1800    7.1900
    7.2000    7.2100    7.2200    7.2300    7.2400    7.2500    7.2600    7.2700
    7.2800    7.2900    7.3000    7.3100    7.3200    7.3300    7.3400    7.3500
    7.3600    7.3700    7.3800    7.3900    7.4000    7.4100    7.4200    7.4300
    7.4400    7.4500    7.4600    7.4700    7.4800    7.4900    7.5000    7.5100
    7.5200    7.5300    7.5400    7.5500    7.5600    7.5700    7.5800    7.5900
    7.6000    7.6100    7.6200    7.6300    7.6400    7.6500    7.6600    7.6700
    7.6800    7.6900    7.7000    7.7100    7.7200    7.7300    7.7400    7.7500
    7.7600    7.7700    7.7800    7.7900    7.8000    7.8100    7.8200    7.8300
    7.8400    7.8500    7.8600    7.8700    7.8800    7.8900    7.9000    7.9100
    7.9200    7.9300    7.9400    7.9500    7.9600    7.9700    7.9800    7.9900
    8.0000    8.0100    8.0200    8.0300    8.0400    8.0500    8.0600    8.0700
    8.0800    8.0900    8.1000    8.1100    8.1200    8.1300    8.1400    8.1500
    8.1600    8.1700    8.1800    8.1900    8.2000    8.2100    8.2200    8.2300
    8.2400    8.2500    8.2600    8.2700    8.2800    8.2900    8.3000    8.3100
    8.3200    8.3300    8.3400    8.3500    8.3600    8.3700    8.3800    8.3900
    8.4000    8.4100    8.4200    8.4300    8.4400    8.4500    8.4600    8.4700
    8.4800    8.4900    8.5000    8.5100    8.5200    8.5300    8.5400    8.5500
    8.5600    8.5700    8.5800    8.5900    8.6000    8.6100    8.6200    8.6300
    8.6400    8.6500    8.6600    8.6700    8.6800    8.6900    8.7000    8.7100
    8.7200    8.7300    8.7400    8.7500    8.7600    8.7700    8.7800    8.7900
    8.8000    8.8100    8.8200    8.8300    8.8400    8.8500    8.8600    8.8700
    8.8800    8.8900    8.9000    8.9100    8.9200    8.9300    8.9400    8.9500
    8.9600    8.9700    8.9800    8.9900    9.0000    9.0100    9.0200    9.0300
    9.0400    9.0500    9.0600    9.0700    9.0800    9.0900    9.1000    9.1100
    9.1200    9.1300    9.1400    9.1500    9.1600    9.1700    9.1800    9.1900
    9.2000    9.2100    9.2200    9.2300    9.2400    9.2500    9.2600    9.2700
    9.2800    9.2900    9.3000    9.3100    9.3200    9.3300    9.3400    9.3500
    9.3600    9.3700    9.3800    9.3900    9.4000    9.4100    9.4200    9.4300
    9.4400    9.4500    9.4600    9.4700    9.4800    9.4900    9.5000    9.5100
    9.5200    9.5300    9.5400    9.5500    9.5600    9.5700    9.5800    9.5900
    9.6000    9.6100    9.6200    9.6300    9.6400    9.6500    9.6600    9.6700
    9.6800    9.6900    9.7000    9.7100    9.7200    9.7300    9.7400    9.7500
    9.7600    9.7700    9.7800    9.7900    9.8000    9.8100    9.8200    9.8300
    9.8400    9.8500    9.8600    9.8700    9.8800    9.8900    9.9000    9.9100
    9.9200    9.9300    9.9400    9.9500    9.9600    9.9700    9.9800    9.9900
   10.0000   10.0100   10.0200   10.0300   10.0400   10.0500   10.0600   10.0700
   10.0800   10.0900   10.1000   10.1100   10.1200   10.1300   10.1400   10.1500
   10.1600   10.1700   10.1800   10.1900   10.2000   10.2100   10.2200   10.2300
   10.2400   10.2500   10.2600   10.2700   10.2800   10.2900   10.3000   10.3100
   10.3200   10.3300   10.3400   10.3500   10.3600   10.3700   10.3800   10.3900
   10.4000   10.4100   10.4200   10.4300   10.4400   10.4500   10.4600   10.4700
   10.4800   10.4900   10.5000   10.5100   10.5200   10.5300   10.5400   10.5500
   10.5600   10.5700   10.5800   10.5900   10.6000   10.6100   10.6200   10.6300
   10.6400   10.6500   10.6600   10.6700   10.6800   10.6900   10.7000   10.7100
   10.7200   10.7300   10.7400   10.7500   10.7600   10.7700   10.7800   10.7900
   10.8000   10.8100   10.8200   10.8300   10.8400   10.8500   10.8600   10.8700
   10.8800   10.8900   10.9000   10.9100   10.9200   10.9300   10.9400   10.9500
   10.9600   10.9700   10.9800   10.9900   11.0000   11.0100   11.0200   11.0300
   11.0400   11.0500   11.0600   11.0700   11.0800   11.0900   11.1000   11.1100
   11.1200   11.1300   11.1400   11.1500   11.1600   11.1700   11.1800   11.1900
   11.2000   11.2100   11.2200   11.2300   11.2400   11.2500   11.2600   11.2700
   11.2800   11.2900   11.3000   11.3100   11.3200   11.3300   11.3400   11.3500
   11.3600   11.3700   11.3800   11.3900   11.4000   11.4100   11.4200   11.4300
   11.4400   11.4500   11.4600   11.4700   11.4800   11.4900   11.5000   11.5100
   11.5200   11.5300   11.5400   11.5500   11.5600   11.5700   11.5800   11.5900
   11.6000   11.6100   11.6200   11.6300   11.6400   11.6500   11.6600   11.6700
   11.6800   11.6900   11.7000   11.7100   11.7200   11.7300   11.7400   11.7500
   11.7600   11.7700   11.7800   11.7900   11.8000   11.8100   11.8200   11.8300
   11.8400   11.8500   11.8600   11.8700   11.8800   11.8900   11.9000   11.9100
   11.9200   11.9300   11.9400   11.9500   11.9600   11.9700   11.9800   11.9900
   12.0000   12.0100   12.0200   12.0300   12.0400   12.0500   12.0600   12.0700
   12.0800   12.0900   12.1000   12.1100   12.1200   12.1300   12.1400   12.1500
   12.1600   12.1700   12.1800   12.1900   12.2000   12.2100   12.2200   12.2300
   12.2400   12.2500   12.2600   12.2700   12.2800   12.2900   12.3000   12.3100
   12.3200   12.3300   12.3400   12.3500   12.3600   12.3700   12.3800   12.3900
   12.4000   12.4100   12.4200   12.4300   12.4400   12.4500   12.4600   12.4700
   12.4800   12.4900   12.5000   12.5100   12.5200   12.5300   12.5400   12.5500
   12.5600   12.5700   12.5800   12.5900   12.6000   12.6100   12.6200   12.6300
   12.6400   12.6500   12.6600   12.6700   12.6800   12.6900   12.7000   12.7100
   12.7200   12.7300   12.7400   12.7500   12.7600   12.7700   12.7800   12.7900
   12.8000   12.8100   12.8200   12.8300   12.8400   12.8500   12.8600   12.8700
   12.8800   12.8900   12.9000   12.9100   12.9200   12.9300   12.9400   12.9500
   12.9600   12.9700   12.9800   12.9900   13.0000   13.0100   13.0200   13.0300
   13.0400   13.0500   13.0600   13.0700   13.0800   13.0900   13.1000   13.1100
   13.1200   13.1300   13.1400   13.1500   13.1600   13.1700   13.1800   13.1900
   13.2000   13.2100   13.2200   13.2300   13.2400   13.2500   13.2600   13.2700
   13.2800   13.2900   13.3000   13.3100   13.3200   13.3300   13.3400   13.3500
   13.3600   13.3700   13.3800   13.3900   13.4000   13.4100   13.4200   13.4300
   13.4400   13.4500   13.4600   13.4700   13.4800   13.4900   13.5000   13.5100
   13.5200   13.5300   13.5400   13.5500   13.5600   13.5700   13.5800   13.5900
   13.6000   13.6100   13.6200   13.6300   13.6400   13.6500   13.6600   13.6700
   13.6800   13.6900   13.7000   13.7100   13.7200   13.7300   13.7400   13.7500
   13.7600   13.7700   13.7800   13.7900   13.8000   13.8100   13.8200   13.8300
   13.8400   13.8500   13.8600   13.8700   13.8800   13.8900   13.9000   13.9100
   13.9200   13.9300   13.9400   13.9500   13.9600   13.9700   13.9800   13.9900
   14.0000   14.0100   14.0200   14.0300   14.0400   14.0500   14.0600   14.0700
   </PP_R>
   <PP_RAB type="real"  size="1408" columns="8">
    0.0100    0.0100    0.0100    0.0100    0.0100    0.0100    0.0100    0.0100
    0.0100    0.0100    0.0100    0.0100    0.0100    0.0100    0.0100    0.0100
    0.0100    0.0100    0.0100    0.0100    0.0100    0.0100    0.0100    0.0100
    0.0100    0.0100    0.0100    0.0100    0.0100    0.0100    0.0100    0.0100
    0.0100    0.0100    0.0100    0.0100    0.0100    0.0100    0.0100    0.0100
    0.0100    0.0100    0.0100    0.0100    0.0100    0.0100    0.0100    0.0100
    0.0100    0.0100    0.0100    0.0100    0.0100    0.0100    0.0100    0.0100
    0.0100    0.0100    0.0100    0.0100    0.0100    0.0100    0.0100    0.0100
    0.0100    0.0100    0.0100    0.0100    0.0100    0.0100    0.0100    0.0100
    0.0100    0.0100    0.0100    0.0100    0.0100    0.0100    0.0100    0.0100
    0.0100    0.0100    0.0100    0.0100    0.0100    0.0100    0.0100    0.0100
    0.0100    0.0100    0.0100    0.0100    0.0100    0.0100    0.0100    0.0100
    0.0100    0.0100    0.0100    0.0100    0.0100    0.0100    0.0100    0.0100
    0.0100    0.0100    0.0100    0.0100    0.0100    0.0100    0.0100    0.0100
    0.0100    0.0100    0.0100    0.0100    0.0100    0.0100    0.0100    0.0100
    0.0100    0.0100    0.0100    0.0100    0.0100    0.0100    0.0100    0.0100
    0.0100    0.0100    0.0100    0.0100    0.0100    0.0100    0.0100    0.0100
    0.0100    0.0100    0.0100    0.0100    0.0100    0.0100    0.0100    0.0100
    0.0100    0.0100    0.0100    0.0100    0.0100    0.0100    0.0100    0.0100
    0.0100    0.0100    0.0100    0.0100    0.0100    0.0100    0.0100    0.0100
    0.0100    0.0100    0.0100    0.0100    0.0100    0.0100    0.0100    0.0100
    0.0100    0.0100    0.0100    0.0100    0.0100    0.0100    0.0100    0.0100
    0.0100    0.0100    0.0100    0.0100    0.0100    0.0100    0.0100    0.0100
    0.0100    0.0100    0.0100    0.0100    0.0100    0.0100    0.0100    0.0100
    0.0100    0.0100    0.0100    0.0100    0.0100    0.0100    0.0100    0.0100
    0.0100    0.0100    0.0100    0.0100    0.0100    0.0100    0.0100    0.0100
    0.0100    0.0100    0.0100    0.0100    0.0100    0.0100    0.0100    0.0100
    0.0100    0.0100    0.0100    0.0100    0.0100    0.0100    0.0100    0.0100
    0.0100    0.0100    0.0100    0.0100    0.0100    0.0100    0.0100    0.0100
    0.0100    0.0100    0.0100    0.0100    0.0100    0.0100    0.0100    0.0100
    0.0100    0.0100    0.0100    0.0100    0.0100    0.0100    0.0100    0.0100
    0.0100    0.0100    0.0100    0.0100    0.0100    0.0100    0.0100    0.0100
    0.0100    0.0100    0.0100    0.0100    0.0100    0.0100    0.0100    0.0100
    0.0100    0.0100    0.0100    0.0100    0.0100    0.0100    0.0100    0.0100
    0.0100    0.0100    0.0100    0.0100    0.0100    0.0100    0.0100    0.0100
    0.0100    0.0100    0.0100    0.0100    0.0100    0.0100    0.0100    0.0100
    0.0100    0.0100    0.0100    0.0100    0.0100    0.0100    0.0100    0.0100
    0.0100    0.0100    0.0100    0.0100    0.0100    0.0100    0.0100    0.0100
    0.0100    0.0100    0.0100    0.0100    0.0100    0.0100    0.0100    0.0100
    0.0100    0.0100    0.0100    0.0100    0.0100    0.0100    0.0100    0.0100
    0.0100    0.0100    0.0100    0.0100    0.0100    0.0100    0.0100    0.0100
    0.0100    0.0100    0.0100    0.0100    0.0100    0.0100    0.0100    0.0100
    0.0100    0.0100    0.0100    0.0100    0.0100    0.0100    0.0100    0.0100
    0.0100    0.0100    0.0100    0.0100    0.0100    0.0100    0.0100    0.0100
    0.0100    0.0100    0.0100    0.0100    0.0100    0.0100    0.0100    0.0100
    0.0100    0.0100    0.0100    0.0100    0.0100    0.0100    0.0100    0.0100
    0.0100    0.0100    0.0100    0.0100    0.0100    0.0100    0.0100    0.0100
    0.0100    0.0100    0.0100    0.0100    0.0100    0.0100    0.0100    0.0100
    0.0100    0.0100    0.0100    0.0100    0.0100    0.0100    0.0100    0.0100
    0.0100    0.0100    0.0100    0.0100    0.0100    0.0100    0.0100    0.0100
    0.0100    0.0100    0.0100    0.0100    0.0100    0.0100    0.0100    0.0100
    0.0100    0.0100    0.0100    0.0100    0.0100    0.0100    0.0100    0.0100
    0.0100    0.0100    0.0100    0.0100    0.0100    0.0100    0.0100    0.0100
    0.0100    0.0100    0.0100    0.0100    0.0100    0.0100    0.0100    0.0100
    0.0100    0.0100    0.0100    0.0100    0.0100    0.0100    0.0100    0.0100
    0.0100    0.0100    0.0100    0.0100    0.0100    0.0100    0.0100    0.0100
    0.0100    0.0100    0.0100    0.0100    0.0100    0.0100    0.0100    0.0100
    0.0100    0.0100    0.0100    0.0100    0.0100    0.0100    0.0100    0.0100
    0.0100    0.0100    0.0100    0.0100    0.0100    0.0100    0.0100    0.0100
    0.0100    0.0100    0.0100    0.0100    0.0100    0.0100    0.0100    0.0100
    0.0100    0.0100    0.0100    0.0100    0.0100    0.0100    0.0100    0.0100
    0.0100    0.0100    0.0100    0.0100    0.0100    0.0100    0.0100    0.0100
    0.0100    0.0100    0.0100    0.0100    0.0100    0.0100    0.0100    0.0100
    0.0100    0.0100    0.0100    0.0100    0.0100    0.0100    0.0100    0.0100
    0.0100    0.0100    0.0100    0.0100    0.0100    0.0100    0.0100    0.0100
    0.0100    0.0100    0.0100    0.0100    0.0100    0.0100    0.0100    0.0100
    0.0100    0.0100    0.0100    0.0100    0.0100    0.0100    0.0100    0.0100
    0.0100    0.0100    0.0100    0.0100    0.0100    0.0100    0.0100    0.0100
    0.0100    0.0100    0.0100    0.0100    0.0100    0.0100    0.0100    0.0100
    0.0100    0.0100    0.0100    0.0100    0.0100    0.0100    0.0100    0.0100
    0.0100    0.0100    0.0100    0.0100    0.0100    0.0100    0.0100    0.0100
    0.0100    0.0100    0.0100    0.0100    0.0100    0.0100    0.0100    0.0100
    0.0100    0.0100    0.0100    0.0100    0.0100    0.0100    0.0100    0.0100
    0.0100    0.0100    0.0100    0.0100    0.0100    0.0100    0.0100    0.0100
    0.0100    0.0100    0.0100    0.0100    0.0100    0.0100    0.0100    0.0100
    0.0100    0.0100    0.0100    0.0100    0.0100    0.0100    0.0100    0.0100
    0.0100    0.0100    0.0100    0.0100    0.0100    0.0100    0.0100    0.0100
    0.0100    0.0100    0.0100    0.0100    0.0100    0.0100    0.0100    0.0100
    0.0100    0.0100    0.0100    0.0100    0.0100    0.0100    0.0100    0.0100
    0.0100    0.0100    0.0100    0.0100    0.0100    0.0100    0.0100    0.0100
    0.0100    0.0100    0.0100    0.0100    0.0100    0.0100    0.0100    0.0100
    0.0100    0.0100    0.0100    0.0100    0.0100    0.0100    0.0100    0.0100
    0.0100    0.0100    0.0100    0.0100    0.0100    0.0100    0.0100    0.0100
    0.0100    0.0100    0.0100    0.0100    0.0100    0.0100    0.0100    0.0100
    0.0100    0.0100    0.0100    0.0100    0.0100    0.0100    0.0100    0.0100
    0.0100    0.0100    0.0100    0.0100    0.0100    0.0100    0.0100    0.0100
    0.0100    0.0100    0.0100    0.0100    0.0100    0.0100    0.0100    0.0100
    0.0100    0.0100    0.0100    0.0100    0.0100    0.0100    0.0100    0.0100
    0.0100    0.0100    0.0100    0.0100    0.0100    0.0100    0.0100    0.0100
    0.0100    0.0100    0.0100    0.0100    0.0100    0.0100    0.0100    0.0100
    0.0100    0.0100    0.0100    0.0100    0.0100    0.0100    0.0100    0.0100
    0.0100    0.0100    0.0100    0.0100    0.0100    0.0100    0.0100    0.0100
    0.0100    0.0100    0.0100    0.0100    0.0100    0.0100    0.0100    0.0100
    0.0100    0.0100    0.0100    0.0100    0.0100    0.0100    0.0100    0.0100
    0.0100    0.0100    0.0100    0.0100    0.0100    0.0100    0.0100    0.0100
    0.0100    0.0100    0.0100    0.0100    0.0100    0.0100    0.0100    0.0100
    0.0100    0.0100    0.0100    0.0100    0.0100    0.0100    0.0100    0.0100
    0.0100    0.0100    0.0100    0.0100    0.0100    0.0100    0.0100    0.0100
    0.0100    0.0100    0.0100    0.0100    0.0100    0.0100    0.0100    0.0100
    0.0100    0.0100    0.0100    0.0100    0.0100    0.0100    0.0100    0.0100
    0.0100    0.0100    0.0100    0.0100    0.0100    0.0100    0.0100    0.0100
    0.0100    0.0100    0.0100    0.0100    0.0100    0.0100    0.0100    0.0100
    0.0100    0.0100    0.0100    0.0100    0.0100    0.0100    0.0100    0.0100
    0.0100    0.0100    0.0100    0.0100    0.0100    0.0100    0.0100    0.0100
    0.0100    0.0100    0.0100    0.0100    0.0100    0.0100    0.0100    0.0100
    0.0100    0.0100    0.0100    0.0100    0.0100    0.0100    0.0100    0.0100
    0.0100    0.0100    0.0100    0.0100    0.0100    0.0100    0.0100    0.0100
    0.0100    0.0100    0.0100    0.0100    0.0100    0.0100    0.0100    0.0100
    0.0100    0.0100    0.0100    0.0100    0.0100    0.0100    0.0100    0.0100
    0.0100    0.0100    0.0100    0.0100    0.0100    0.0100    0.0100    0.0100
    0.0100    0.0100    0.0100    0.0100    0.0100    0.0100    0.0100    0.0100
    0.0100    0.0100    0.0100    0.0100    0.0100    0.0100    0.0100    0.0100
    0.0100    0.0100    0.0100    0.0100    0.0100    0.0100    0.0100    0.0100
    0.0100    0.0100    0.0100    0.0100    0.0100    0.0100    0.0100    0.0100
    0.0100    0.0100    0.0100    0.0100    0.0100    0.0100    0.0100    0.0100
    0.0100    0.0100    0.0100    0.0100    0.0100    0.0100    0.0100    0.0100
    0.0100    0.0100    0.0100    0.0100    0.0100    0.0100    0.0100    0.0100
    0.0100    0.0100    0.0100    0.0100    0.0100    0.0100    0.0100    0.0100
    0.0100    0.0100    0.0100    0.0100    0.0100    0.0100    0.0100    0.0100
    0.0100    0.0100    0.0100    0.0100    0.0100    0.0100    0.0100    0.0100
    0.0100    0.0100    0.0100    0.0100    0.0100    0.0100    0.0100    0.0100
    0.0100    0.0100    0.0100    0.0100    0.0100    0.0100    0.0100    0.0100
    0.0100    0.0100    0.0100    0.0100    0.0100    0.0100    0.0100    0.0100
    0.0100    0.0100    0.0100    0.0100    0.0100    0.0100    0.0100    0.0100
    0.0100    0.0100    0.0100    0.0100    0.0100    0.0100    0.0100    0.0100
    0.0100    0.0100    0.0100    0.0100    0.0100    0.0100    0.0100    0.0100
    0.0100    0.0100    0.0100    0.0100    0.0100    0.0100    0.0100    0.0100
    0.0100    0.0100    0.0100    0.0100    0.0100    0.0100    0.0100    0.0100
    0.0100    0.0100    0.0100    0.0100    0.0100    0.0100    0.0100    0.0100
    0.0100    0.0100    0.0100    0.0100    0.0100    0.0100    0.0100    0.0100
    0.0100    0.0100    0.0100    0.0100    0.0100    0.0100    0.0100    0.0100
    0.0100    0.0100    0.0100    0.0100    0.0100    0.0100    0.0100    0.0100
    0.0100    0.0100    0.0100    0.0100    0.0100    0.0100    0.0100    0.0100
    0.0100    0.0100    0.0100    0.0100    0.0100    0.0100    0.0100    0.0100
    0.0100    0.0100    0.0100    0.0100    0.0100    0.0100    0.0100    0.0100
    0.0100    0.0100    0.0100    0.0100    0.0100    0.0100    0.0100    0.0100
    0.0100    0.0100    0.0100    0.0100    0.0100    0.0100    0.0100    0.0100
    0.0100    0.0100    0.0100    0.0100    0.0100    0.0100    0.0100    0.0100
    0.0100    0.0100    0.0100    0.0100    0.0100    0.0100    0.0100    0.0100
    0.0100    0.0100    0.0100    0.0100    0.0100    0.0100    0.0100    0.0100
    0.0100    0.0100    0.0100    0.0100    0.0100    0.0100    0.0100    0.0100
    0.0100    0.0100    0.0100    0.0100    0.0100    0.0100    0.0100    0.0100
    0.0100    0.0100    0.0100    0.0100    0.0100    0.0100    0.0100    0.0100
    0.0100    0.0100    0.0100    0.0100    0.0100    0.0100    0.0100    0.0100
    0.0100    0.0100    0.0100    0.0100    0.0100    0.0100    0.0100    0.0100
    0.0100    0.0100    0.0100    0.0100    0.0100    0.0100    0.0100    0.0100
    0.0100    0.0100    0.0100    0.0100    0.0100    0.0100    0.0100    0.0100
    0.0100    0.0100    0.0100    0.0100    0.0100    0.0100    0.0100    0.0100
    0.0100    0.0100    0.0100    0.0100    0.0100    0.0100    0.0100    0.0100
    0.0100    0.0100    0.0100    0.0100    0.0100    0.0100    0.0100    0.0100
    0.0100    0.0100    0.0100    0.0100    0.0100    0.0100    0.0100    0.0100
    0.0100    0.0100    0.0100    0.0100    0.0100    0.0100    0.0100    0.0100
    0.0100    0.0100    0.0100    0.0100    0.0100    0.0100    0.0100    0.0100
    0.0100    0.0100    0.0100    0.0100    0.0100    0.0100    0.0100    0.0100
    0.0100    0.0100    0.0100    0.0100    0.0100    0.0100    0.0100    0.0100
    0.0100    0.0100    0.0100    0.0100    0.0100    0.0100    0.0100    0.0100
    0.0100    0.0100    0.0100    0.0100    0.0100    0.0100    0.0100    0.0100
    0.0100    0.0100    0.0100    0.0100    0.0100    0.0100    0.0100    0.0100
    0.0100    0.0100    0.0100    0.0100    0.0100    0.0100    0.0100    0.0100
    0.0100    0.0100    0.0100    0.0100    0.0100    0.0100    0.0100    0.0100
    0.0100    0.0100    0.0100    0.0100    0.0100    0.0100    0.0100    0.0100
    0.0100    0.0100    0.0100    0.0100    0.0100    0.0100    0.0100    0.0100
    0.0100    0.0100    0.0100    0.0100    0.0100    0.0100    0.0100    0.0100
    0.0100    0.0100    0.0100    0.0100    0.0100    0.0100    0.0100    0.0100
    0.0100    0.0100    0.0100    0.0100    0.0100    0.0100    0.0100    0.0100
    0.0100    0.0100    0.0100    0.0100    0.0100    0.0100    0.0100    0.0100
    0.0100    0.0100    0.0100    0.0100    0.0100    0.0100    0.0100    0.0100
    0.0100    0.0100    0.0100    0.0100    0.0100    0.0100    0.0100    0.0100
    0.0100    0.0100    0.0100    0.0100    0.0100    0.0100    0.0100    0.0100
    0.0100    0.0100    0.0100    0.0100    0.0100    0.0100    0.0100    0.0100
    0.0100    0.0100    0.0100    0.0100    0.0100    0.0100    0.0100    0.0100
    0.0100    0.0100    0.0100    0.0100    0.0100    0.0100    0.0100    0.0100
    0.0100    0.0100    0.0100    0.0100    0.0100    0.0100    0.0100    0.0100
    0.0100    0.0100    0.0100    0.0100    0.0100    0.0100    0.0100    0.0100
    0.0100    0.0100    0.0100    0.0100    0.0100    0.0100    0.0100    0.0100
    0.0100    0.0100    0.0100    0.0100    0.0100    0.0100    0.0100    0.0100
   </PP_RAB>
 </PP_MESH>
  <PP_LOCAL type="real"  size="1408" columns="4">
   -2.6722534228E+01   -2.6722159210E+01   -2.6721033927E+01   -2.6719157721E+01
   -2.6716529498E+01   -2.6713147731E+01   -2.6709010463E+01   -2.6704115315E+01
   -2.6698459495E+01   -2.6692039804E+01   -2.6684852647E+01   -2.6676894047E+01
   -2.6668159653E+01   -2.6658644759E+01   -2.6648344316E+01   -2.6637252947E+01
   -2.6625364968E+01   -2.6612674403E+01   -2.6599175006E+01   -2.6584860278E+01
   -2.6569723492E+01   -2.6553757710E+01   -2.6536955812E+01   -2.6519310514E+01
   -2.6500814392E+01   -2.6481459912E+01   -2.6461239449E+01   -2.6440145316E+01
   -2.6418169789E+01   -2.6395305133E+01   -2.6371543628E+01   -2.6346877597E+01
   -2.6321299431E+01   -2.6294801617E+01   -2.6267376765E+01   -2.6239017633E+01
   -2.6209717152E+01   -2.6179468458E+01   -2.6148264912E+01   -2.6116100126E+01
   -2.6082967991E+01   -2.6048862701E+01   -2.6013778771E+01   -2.5977711068E+01
   -2.5940654830E+01   -2.5902605687E+01   -2.5863559682E+01   -2.5823513292E+01
   -2.5782463449E+01   -2.5740407552E+01   -2.5697343493E+01   -2.5653269664E+01
   -2.5608184978E+01   -2.5562088882E+01   -2.5514981367E+01   -2.5466862984E+01
   -2.5417734849E+01   -2.5367598659E+01   -2.5316456691E+01   -2.5264311818E+01
   -2.5211167508E+01   -2.5157027829E+01   -2.5101897455E+01   -2.5045781665E+01
   -2.4988686341E+01   -2.4930617973E+01   -2.4871583650E+01   -2.4811591062E+01
   -2.4750648492E+01   -2.4688764809E+01   -2.4625949463E+01   -2.4562212478E+01
   -2.4497564436E+01   -2.4432016474E+01   -2.4365580266E+01   -2.4298268013E+01
   -2.4230092429E+01   -2.4161066725E+01   -2.4091204594E+01   -2.4020520192E+01
   -2.3949028124E+01   -2.3876743421E+01   -2.3803681526E+01   -2.3729858269E+01
   -2.3655289848E+01   -2.3579992809E+01   -2.3503984021E+01   -2.3427280658E+01
   -2.3349900172E+01   -2.3271860270E+01   -2.3193178895E+01   -2.3113874193E+01
   -2.3033964500E+01   -2.2953468307E+01   -2.2872404242E+01   -2.2790791042E+01
   -2.2708647530E+01   -2.2625992591E+01   -2.2542845142E+01   -2.2459224116E+01
   -2.2375148431E+01   -2.2290636967E+01   -2.2205708546E+01   -2.2120381905E+01
   -2.2034675675E+01   -2.1948608356E+01   -2.1862198300E+01   -2.1775463685E+01
   -2.1688422501E+01   -2.1601092522E+01   -2.1513491296E+01   -2.1425636122E+01
   -2.1337544034E+01   -2.1249231789E+01   -2.1160715850E+01   -2.1072012372E+01
   -2.0983137194E+01   -2.0894105825E+01   -2.0804933439E+01   -2.0715634865E+01
   -2.0626224581E+01   -2.0536716712E+01   -2.0447125029E+01   -2.0357462944E+01
   -2.0267743514E+01   -2.0177979444E+01   -2.0088183090E+01   -1.9998366466E+01
   -1.9908541253E+01   -1.9818718805E+01   -1.9728910166E+01   -1.9639126075E+01
   -1.9549376985E+01   -1.9459673076E+01   -1.9370024272E+01   -1.9280440254E+01
   -1.9190930483E+01   -1.9101504216E+01   -1.9012170520E+01   -1.8922938299E+01
   -1.8833816303E+01   -1.8744813155E+01   -1.8655937361E+01   -1.8567197333E+01
   -1.8478601401E+01   -1.8390157831E+01   -1.8301874837E+01   -1.8213760594E+01
   -1.8125823251E+01   -1.8038070940E+01   -1.7950511784E+01   -1.7863153901E+01
   -1.7776005415E+01   -1.7689074456E+01   -1.7602369162E+01   -1.7515897681E+01
   -1.7429668170E+01   -1.7343688793E+01   -1.7257967719E+01   -1.7172513116E+01
   -1.7087333148E+01   -1.7002435971E+01   -1.6917829724E+01   -1.6833522525E+01
   -1.6749522461E+01   -1.6665837586E+01   -1.6582475911E+01   -1.6499445396E+01
   -1.6416753946E+01   -1.6334409401E+01   -1.6252419529E+01   -1.6170792023E+01
   -1.6089534489E+01   -1.6008654441E+01   -1.5928159296E+01   -1.5848056362E+01
   -1.5768352836E+01   -1.5689055795E+01   -1.5610172186E+01   -1.5531708820E+01
   -1.5453672365E+01   -1.5376069335E+01   -1.5298906085E+01   -1.5222188796E+01
   -1.5145923473E+01   -1.5070115930E+01   -1.4994771781E+01   -1.4919896434E+01
   -1.4845495079E+01   -1.4771572676E+01   -1.4698133950E+01   -1.4625183380E+01
   -1.4552725187E+01   -1.4480763334E+01   -1.4409301510E+01   -1.4338343127E+01
   -1.4267891315E+01   -1.4197948914E+01   -1.4128518472E+01   -1.4059602242E+01
   -1.3991202177E+01   -1.3923319933E+01   -1.3855956866E+01   -1.3789114034E+01
   -1.3722792202E+01   -1.3656991840E+01   -1.3591713133E+01   -1.3526955982E+01
   -1.3462720013E+01   -1.3399004585E+01   -1.3335808793E+01   -1.3273131483E+01
   -1.3210971257E+01   -1.3149326484E+01   -1.3088195308E+01   -1.3027575662E+01
   -1.2967465274E+01   -1.2907861682E+01   -1.2848762239E+01   -1.2790164124E+01
   -1.2732064357E+01   -1.2674459798E+01   -1.2617347163E+01   -1.2560723031E+01
   -1.2504583849E+01   -1.2448925943E+01   -1.2393745511E+01   -1.2339038625E+01
   -1.2284801240E+01   -1.2231029202E+01   -1.2177718243E+01   -1.2124863983E+01
   -1.2072461919E+01   -1.2020507428E+01   -1.1968995747E+01   -1.1917922201E+01
   -1.1867282407E+01   -1.1817072450E+01   -1.1767287927E+01   -1.1717923834E+01
   -1.1668975370E+01   -1.1620437984E+01   -1.1572307288E+01   -1.1524578875E+01
   -1.1477248439E+01   -1.1430311748E+01   -1.1383764623E+01   -1.1337602889E+01
   -1.1291822477E+01   -1.1246419294E+01   -1.1201389121E+01   -1.1156725806E+01
   -1.1112420531E+01   -1.1068460741E+01   -1.1024838580E+01   -1.0981553043E+01
   -1.0938600528E+01   -1.0895977097E+01   -1.0853679551E+01   -1.0811704620E+01
   -1.0770049091E+01   -1.0728709836E+01   -1.0687683782E+01   -1.0646967914E+01
   -1.0606559262E+01   -1.0566454898E+01   -1.0526651933E+01   -1.0487147505E+01
   -1.0447938781E+01   -1.0409022949E+01   -1.0370397214E+01   -1.0332058796E+01
   -1.0294004927E+01   -1.0256232847E+01   -1.0218739803E+01   -1.0181523047E+01
   -1.0144579832E+01   -1.0107907418E+01   -1.0071503063E+01   -1.0035364028E+01
   -9.9994875762E+00   -9.9638709713E+00   -9.9285114809E+00   -9.8934063757E+00
   -9.8585529311E+00   -9.8239484285E+00   -9.7895901571E+00   -9.7554754150E+00
   -9.7216015117E+00   -9.6879657697E+00   -9.6545655263E+00   -9.6213981363E+00
   -9.5884609733E+00   -9.5557514327E+00   -9.5232669332E+00   -9.4910049189E+00
   -9.4589628619E+00   -9.4271382634E+00   -9.3955286566E+00   -9.3641316076E+00
   -9.3329447175E+00   -9.3019656240E+00   -9.2711920026E+00   -9.2406215678E+00
   -9.2102520748E+00   -9.1800813196E+00   -9.1501071403E+00   -9.1203274176E+00
   -9.0907400754E+00   -9.0613430806E+00   -9.0321344435E+00   -9.0031122182E+00
   -8.9742745019E+00   -8.9456194338E+00   -8.9171451944E+00   -8.8888500071E+00
   -8.8607321366E+00   -8.8327898860E+00   -8.8050215965E+00   -8.7774256471E+00
   -8.7500004530E+00   -8.7227444636E+00   -8.6956561618E+00   -8.6687340618E+00
   -8.6419767079E+00   -8.6153826729E+00   -8.5889505560E+00   -8.5626789818E+00
   -8.5365665980E+00   -8.5106120742E+00   -8.4848141001E+00   -8.4591713838E+00
   -8.4336826502E+00   -8.4083466399E+00   -8.3831621072E+00   -8.3581278193E+00
   -8.3332425544E+00   -8.3085051011E+00   -8.2839142568E+00   -8.2594688270E+00
   -8.2351676243E+00   -8.2110094676E+00   -8.1869931814E+00   -8.1631175953E+00
   -8.1393815433E+00   -8.1157838638E+00   -8.0923233989E+00   -8.0689989946E+00
   -8.0458095007E+00   -8.0227537706E+00   -7.9998306617E+00   -7.9770390354E+00
   -7.9543777577E+00   -7.9318456991E+00   -7.9094417354E+00   -7.8871647480E+00
   -7.8650136244E+00   -7.8429872592E+00   -7.8210845537E+00   -7.7993044175E+00
   -7.7776457687E+00   -7.7561075345E+00   -7.7346886519E+00   -7.7133880680E+00
   -7.6922047413E+00   -7.6711376415E+00   -7.6501857504E+00   -7.6293480624E+00
   -7.6086235846E+00   -7.5880113377E+00   -7.5675103561E+00   -7.5471196881E+00
   -7.5268383960E+00   -7.5066655569E+00   -7.4866002621E+00   -7.4666416175E+00
   -7.4467887435E+00   -7.4270407750E+00   -7.4073968612E+00   -7.3878561654E+00
   -7.3684178650E+00   -7.3490811509E+00   -7.3298452264E+00   -7.3107093092E+00
   -7.2916726345E+00   -7.2727344686E+00   -7.2538939782E+00   -7.2351502897E+00
   -7.2165030828E+00   -7.1979521136E+00   -7.1794961195E+00   -7.1611327583E+00
   -7.1428602045E+00   -7.1246788855E+00   -7.1065895562E+00   -7.0885932669E+00
   -7.0706908548E+00   -7.0528816338E+00   -7.0351629916E+00   -7.0175321522E+00
   -6.9999888696E+00   -6.9825330912E+00   -6.9651643308E+00   -6.9478817937E+00
   -6.9306847484E+00   -6.9135726033E+00   -6.8965447365E+00   -6.8796005261E+00
   -6.8627393569E+00   -6.8459606199E+00   -6.8292637124E+00   -6.8126480374E+00
   -6.7961130036E+00   -6.7796580256E+00   -6.7632825235E+00   -6.7469859232E+00
   -6.7307676559E+00   -6.7146271584E+00   -6.6985638728E+00   -6.6825772467E+00
   -6.6666667327E+00   -6.6508317887E+00   -6.6350718779E+00   -6.6193864683E+00
   -6.6037750332E+00   -6.5882370506E+00   -6.5727720035E+00   -6.5573793799E+00
   -6.5420586723E+00   -6.5268093781E+00   -6.5116309994E+00   -6.4965230429E+00
   -6.4814850196E+00   -6.4665164455E+00   -6.4516168406E+00   -6.4367857296E+00
   -6.4220226415E+00   -6.4073271096E+00   -6.3926986713E+00   -6.3781368685E+00
   -6.3636412470E+00   -6.3492113568E+00   -6.3348467521E+00   -6.3205469910E+00
   -6.3063116355E+00   -6.2921402518E+00   -6.2780324096E+00   -6.2639876828E+00
   -6.2500056490E+00   -6.2360858894E+00   -6.2222279892E+00   -6.2084315369E+00
   -6.1946961251E+00   -6.1810213496E+00   -6.1674068099E+00   -6.1538521091E+00
   -6.1403568536E+00   -6.1269206535E+00   -6.1135431220E+00   -6.1002238759E+00
   -6.0869625353E+00   -6.0737587233E+00   -6.0606120668E+00   -6.0475221954E+00
   -6.0344887422E+00   -6.0215113433E+00   -6.0085896380E+00   -5.9957232687E+00
   -5.9829118807E+00   -5.9701551226E+00   -5.9574526458E+00   -5.9448041046E+00
   -5.9322091563E+00   -5.9196674613E+00   -5.9071786824E+00   -5.8947424857E+00
   -5.8823585398E+00   -5.8700265162E+00   -5.8577460892E+00   -5.8455169357E+00
   -5.8333387353E+00   -5.8212111703E+00   -5.8091339258E+00   -5.7971066891E+00
   -5.7851291504E+00   -5.7732010025E+00   -5.7613219404E+00   -5.7494916620E+00
   -5.7377098673E+00   -5.7259762590E+00   -5.7142905422E+00   -5.7026524242E+00
   -5.6910616150E+00   -5.6795178266E+00   -5.6680207737E+00   -5.6565701730E+00
   -5.6451657436E+00   -5.6338072069E+00   -5.6224942865E+00   -5.6112267081E+00
   -5.6000041998E+00   -5.5888264917E+00   -5.5776933161E+00   -5.5666044075E+00
   -5.5555595024E+00   -5.5445583395E+00   -5.5336006595E+00   -5.5226862050E+00
   -5.5118147209E+00   -5.5009859539E+00   -5.4901996527E+00   -5.4794555682E+00
   -5.4687534529E+00   -5.4580930615E+00   -5.4474741504E+00   -5.4368964781E+00
   -5.4263598048E+00   -5.4158638926E+00   -5.4054085054E+00   -5.3949934091E+00
   -5.3846183713E+00   -5.3742831612E+00   -5.3639875499E+00   -5.3537313105E+00
   -5.3435142174E+00   -5.3333360470E+00   -5.3231965772E+00   -5.3130955879E+00
   -5.3030328604E+00   -5.2930081777E+00   -5.2830213244E+00   -5.2730720869E+00
   -5.2631602530E+00   -5.2532856122E+00   -5.2434479556E+00   -5.2336470758E+00
   -5.2238827669E+00   -5.2141548247E+00   -5.2044630464E+00   -5.1948072306E+00
   -5.1851871777E+00   -5.1756026892E+00   -5.1660535684E+00   -5.1565396198E+00
   -5.1470606494E+00   -5.1376164648E+00   -5.1282068749E+00   -5.1188316897E+00
   -5.1094907211E+00   -5.1001837821E+00   -5.0909106870E+00   -5.0816712515E+00
   -5.0724652928E+00   -5.0632926292E+00   -5.0541530804E+00   -5.0450464674E+00
   -5.0359726125E+00   -5.0269313393E+00   -5.0179224725E+00   -5.0089458383E+00
   -5.0000012641E+00   -4.9910885782E+00   -4.9822076106E+00   -4.9733581922E+00
   -4.9645401552E+00   -4.9557533329E+00   -4.9469975599E+00   -4.9382726719E+00
   -4.9295785058E+00   -4.9209148996E+00   -4.9122816925E+00   -4.9036787247E+00
   -4.8951058376E+00   -4.8865628738E+00   -4.8780496768E+00   -4.8695660913E+00
   -4.8611119631E+00   -4.8526871391E+00   -4.8442914671E+00   -4.8359247960E+00
   -4.8275869760E+00   -4.8192778579E+00   -4.8109972939E+00   -4.8027451370E+00
   -4.7945212412E+00   -4.7863254617E+00   -4.7781576545E+00   -4.7700176766E+00
   -4.7619053860E+00   -4.7538206418E+00   -4.7457633038E+00   -4.7377332329E+00
   -4.7297302909E+00   -4.7217543406E+00   -4.7138052457E+00   -4.7058828707E+00
   -4.6979870812E+00   -4.6901177435E+00   -4.6822747250E+00   -4.6744578937E+00
   -4.6666671189E+00   -4.6589022703E+00   -4.6511632189E+00   -4.6434498362E+00
   -4.6357619947E+00   -4.6280995679E+00   -4.6204624299E+00   -4.6128504556E+00
   -4.6052635210E+00   -4.5977015026E+00   -4.5901642780E+00   -4.5826517253E+00
   -4.5751637237E+00   -4.5677001530E+00   -4.5602608938E+00   -4.5528458275E+00
   -4.5454548363E+00   -4.5380878032E+00   -4.5307446117E+00   -4.5234251464E+00
   -4.5161292925E+00   -4.5088569359E+00   -4.5016079633E+00   -4.4943822620E+00
   -4.4871797202E+00   -4.4800002266E+00   -4.4728436709E+00   -4.4657099433E+00
   -4.4585989348E+00   -4.4515105369E+00   -4.4444446420E+00   -4.4374011431E+00
   -4.4303799339E+00   -4.4233809088E+00   -4.4164039627E+00   -4.4094489915E+00
   -4.4025158913E+00   -4.3956045592E+00   -4.3887148929E+00   -4.3818467906E+00
   -4.3750001512E+00   -4.3681748743E+00   -4.3613708601E+00   -4.3545880094E+00
   -4.3478262235E+00   -4.3410854044E+00   -4.3343654549E+00   -4.3276662782E+00
   -4.3209877780E+00   -4.3143298588E+00   -4.3076924256E+00   -4.3010753840E+00
   -4.2944786401E+00   -4.2879021008E+00   -4.2813456733E+00   -4.2748092655E+00
   -4.2682927858E+00   -4.2617961434E+00   -4.2553192476E+00   -4.2488620086E+00
   -4.2424243371E+00   -4.2360061443E+00   -4.2296073419E+00   -4.2232278420E+00
   -4.2168675577E+00   -4.2105264020E+00   -4.2042042889E+00   -4.1979011327E+00
   -4.1916168484E+00   -4.1853513512E+00   -4.1791045571E+00   -4.1728763826E+00
   -4.1666667442E+00   -4.1604755594E+00   -4.1543027462E+00   -4.1481482233E+00
   -4.1420119084E+00   -4.1358937206E+00   -4.1297935776E+00   -4.1237113966E+00
   -4.1176471113E+00   -4.1116006467E+00   -4.1055719322E+00   -4.0995609079E+00
   -4.0935674348E+00   -4.0875914105E+00   -4.0816327339E+00   -4.0756912467E+00
   -4.0697670426E+00   -4.0638601210E+00   -4.0579704660E+00   -4.0520982292E+00
   -4.0462430347E+00   -4.0404046691E+00   -4.0345829380E+00   -4.0287774331E+00
   -4.0229883858E+00   -4.0172159527E+00   -4.0114602401E+00   -4.0057215571E+00
   -3.9999996812E+00   -3.9942942610E+00   -3.9886050409E+00   -3.9829316273E+00
   -3.9772738788E+00   -3.9716319712E+00   -3.9660059545E+00   -3.9603959439E+00
   -3.9548020552E+00   -3.9492240686E+00   -3.9436618815E+00   -3.9381153749E+00
   -3.9325843500E+00   -3.9270688151E+00   -3.9215687073E+00   -3.9160839703E+00
   -3.9106145696E+00   -3.9051604337E+00   -3.8997214932E+00   -3.8942976840E+00
   -3.8888889402E+00   -3.8834951979E+00   -3.8781163966E+00   -3.8727524744E+00
   -3.8674033696E+00   -3.8620690210E+00   -3.8567493676E+00   -3.8514443488E+00
   -3.8461539042E+00   -3.8408779738E+00   -3.8356164980E+00   -3.8303694176E+00
   -3.8251366734E+00   -3.8199182068E+00   -3.8147139595E+00   -3.8095238733E+00
   -3.8043478907E+00   -3.7991859542E+00   -3.7940380066E+00   -3.7889039913E+00
   -3.7837838517E+00   -3.7786775316E+00   -3.7735849751E+00   -3.7685061268E+00
   -3.7634409313E+00   -3.7583893336E+00   -3.7533512791E+00   -3.7483267133E+00
   -3.7433155822E+00   -3.7383178320E+00   -3.7333334091E+00   -3.7283622603E+00
   -3.7234043326E+00   -3.7184595734E+00   -3.7135279302E+00   -3.7086093510E+00
   -3.7037037840E+00   -3.6988111774E+00   -3.6939314802E+00   -3.6890646411E+00
   -3.6842106095E+00   -3.6793693349E+00   -3.6745407670E+00   -3.6697248560E+00
   -3.6649215520E+00   -3.6601308057E+00   -3.6553525679E+00   -3.6505867896E+00
   -3.6458334222E+00   -3.6410924172E+00   -3.6363637266E+00   -3.6316473023E+00
   -3.6269430967E+00   -3.6222510625E+00   -3.6175711523E+00   -3.6129033193E+00
   -3.6082475169E+00   -3.6036036984E+00   -3.5989718178E+00   -3.5943518291E+00
   -3.5897436865E+00   -3.5851473445E+00   -3.5805627578E+00   -3.5759898815E+00
   -3.5714286706E+00   -3.5668790807E+00   -3.5623410673E+00   -3.5578145864E+00
   -3.5532995940E+00   -3.5487960464E+00   -3.5443039002E+00   -3.5398231122E+00
   -3.5353536393E+00   -3.5308954387E+00   -3.5264484678E+00   -3.5220126842E+00
   -3.5175880458E+00   -3.5131745107E+00   -3.5087720371E+00   -3.5043805834E+00
   -3.5000001083E+00   -3.4956305707E+00   -3.4912719298E+00   -3.4869241447E+00
   -3.4825871750E+00   -3.4782609804E+00   -3.4739455208E+00   -3.4696407562E+00
   -3.4653466470E+00   -3.4610631536E+00   -3.4567902367E+00   -3.4525278573E+00
   -3.4482759763E+00   -3.4440345550E+00   -3.4398035549E+00   -3.4355829377E+00
   -3.4313726651E+00   -3.4271726991E+00   -3.4229830020E+00   -3.4188035362E+00
   -3.4146342641E+00   -3.4104751486E+00   -3.4063261527E+00   -3.4021872393E+00
   -3.3980583719E+00   -3.3939395138E+00   -3.3898306287E+00   -3.3857316805E+00
   -3.3816426331E+00   -3.3775634507E+00   -3.3734940977E+00   -3.3694345385E+00
   -3.3653847379E+00   -3.3613446607E+00   -3.3573142719E+00   -3.3532935367E+00
   -3.3492824206E+00   -3.3452808889E+00   -3.3412889074E+00   -3.3373064420E+00
   -3.3333334586E+00   -3.3293699234E+00   -3.3254158028E+00   -3.3214710633E+00
   -3.3175356715E+00   -3.3136095943E+00   -3.3096927985E+00   -3.3057852514E+00
   -3.3018869201E+00   -3.2979977723E+00   -3.2941177753E+00   -3.2902468970E+00
   -3.2863851053E+00   -3.2825323682E+00   -3.2786886539E+00   -3.2748539308E+00
   -3.2710281672E+00   -3.2672113320E+00   -3.2634033937E+00   -3.2596043215E+00
   -3.2558140843E+00   -3.2520326514E+00   -3.2482599921E+00   -3.2444960759E+00
   -3.2407408725E+00   -3.2369943516E+00   -3.2332564832E+00   -3.2295272373E+00
   -3.2258065842E+00   -3.2220944941E+00   -3.2183909375E+00   -3.2146958851E+00
   -3.2110093076E+00   -3.2073311759E+00   -3.2036614609E+00   -3.2000001338E+00
   -3.1963471660E+00   -3.1927025287E+00   -3.1890661936E+00   -3.1854381322E+00
   -3.1818183165E+00   -3.1782067182E+00   -3.1746033096E+00   -3.1710080626E+00
   -3.1674209497E+00   -3.1638419433E+00   -3.1602710159E+00   -3.1567081401E+00
   -3.1531532889E+00   -3.1496064351E+00   -3.1460675517E+00   -3.1425366120E+00
   -3.1390135891E+00   -3.1354984566E+00   -3.1319911879E+00   -3.1284917566E+00
   -3.1250001366E+00   -3.1215163017E+00   -3.1180402259E+00   -3.1145718833E+00
   -3.1111112481E+00   -3.1076582946E+00   -3.1042129974E+00   -3.1007753310E+00
   -3.0973452700E+00   -3.0939227892E+00   -3.0905078636E+00   -3.0871004682E+00
   -3.0837005780E+00   -3.0803081683E+00   -3.0769232145E+00   -3.0735456920E+00
   -3.0701755763E+00   -3.0668128431E+00   -3.0634574682E+00   -3.0601094274E+00
   -3.0567686968E+00   -3.0534352524E+00   -3.0501090703E+00   -3.0467901270E+00
   -3.0434783988E+00   -3.0401738621E+00   -3.0368764937E+00   -3.0335862701E+00
   -3.0303031683E+00   -3.0270271650E+00   -3.0237582373E+00   -3.0204963624E+00
   -3.0172415173E+00   -3.0139936794E+00   -3.0107528261E+00   -3.0075189349E+00
   -3.0042919834E+00   -3.0010719493E+00   -2.9978588103E+00   -2.9946525443E+00
   -2.9914531293E+00   -2.9882605434E+00   -2.9850747647E+00   -2.9818957714E+00
   -2.9787235420E+00   -2.9755580548E+00   -2.9723992884E+00   -2.9692472214E+00
   -2.9661018325E+00   -2.9629631005E+00   -2.9598310043E+00   -2.9567055228E+00
   -2.9535866353E+00   -2.9504743207E+00   -2.9473685583E+00   -2.9442693275E+00
   -2.9411766077E+00   -2.9380903784E+00   -2.9350106192E+00   -2.9319373097E+00
   -2.9288704297E+00   -2.9258099591E+00   -2.9227558778E+00   -2.9197081658E+00
   -2.9166668032E+00   -2.9136317702E+00   -2.9106030470E+00   -2.9075806140E+00
   -2.9045644516E+00   -2.9015545403E+00   -2.8985508607E+00   -2.8955533934E+00
   -2.8925621193E+00   -2.8895770191E+00   -2.8865980738E+00   -2.8836252643E+00
   -2.8806585717E+00   -2.8776979771E+00   -2.8747434617E+00   -2.8717950069E+00
   -2.8688525940E+00   -2.8659162045E+00   -2.8629858199E+00   -2.8600614217E+00
   -2.8571429917E+00   -2.8542305116E+00   -2.8513239633E+00   -2.8484233285E+00
   -2.8455285894E+00   -2.8426397279E+00   -2.8397567261E+00   -2.8368795663E+00
   -2.8340082307E+00   -2.8311427017E+00   -2.8282829616E+00   -2.8254289929E+00
   -2.8225807782E+00   -2.8197383001E+00   -2.8169015412E+00   -2.8140704844E+00
   -2.8112451124E+00   -2.8084254082E+00   -2.8056113547E+00   -2.8028029349E+00
   -2.8000001319E+00   -2.7972029290E+00   -2.7944113093E+00   -2.7916252561E+00
   -2.7888447528E+00   -2.7860697829E+00   -2.7833003298E+00   -2.7805363771E+00
   -2.7777779085E+00   -2.7750249076E+00   -2.7722773581E+00   -2.7695352440E+00
   -2.7667985490E+00   -2.7640672573E+00   -2.7613413526E+00   -2.7586208192E+00
   -2.7559056412E+00   -2.7531958028E+00   -2.7504912882E+00   -2.7477920818E+00
   -2.7450981680E+00   -2.7424095311E+00   -2.7397261558E+00   -2.7370480266E+00
   -2.7343751281E+00   -2.7317074450E+00   -2.7290449620E+00   -2.7263876640E+00
   -2.7237355359E+00   -2.7210885625E+00   -2.7184467289E+00   -2.7158100201E+00
   -2.7131784212E+00   -2.7105519173E+00   -2.7079304938E+00   -2.7053141357E+00
   -2.7027028286E+00   -2.7000965577E+00   -2.6974953086E+00   -2.6948990666E+00
   -2.6923078174E+00   -2.6897215467E+00   -2.6871402399E+00   -2.6845638830E+00
   -2.6819924615E+00   -2.6794259615E+00   -2.6768643687E+00   -2.6743076692E+00
   -2.6717558488E+00   -2.6692088937E+00   -2.6666667899E+00   -2.6641295236E+00
   -2.6615970810E+00   -2.6590694484E+00   -2.6565466120E+00   -2.6540285582E+00
   -2.6515152735E+00   -2.6490067443E+00   -2.6465029572E+00   -2.6440038986E+00
   -2.6415095552E+00   -2.6390199137E+00   -2.6365349607E+00   -2.6340546832E+00
   -2.6315790678E+00   -2.6291081014E+00   -2.6266417710E+00   -2.6241800636E+00
   -2.6217229660E+00   -2.6192704655E+00   -2.6168225491E+00   -2.6143792039E+00
   -2.6119404173E+00   -2.6095061763E+00   -2.6070764684E+00   -2.6046512809E+00
   -2.6022306012E+00   -2.5998144167E+00   -2.5974027149E+00   -2.5949954834E+00
   -2.5925927097E+00   -2.5901943814E+00   -2.5878004863E+00   -2.5854110121E+00
   -2.5830259465E+00   -2.5806452773E+00   -2.5782689924E+00   -2.5758970797E+00
   -2.5735295271E+00   -2.5711663227E+00   -2.5688074544E+00   -2.5664529103E+00
   -2.5641026786E+00   -2.5617567474E+00   -2.5594151049E+00   -2.5570777394E+00
   -2.5547446392E+00   -2.5524157925E+00   -2.5500911879E+00   -2.5477708136E+00
   -2.5454546582E+00   -2.5431427102E+00   -2.5408349580E+00   -2.5385313904E+00
   -2.5362319959E+00   -2.5339367632E+00   -2.5316456810E+00   -2.5293587381E+00
   -2.5270759233E+00   -2.5247972253E+00   -2.5225226331E+00   -2.5202521355E+00
   -2.5179857216E+00   -2.5157233803E+00   -2.5134651007E+00   -2.5112108718E+00
   -2.5089606827E+00   -2.5067145226E+00   -2.5044723807E+00   -2.5022342462E+00
   -2.5000001083E+00   -2.4977699565E+00   -2.4955437799E+00   -2.4933215680E+00
   -2.4911033103E+00   -2.4888889961E+00   -2.4866786150E+00   -2.4844721565E+00
   -2.4822696101E+00   -2.4800709655E+00   -2.4778762123E+00   -2.4756853402E+00
   -2.4734983389E+00   -2.4713151981E+00   -2.4691359077E+00   -2.4669604574E+00
   -2.4647888371E+00   -2.4626210368E+00   -2.4604570463E+00   -2.4582968556E+00
   -2.4561404547E+00   -2.4539878337E+00   -2.4518389826E+00   -2.4496938915E+00
   -2.4475525505E+00   -2.4454149499E+00   -2.4432810798E+00   -2.4411509305E+00
   -2.4390244923E+00   -2.4369017555E+00   -2.4347827103E+00   -2.4326673473E+00
   -2.4305556567E+00   -2.4284476291E+00   -2.4263432550E+00   -2.4242425247E+00
   -2.4221454290E+00   -2.4200519583E+00   -2.4179621033E+00   -2.4158758546E+00
   -2.4137932028E+00   -2.4117141388E+00   -2.4096386532E+00   -2.4075667367E+00
   -2.4054983803E+00   -2.4034335747E+00   -2.4013723107E+00   -2.3993145794E+00
   -2.3972603716E+00   -2.3952096782E+00   -2.3931624903E+00   -2.3911187989E+00
   -2.3890785950E+00   -2.3870418697E+00   -2.3850086142E+00   -2.3829788195E+00
   -2.3809524768E+00   -2.3789295773E+00   -2.3769101124E+00   -2.3748940731E+00
   -2.3728814509E+00   -2.3708722370E+00   -2.3688664228E+00   -2.3668639996E+00
   -2.3648649589E+00   -2.3628692922E+00   -2.3608769908E+00   -2.3588880462E+00
   -2.3569024501E+00   -2.3549201939E+00   -2.3529412692E+00   -2.3509656677E+00
   -2.3489933809E+00   -2.3470244006E+00   -2.3450587183E+00   -2.3430963260E+00
   -2.3411372152E+00   -2.3391813778E+00   -2.3372288055E+00   -2.3352794903E+00
   -2.3333334239E+00   -2.3313905983E+00   -2.3294510053E+00   -2.3275146369E+00
   -2.3255814851E+00   -2.3236515418E+00   -2.3217247991E+00   -2.3198012490E+00
   -2.3178808835E+00   -2.3159636949E+00   -2.3140496752E+00   -2.3121388165E+00
   -2.3102311111E+00   -2.3083265511E+00   -2.3064251287E+00   -2.3045268363E+00
   -2.3026316661E+00   -2.3007396103E+00   -2.2988506614E+00   -2.2969648117E+00
   -2.2950820535E+00   -2.2932023793E+00   -2.2913257814E+00   -2.2894522525E+00
   -2.2875817848E+00   -2.2857143709E+00   -2.2838500035E+00   -2.2819886749E+00
   -2.2801303778E+00   -2.2782751047E+00   -2.2764228484E+00   -2.2745736014E+00
   -2.2727273565E+00   -2.2708841063E+00   -2.2690438435E+00   -2.2672065609E+00
   -2.2653722512E+00   -2.2635409073E+00   -2.2617125219E+00   -2.2598870880E+00
   -2.2580645982E+00   -2.2562450456E+00   -2.2544284231E+00   -2.2526147235E+00
   -2.2508039398E+00   -2.2489960650E+00   -2.2471910921E+00   -2.2453890141E+00
   -2.2435898241E+00   -2.2417935150E+00   -2.2400000801E+00   -2.2382095123E+00
   -2.2364218049E+00   -2.2346369510E+00   -2.2328549437E+00   -2.2310757763E+00
   -2.2292994419E+00   -2.2275259339E+00   -2.2257552454E+00   -2.2239873697E+00
   -2.2222223003E+00   -2.2204600303E+00   -2.2187005531E+00   -2.2169438621E+00
   -2.2151899507E+00   -2.2134388122E+00   -2.2116904402E+00   -2.2099448280E+00
   -2.2082019692E+00   -2.2064618572E+00   -2.2047244855E+00   -2.2029898477E+00
   -2.2012579373E+00   -2.1995287479E+00   -2.1978022731E+00   -2.1960785065E+00
   -2.1943574417E+00   -2.1926390724E+00   -2.1909233922E+00   -2.1892103949E+00
   -2.1875000741E+00   -2.1857924237E+00   -2.1840874372E+00   -2.1823851086E+00
   -2.1806854316E+00   -2.1789884000E+00   -2.1772940077E+00   -2.1756022484E+00
   -2.1739131161E+00   -2.1722266046E+00   -2.1705427079E+00   -2.1688614198E+00
   -2.1671827344E+00   -2.1655066455E+00   -2.1638331472E+00   -2.1621622334E+00
   -2.1604938982E+00   -2.1588281357E+00   -2.1571649397E+00   -2.1555043046E+00
   -2.1538462242E+00   -2.1521906928E+00   -2.1505377044E+00   -2.1488872532E+00
   -2.1472393334E+00   -2.1455939392E+00   -2.1439510646E+00   -2.1423107041E+00
   -2.1406728518E+00   -2.1390375019E+00   -2.1374046487E+00   -2.1357742865E+00
   -2.1341464096E+00   -2.1325210124E+00   -2.1308980891E+00   -2.1292776342E+00
   -2.1276596419E+00   -2.1260441067E+00   -2.1244310231E+00   -2.1228203853E+00
   -2.1212121879E+00   -2.1196064254E+00   -2.1180030921E+00   -2.1164021826E+00
   -2.1148036914E+00   -2.1132076130E+00   -2.1116139420E+00   -2.1100226729E+00
   -2.1084338003E+00   -2.1068473187E+00   -2.1052632229E+00   -2.1036815073E+00
   -2.1021021667E+00   -2.1005251957E+00   -2.0989505890E+00   -2.0973783413E+00
   -2.0958084472E+00   -2.0942409015E+00   -2.0926756989E+00   -2.0911128342E+00
   -2.0895523021E+00   -2.0879940974E+00   -2.0864382149E+00   -2.0848846495E+00
   -2.0833333959E+00   -2.0817844490E+00   -2.0802378037E+00   -2.0786934548E+00
   -2.0771513972E+00   -2.0756116259E+00   -2.0740741357E+00   -2.0725389215E+00
   -2.0710059784E+00   -2.0694753013E+00   -2.0679468852E+00   -2.0664207250E+00
   -2.0648968158E+00   -2.0633751526E+00   -2.0618557304E+00   -2.0603385443E+00
   -2.0588235894E+00   -2.0573108607E+00   -2.0558003533E+00   -2.0542920624E+00
   -2.0527859831E+00   -2.0512821105E+00   -2.0497804397E+00   -2.0482809660E+00
   -2.0467836844E+00   -2.0452885903E+00   -2.0437956788E+00   -2.0423049452E+00
   -2.0408163846E+00   -2.0393299924E+00   -2.0378457637E+00   -2.0363636940E+00
   -2.0348837784E+00   -2.0334060123E+00   -2.0319303910E+00   -2.0304569098E+00
   -2.0289855641E+00   -2.0275163492E+00   -2.0260492606E+00   -2.0245842936E+00
   -2.0231214435E+00   -2.0216607059E+00   -2.0202020761E+00   -2.0187455497E+00
   -2.0172911219E+00   -2.0158387884E+00   -2.0143885446E+00   -2.0129403859E+00
   -2.0114943079E+00   -2.0100503062E+00   -2.0086083761E+00   -2.0071685134E+00
   -2.0057307135E+00   -2.0042949720E+00   -2.0028612845E+00   -2.0014296466E+00
   -2.0000000539E+00   -1.9985725020E+00   -1.9971469866E+00   -1.9957235032E+00
   -1.9943020476E+00   -1.9928826155E+00   -1.9914652024E+00   -1.9900498041E+00
  </PP_LOCAL>
 <PP_NONLOCAL>
   <PP_BETA.1
       type="real"
       size="1408"
       columns="4"
       index="1"
       angular_momentum="0"
       cutoff_radius_index=" 260"
       cutoff_radius="    2.5900000000E+00" >
   -4.5925485637E-12    5.1488164039E-02    1.0288743642E-01    1.5410910258E-01
    2.0506480170E-01    2.5566670262E-01    3.0582767837E-01    3.5546147919E-01
    4.0448290342E-01    4.5280796601E-01    5.0035406410E-01    5.4704013952E-01
    5.9278683754E-01    6.3751666181E-01    6.8115412491E-01    7.2362589425E-01
    7.6486093309E-01    8.0479063614E-01    8.4334895967E-01    8.8047254572E-01
    9.1610084014E-01    9.5017620432E-01    9.8264402020E-01    1.0134527885E+00
    1.0425542199E+00    1.0699033189E+00    1.0954584607E+00    1.1191814598E+00
    1.1410376320E+00    1.1609958474E+00    1.1790285770E+00    1.1951119300E+00
    1.2092256843E+00    1.2213533088E+00    1.2314819768E+00    1.2396025732E+00
    1.2457096923E+00    1.2498016284E+00    1.2518803590E+00    1.2519515194E+00
    1.2500243709E+00    1.2461117606E+00    1.2402300746E+00    1.2323991838E+00
    1.2226423829E+00    1.2109863226E+00    1.1974609354E+00    1.1820993550E+00
    1.1649378299E+00    1.1460156308E+00    1.1253749529E+00    1.1030608125E+00
    1.0791209393E+00    1.0536056628E+00    1.0265677958E+00    9.9806251260E-01
    9.6814722392E-01    9.3688144840E-01    9.0432668073E-01    8.7054625704E-01
    8.3560521777E-01    7.9957016833E-01    7.6250913793E-01    7.2449143679E-01
    6.8558751225E-01    6.4586880387E-01    6.0540759802E-01    5.6427688216E-01
    5.2255019925E-01    4.8030150239E-01    4.3760501023E-01    3.9453506329E-01
    3.5116598147E-01    3.0757192315E-01    2.6382674604E-01    2.2000387011E-01
    1.7617614278E-01    1.3241570673E-01    8.8793870469E-02    4.5380981904E-02
    2.2463051904E-03   -4.0542099013E-02   -8.2917489631E-02   -1.2481455745E-01
   -1.6616953338E-01   -2.0692029259E-01   -2.4700645431E-01   -2.8636947718E-01
   -3.2495275004E-01   -3.6270167799E-01   -3.9956376369E-01   -4.3548868372E-01
   -4.7042835996E-01   -5.0433702595E-01   -5.3717128804E-01   -5.6889018147E-01
   -5.9945522115E-01   -6.2883044722E-01   -6.5698246533E-01   -6.8388048163E-01
   -7.0949633245E-01   -7.3380450873E-01   -7.5678217516E-01   -7.7840918402E-01
   -7.9866808390E-01   -8.1754412316E-01   -8.3502524828E-01   -8.5110209713E-01
   -8.6576798725E-01   -8.7901889915E-01   -8.9085345477E-01   -9.0127289114E-01
   -9.1028102931E-01   -9.1788423878E-01   -9.2409139731E-01   -9.2891384645E-01
   -9.3236534269E-01   -9.3446200458E-01   -9.3522225565E-01   -9.3466676361E-01
   -9.3281837563E-01   -9.2970205009E-01   -9.2534478480E-01   -9.1977554186E-01
   -9.1302516941E-01   -9.0512632028E-01   -8.9611336778E-01   -8.8602231888E-01
   -8.7489072468E-01   -8.6275758874E-01   -8.4966327299E-01   -8.3564940188E-01
   -8.2075876450E-01   -8.0503521515E-01   -7.8852357254E-01   -7.7126951758E-01
   -7.5331949024E-01   -7.3472058548E-01   -7.1552044855E-01   -6.9576716984E-01
   -6.7550917941E-01   -6.5479514158E-01   -6.3367384957E-01   -6.1219412056E-01
   -5.9040469134E-01   -5.6835411470E-01   -5.4609065688E-01   -5.2366219610E-01
   -5.0111612271E-01   -4.7849924075E-01   -4.5585767148E-01   -4.3323675890E-01
   -4.1068097755E-01   -3.8823384268E-01   -3.6593782313E-01   -3.4383425705E-01
   -3.2196327060E-01   -3.0036369992E-01   -2.7907301646E-01   -2.5812725591E-01
   -2.3756095088E-01   -2.1740706747E-01   -1.9769694593E-01   -1.7846024550E-01
   -1.5972489367E-01   -1.4151703987E-01   -1.2386101381E-01   -1.0677928852E-01
   -9.0292448264E-02   -7.4419161305E-02   -5.9176157744E-02   -4.4578212386E-02
   -3.0638132755E-02   -1.7366752271E-02   -4.7729286378E-03    7.1364525523E-03
    1.8356468982E-02    2.8884147558E-02    3.8718445171E-02    4.7860224292E-02
    5.6312223475E-02    6.4079022819E-02    7.1167004478E-02    7.7584308317E-02
    8.3340782819E-02    8.8447931376E-02    9.2918854101E-02    9.6768185313E-02
    1.0001202687E-01    1.0266787752E-01    1.0475455849E-01    1.0629213549E-01
    1.0730183738E-01    1.0780597171E-01    1.0782783740E-01    1.0739163478E-01
    1.0652237334E-01    1.0524577729E-01    1.0358818945E-01    1.0157647358E-01
    9.9237915449E-02    9.6600123103E-02    9.3690926466E-02    9.0538276686E-02
    8.7170145502E-02    8.3614424968E-02    7.9898827847E-02    7.6050788987E-02
    7.2097368004E-02    6.8065153592E-02    6.3980169757E-02    5.9867784300E-02
    5.5752619842E-02    5.1658467688E-02    4.7608204824E-02    4.3623714325E-02
    3.9725809438E-02    3.5934161620E-02    3.2267232752E-02    2.8742212339E-02
    2.5374956520E-02    2.2179933040E-02    1.9170194605E-02    1.6357287512E-02
    1.3750802520E-02    1.1358237021E-02    9.1868460616E-03    7.2425640540E-03
    5.5294687937E-03    4.0499688873E-03    2.8047686602E-03    1.7929704734E-03
    1.0119650382E-03    4.5404673221E-04    1.2698227424E-04    3.9859127993E-06
   -7.2184134462E-06    2.8726398209E-06   -1.1499944888E-07   -3.5089268907E-07
    2.2057785882E-11    0.0000000000E+00    0.0000000000E+00    0.0000000000E+00
    0.0000000000E+00    0.0000000000E+00    0.0000000000E+00    0.0000000000E+00
    0.0000000000E+00    0.0000000000E+00    0.0000000000E+00    0.0000000000E+00
    0.0000000000E+00    0.0000000000E+00    0.0000000000E+00    0.0000000000E+00
    0.0000000000E+00    0.0000000000E+00    0.0000000000E+00    0.0000000000E+00
 0. 0. 0. 0.
 0. 0. 0. 0.
 0. 0. 0. 0.
 0. 0. 0. 0.
 0. 0. 0. 0.
 0. 0. 0. 0.
 0. 0. 0. 0.
 0. 0. 0. 0.
 0. 0. 0. 0.
 0. 0. 0. 0.
 0. 0. 0. 0.
 0. 0. 0. 0.
 0. 0. 0. 0.
 0. 0. 0. 0.
 0. 0. 0. 0.
 0. 0. 0. 0.
 0. 0. 0. 0.
 0. 0. 0. 0.
 0. 0. 0. 0.
 0. 0. 0. 0.
 0. 0. 0. 0.
 0. 0. 0. 0.
 0. 0. 0. 0.
 0. 0. 0. 0.
 0. 0. 0. 0.
 0. 0. 0. 0.
 0. 0. 0. 0.
 0. 0. 0. 0.
 0. 0. 0. 0.
 0. 0. 0. 0.
 0. 0. 0. 0.
 0. 0. 0. 0.
 0. 0. 0. 0.
 0. 0. 0. 0.
 0. 0. 0. 0.
 0. 0. 0. 0.
 0. 0. 0. 0.
 0. 0. 0. 0.
 0. 0. 0. 0.
 0. 0. 0. 0.
 0. 0. 0. 0.
 0. 0. 0. 0.
 0. 0. 0. 0.
 0. 0. 0. 0.
 0. 0. 0. 0.
 0. 0. 0. 0.
 0. 0. 0. 0.
 0. 0. 0. 0.
 0. 0. 0. 0.
 0. 0. 0. 0.
 0. 0. 0. 0.
 0. 0. 0. 0.
 0. 0. 0. 0.
 0. 0. 0. 0.
 0. 0. 0. 0.
 0. 0. 0. 0.
 0. 0. 0. 0.
 0. 0. 0. 0.
 0. 0. 0. 0.
 0. 0. 0. 0.
 0. 0. 0. 0.
 0. 0. 0. 0.
 0. 0. 0. 0.
 0. 0. 0. 0.
 0. 0. 0. 0.
 0. 0. 0. 0.
 0. 0. 0. 0.
 0. 0. 0. 0.
 0. 0. 0. 0.
 0. 0. 0. 0.
 0. 0. 0. 0.
 0. 0. 0. 0.
 0. 0. 0. 0.
 0. 0. 0. 0.
 0. 0. 0. 0.
 0. 0. 0. 0.
 0. 0. 0. 0.
 0. 0. 0. 0.
 0. 0. 0. 0.
 0. 0. 0. 0.
 0. 0. 0. 0.
 0. 0. 0. 0.
 0. 0. 0. 0.
 0. 0. 0. 0.
 0. 0. 0. 0.
 0. 0. 0. 0.
 0. 0. 0. 0.
 0. 0. 0. 0.
 0. 0. 0. 0.
 0. 0. 0. 0.
 0. 0. 0. 0.
 0. 0. 0. 0.
 0. 0. 0. 0.
 0. 0. 0. 0.
 0. 0. 0. 0.
 0. 0. 0. 0.
 0. 0. 0. 0.
 0. 0. 0. 0.
 0. 0. 0. 0.
 0. 0. 0. 0.
 0. 0. 0. 0.
 0. 0. 0. 0.
 0. 0. 0. 0.
 0. 0. 0. 0.
 0. 0. 0. 0.
 0. 0. 0. 0.
 0. 0. 0. 0.
 0. 0. 0. 0.
 0. 0. 0. 0.
 0. 0. 0. 0.
 0. 0. 0. 0.
 0. 0. 0. 0.
 0. 0. 0. 0.
 0. 0. 0. 0.
 0. 0. 0. 0.
 0. 0. 0. 0.
 0. 0. 0. 0.
 0. 0. 0. 0.
 0. 0. 0. 0.
 0. 0. 0. 0.
 0. 0. 0. 0.
 0. 0. 0. 0.
 0. 0. 0. 0.
 0. 0. 0. 0.
 0. 0. 0. 0.
 0. 0. 0. 0.
 0. 0. 0. 0.
 0. 0. 0. 0.
 0. 0. 0. 0.
 0. 0. 0. 0.
 0. 0. 0. 0.
 0. 0. 0. 0.
 0. 0. 0. 0.
 0. 0. 0. 0.
 0. 0. 0. 0.
 0. 0. 0. 0.
 0. 0. 0. 0.
 0. 0. 0. 0.
 0. 0. 0. 0.
 0. 0. 0. 0.
 0. 0. 0. 0.
 0. 0. 0. 0.
 0. 0. 0. 0.
 0. 0. 0. 0.
 0. 0. 0. 0.
 0. 0. 0. 0.
 0. 0. 0. 0.
 0. 0. 0. 0.
 0. 0. 0. 0.
 0. 0. 0. 0.
 0. 0. 0. 0.
 0. 0. 0. 0.
 0. 0. 0. 0.
 0. 0. 0. 0.
 0. 0. 0. 0.
 0. 0. 0. 0.
 0. 0. 0. 0.
 0. 0. 0. 0.
 0. 0. 0. 0.
 0. 0. 0. 0.
 0. 0. 0. 0.
 0. 0. 0. 0.
 0. 0. 0. 0.
 0. 0. 0. 0.
 0. 0. 0. 0.
 0. 0. 0. 0.
 0. 0. 0. 0.
 0. 0. 0. 0.
 0. 0. 0. 0.
 0. 0. 0. 0.
 0. 0. 0. 0.
 0. 0. 0. 0.
 0. 0. 0. 0.
 0. 0. 0. 0.
 0. 0. 0. 0.
 0. 0. 0. 0.
 0. 0. 0. 0.
 0. 0. 0. 0.
 0. 0. 0. 0.
 0. 0. 0. 0.
 0. 0. 0. 0.
 0. 0. 0. 0.
 0. 0. 0. 0.
 0. 0. 0. 0.
 0. 0. 0. 0.
 0. 0. 0. 0.
 0. 0. 0. 0.
 0. 0. 0. 0.
 0. 0. 0. 0.
 0. 0. 0. 0.
 0. 0. 0. 0.
 0. 0. 0. 0.
 0. 0. 0. 0.
 0. 0. 0. 0.
 0. 0. 0. 0.
 0. 0. 0. 0.
 0. 0. 0. 0.
 0. 0. 0. 0.
 0. 0. 0. 0.
 0. 0. 0. 0.
 0. 0. 0. 0.
 0. 0. 0. 0.
 0. 0. 0. 0.
 0. 0. 0. 0.
 0. 0. 0. 0.
 0. 0. 0. 0.
 0. 0. 0. 0.
 0. 0. 0. 0.
 0. 0. 0. 0.
 0. 0. 0. 0.
 0. 0. 0. 0.
 0. 0. 0. 0.
 0. 0. 0. 0.
 0. 0. 0. 0.
 0. 0. 0. 0.
 0. 0. 0. 0.
 0. 0. 0. 0.
 0. 0. 0. 0.
 0. 0. 0. 0.
 0. 0. 0. 0.
 0. 0. 0. 0.
 0. 0. 0. 0.
 0. 0. 0. 0.
 0. 0. 0. 0.
 0. 0. 0. 0.
 0. 0. 0. 0.
 0. 0. 0. 0.
 0. 0. 0. 0.
 0. 0. 0. 0.
 0. 0. 0. 0.
 0. 0. 0. 0.
 0. 0. 0. 0.
 0. 0. 0. 0.
 0. 0. 0. 0.
 0. 0. 0. 0.
 0. 0. 0. 0.
 0. 0. 0. 0.
 0. 0. 0. 0.
 0. 0. 0. 0.
 0. 0. 0. 0.
 0. 0. 0. 0.
 0. 0. 0. 0.
 0. 0. 0. 0.
 0. 0. 0. 0.
 0. 0. 0. 0.
 0. 0. 0. 0.
 0. 0. 0. 0.
 0. 0. 0. 0.
 0. 0. 0. 0.
 0. 0. 0. 0.
 0. 0. 0. 0.
 0. 0. 0. 0.
 0. 0. 0. 0.
 0. 0. 0. 0.
 0. 0. 0. 0.
 0. 0. 0. 0.
 0. 0. 0. 0.
 0. 0. 0. 0.
 0. 0. 0. 0.
 0. 0. 0. 0.
 0. 0. 0. 0.
 0. 0. 0. 0.
 0. 0. 0. 0.
 0. 0. 0. 0.
 0. 0. 0. 0.
 0. 0. 0. 0.
 0. 0. 0. 0.
 0. 0. 0. 0.
 0. 0. 0. 0.
 0. 0. 0. 0.
 0. 0. 0. 0.
 0. 0. 0. 0.
 0. 0. 0. 0.
 0. 0. 0. 0.
 0. 0. 0. 0.
 0. 0. 0. 0.
 0. 0. 0. 0.
 0. 0. 0. 0.
 0. 0. 0. 0.
 0. 0. 0. 0.
 0. 0. 0. 0.
 0. 0. 0. 0.
 0. 0. 0. 0.
 0. 0. 0. 0.
 0. 0. 0. 0.
 0. 0. 0. 0.
 0. 0. 0. 0.
   </PP_BETA.1>
   <PP_BETA.2
       type="real"
       size="1408"
       columns="4"
       index="2"
       angular_momentum="0"
       cutoff_radius_index=" 260"
       cutoff_radius="    2.5900000000E+00" >
    2.1735391265E-13    1.8641176052E-02    3.7278458349E-02    5.5907947391E-02
    7.4525732203E-02    9.3127884654E-02    1.1171045384E-01    1.3026946053E-01
    1.4880089178E-01    1.6730069559E-01    1.8576477576E-01    2.0418898690E-01
    2.2256912964E-01    2.4090094599E-01    2.5918011503E-01    2.7740224869E-01
    2.9556288795E-01    3.1365749918E-01    3.3168147085E-01    3.4963011052E-01
    3.6749864215E-01    3.8528220371E-01    4.0297584524E-01    4.2057452710E-01
    4.3807311877E-01    4.5546639788E-01    4.7274904969E-01    4.8991566698E-01
    5.0696075031E-01    5.2387870867E-01    5.4066386058E-01    5.5731043558E-01
    5.7381257615E-01    5.9016434002E-01    6.0635970293E-01    6.2239256177E-01
    6.3825673819E-01    6.5394598252E-01    6.6945397824E-01    6.8477434672E-01
    6.9990065239E-01    7.1482640837E-01    7.2954508237E-01    7.4405010301E-01
    7.5833486654E-01    7.7239274379E-01    7.8621708758E-01    7.9980124038E-01
    8.1313854226E-01    8.2622233918E-01    8.3904599155E-01    8.5160288297E-01
    8.6388642933E-01    8.7589008801E-01    8.8760736735E-01    8.9903183634E-01
    9.1015713431E-01    9.2097698097E-01    9.3148518642E-01    9.4167566127E-01
    9.5154242694E-01    9.6107962585E-01    9.7028153179E-01    9.7914256021E-01
    9.8765727849E-01    9.9582041622E-01    1.0036268754E+00    1.0110717403E+00
    1.0181502880E+00    1.0248579977E+00    1.0311905604E+00    1.0371438890E+00
    1.0427141269E+00    1.0478976574E+00    1.0526911126E+00    1.0570913819E+00
    1.0610956199E+00    1.0647012550E+00    1.0679059965E+00    1.0707078420E+00
    1.0731050843E+00    1.0750963180E+00    1.0766804452E+00    1.0778566818E+00
    1.0786245621E+00    1.0789839438E+00    1.0789350124E+00    1.0784782848E+00
    1.0776146128E+00    1.0763451856E+00    1.0746715325E+00    1.0725955242E+00
    1.0701193744E+00    1.0672456401E+00    1.0639772220E+00    1.0603173641E+00
    1.0562696524E+00    1.0518380135E+00    1.0470267126E+00    1.0418403507E+00
    1.0362838612E+00    1.0303625064E+00    1.0240818729E+00    1.0174478668E+00
    1.0104667081E+00    1.0031449248E+00    9.9548934649E-01    9.8750709684E-01
    9.7920558645E-01    9.7059250458E-01    9.6167581058E-01    9.5246372485E-01
    9.4296471932E-01    9.3318750748E-01    9.2314103396E-01    9.1283446375E-01
    9.0227717096E-01    8.9147872725E-01    8.8044888988E-01    8.6919758940E-01
    8.5773491714E-01    8.4607111221E-01    8.3421654842E-01    8.2218172089E-01
    8.0997723234E-01    7.9761377939E-01    7.8510213846E-01    7.7245315173E-01
    7.5967771282E-01    7.4678675249E-01    7.3379122420E-01    7.2070208971E-01
    7.0753030455E-01    6.9428680367E-01    6.8098248696E-01    6.6762820497E-01
    6.5423474471E-01    6.4081281549E-01    6.2737303502E-01    6.1392591564E-01
    6.0048185077E-01    5.8705110156E-01    5.7364378386E-01    5.6026985545E-01
    5.4693910355E-01    5.3366113269E-01    5.2044535298E-01    5.0730096865E-01
    4.9423696714E-01    4.8126210848E-01    4.6838491523E-01    4.5561366279E-01
    4.4295637026E-01    4.3042079177E-01    4.1801440837E-01    4.0574442041E-01
    3.9361774047E-01    3.8164098691E-01    3.6982047797E-01    3.5816222639E-01
    3.4667193477E-01    3.3535499137E-01    3.2421646670E-01    3.1326111056E-01
    3.0249334985E-01    2.9191728690E-01    2.8153669850E-01    2.7135503553E-01
    2.6137542325E-01    2.5160066216E-01    2.4203322952E-01    2.3267528155E-01
    2.2352865614E-01    2.1459487619E-01    2.0587515362E-01    1.9737039390E-01
    1.8908120115E-01    1.8100788384E-01    1.7315046101E-01    1.6550866902E-01
    1.5808196886E-01    1.5086955388E-01    1.4387035807E-01    1.3708306473E-01
    1.3050611563E-01    1.2413772058E-01    1.1797586735E-01    1.1201833195E-01
    1.0626268933E-01    1.0070632432E-01    9.5346442839E-02    9.0180083455E-02
    8.5204129080E-02    8.0415318925E-02    7.5810260602E-02    7.1385442378E-02
    6.7137245540E-02    6.3061956840E-02    5.9155780997E-02    5.5414853212E-02
    5.1835251681E-02    4.8413010065E-02    4.5144129886E-02    4.2024592822E-02
    3.9050372873E-02    3.6217448364E-02    3.3521813751E-02    3.0959491209E-02
    2.8526541979E-02    2.6219077417E-02    2.4033269760E-02    2.1965362546E-02
    2.0011680677E-02    1.8168640108E-02    1.6432757121E-02    1.4800657168E-02
    1.3269083271E-02    1.1834903940E-02    1.0495120600E-02    9.2468746735E-03
    8.0874532779E-03    7.0142947946E-03    6.0249998847E-03    5.1173257634E-03
    4.2890580786E-03    3.5379711977E-03    2.8624033120E-03    2.2609621653E-03
    1.7323761781E-03    1.2755461954E-03    8.8953482025E-04    5.7359730757E-04
    3.2713706968E-04    1.4854249840E-04    4.2154566547E-05    1.3554269362E-06
   -2.4418899779E-06    9.6020879450E-07   -3.7947119793E-08   -1.1579673394E-07
   -1.1500014296E-11    0.0000000000E+00    0.0000000000E+00    0.0000000000E+00
    0.0000000000E+00    0.0000000000E+00    0.0000000000E+00    0.0000000000E+00
    0.0000000000E+00    0.0000000000E+00    0.0000000000E+00    0.0000000000E+00
    0.0000000000E+00    0.0000000000E+00    0.0000000000E+00    0.0000000000E+00
    0.0000000000E+00    0.0000000000E+00    0.0000000000E+00    0.0000000000E+00
 0. 0. 0. 0.
 0. 0. 0. 0.
 0. 0. 0. 0.
 0. 0. 0. 0.
 0. 0. 0. 0.
 0. 0. 0. 0.
 0. 0. 0. 0.
 0. 0. 0. 0.
 0. 0. 0. 0.
 0. 0. 0. 0.
 0. 0. 0. 0.
 0. 0. 0. 0.
 0. 0. 0. 0.
 0. 0. 0. 0.
 0. 0. 0. 0.
 0. 0. 0. 0.
 0. 0. 0. 0.
 0. 0. 0. 0.
 0. 0. 0. 0.
 0. 0. 0. 0.
 0. 0. 0. 0.
 0. 0. 0. 0.
 0. 0. 0. 0.
 0. 0. 0. 0.
 0. 0. 0. 0.
 0. 0. 0. 0.
 0. 0. 0. 0.
 0. 0. 0. 0.
 0. 0. 0. 0.
 0. 0. 0. 0.
 0. 0. 0. 0.
 0. 0. 0. 0.
 0. 0. 0. 0.
 0. 0. 0. 0.
 0. 0. 0. 0.
 0. 0. 0. 0.
 0. 0. 0. 0.
 0. 0. 0. 0.
 0. 0. 0. 0.
 0. 0. 0. 0.
 0. 0. 0. 0.
 0. 0. 0. 0.
 0. 0. 0. 0.
 0. 0. 0. 0.
 0. 0. 0. 0.
 0. 0. 0. 0.
 0. 0. 0. 0.
 0. 0. 0. 0.
 0. 0. 0. 0.
 0. 0. 0. 0.
 0. 0. 0. 0.
 0. 0. 0. 0.
 0. 0. 0. 0.
 0. 0. 0. 0.
 0. 0. 0. 0.
 0. 0. 0. 0.
 0. 0. 0. 0.
 0. 0. 0. 0.
 0. 0. 0. 0.
 0. 0. 0. 0.
 0. 0. 0. 0.
 0. 0. 0. 0.
 0. 0. 0. 0.
 0. 0. 0. 0.
 0. 0. 0. 0.
 0. 0. 0. 0.
 0. 0. 0. 0.
 0. 0. 0. 0.
 0. 0. 0. 0.
 0. 0. 0. 0.
 0. 0. 0. 0.
 0. 0. 0. 0.
 0. 0. 0. 0.
 0. 0. 0. 0.
 0. 0. 0. 0.
 0. 0. 0. 0.
 0. 0. 0. 0.
 0. 0. 0. 0.
 0. 0. 0. 0.
 0. 0. 0. 0.
 0. 0. 0. 0.
 0. 0. 0. 0.
 0. 0. 0. 0.
 0. 0. 0. 0.
 0. 0. 0. 0.
 0. 0. 0. 0.
 0. 0. 0. 0.
 0. 0. 0. 0.
 0. 0. 0. 0.
 0. 0. 0. 0.
 0. 0. 0. 0.
 0. 0. 0. 0.
 0. 0. 0. 0.
 0. 0. 0. 0.
 0. 0. 0. 0.
 0. 0. 0. 0.
 0. 0. 0. 0.
 0. 0. 0. 0.
 0. 0. 0. 0.
 0. 0. 0. 0.
 0. 0. 0. 0.
 0. 0. 0. 0.
 0. 0. 0. 0.
 0. 0. 0. 0.
 0. 0. 0. 0.
 0. 0. 0. 0.
 0. 0. 0. 0.
 0. 0. 0. 0.
 0. 0. 0. 0.
 0. 0. 0. 0.
 0. 0. 0. 0.
 0. 0. 0. 0.
 0. 0. 0. 0.
 0. 0. 0. 0.
 0. 0. 0. 0.
 0. 0. 0. 0.
 0. 0. 0. 0.
 0. 0. 0. 0.
 0. 0. 0. 0.
 0. 0. 0. 0.
 0. 0. 0. 0.
 0. 0. 0. 0.
 0. 0. 0. 0.
 0. 0. 0. 0.
 0. 0. 0. 0.
 0. 0. 0. 0.
 0. 0. 0. 0.
 0. 0. 0. 0.
 0. 0. 0. 0.
 0. 0. 0. 0.
 0. 0. 0. 0.
 0. 0. 0. 0.
 0. 0. 0. 0.
 0. 0. 0. 0.
 0. 0. 0. 0.
 0. 0. 0. 0.
 0. 0. 0. 0.
 0. 0. 0. 0.
 0. 0. 0. 0.
 0. 0. 0. 0.
 0. 0. 0. 0.
 0. 0. 0. 0.
 0. 0. 0. 0.
 0. 0. 0. 0.
 0. 0. 0. 0.
 0. 0. 0. 0.
 0. 0. 0. 0.
 0. 0. 0. 0.
 0. 0. 0. 0.
 0. 0. 0. 0.
 0. 0. 0. 0.
 0. 0. 0. 0.
 0. 0. 0. 0.
 0. 0. 0. 0.
 0. 0. 0. 0.
 0. 0. 0. 0.
 0. 0. 0. 0.
 0. 0. 0. 0.
 0. 0. 0. 0.
 0. 0. 0. 0.
 0. 0. 0. 0.
 0. 0. 0. 0.
 0. 0. 0. 0.
 0. 0. 0. 0.
 0. 0. 0. 0.
 0. 0. 0. 0.
 0. 0. 0. 0.
 0. 0. 0. 0.
 0. 0. 0. 0.
 0. 0. 0. 0.
 0. 0. 0. 0.
 0. 0. 0. 0.
 0. 0. 0. 0.
 0. 0. 0. 0.
 0. 0. 0. 0.
 0. 0. 0. 0.
 0. 0. 0. 0.
 0. 0. 0. 0.
 0. 0. 0. 0.
 0. 0. 0. 0.
 0. 0. 0. 0.
 0. 0. 0. 0.
 0. 0. 0. 0.
 0. 0. 0. 0.
 0. 0. 0. 0.
 0. 0. 0. 0.
 0. 0. 0. 0.
 0. 0. 0. 0.
 0. 0. 0. 0.
 0. 0. 0. 0.
 0. 0. 0. 0.
 0. 0. 0. 0.
 0. 0. 0. 0.
 0. 0. 0. 0.
 0. 0. 0. 0.
 0. 0. 0. 0.
 0. 0. 0. 0.
 0. 0. 0. 0.
 0. 0. 0. 0.
 0. 0. 0. 0.
 0. 0. 0. 0.
 0. 0. 0. 0.
 0. 0. 0. 0.
 0. 0. 0. 0.
 0. 0. 0. 0.
 0. 0. 0. 0.
 0. 0. 0. 0.
 0. 0. 0. 0.
 0. 0. 0. 0.
 0. 0. 0. 0.
 0. 0. 0. 0.
 0. 0. 0. 0.
 0. 0. 0. 0.
 0. 0. 0. 0.
 0. 0. 0. 0.
 0. 0. 0. 0.
 0. 0. 0. 0.
 0. 0. 0. 0.
 0. 0. 0. 0.
 0. 0. 0. 0.
 0. 0. 0. 0.
 0. 0. 0. 0.
 0. 0. 0. 0.
 0. 0. 0. 0.
 0. 0. 0. 0.
 0. 0. 0. 0.
 0. 0. 0. 0.
 0. 0. 0. 0.
 0. 0. 0. 0.
 0. 0. 0. 0.
 0. 0. 0. 0.
 0. 0. 0. 0.
 0. 0. 0. 0.
 0. 0. 0. 0.
 0. 0. 0. 0.
 0. 0. 0. 0.
 0. 0. 0. 0.
 0. 0. 0. 0.
 0. 0. 0. 0.
 0. 0. 0. 0.
 0. 0. 0. 0.
 0. 0. 0. 0.
 0. 0. 0. 0.
 0. 0. 0. 0.
 0. 0. 0. 0.
 0. 0. 0. 0.
 0. 0. 0. 0.
 0. 0. 0. 0.
 0. 0. 0. 0.
 0. 0. 0. 0.
 0. 0. 0. 0.
 0. 0. 0. 0.
 0. 0. 0. 0.
 0. 0. 0. 0.
 0. 0. 0. 0.
 0. 0. 0. 0.
 0. 0. 0. 0.
 0. 0. 0. 0.
 0. 0. 0. 0.
 0. 0. 0. 0.
 0. 0. 0. 0.
 0. 0. 0. 0.
 0. 0. 0. 0.
 0. 0. 0. 0.
 0. 0. 0. 0.
 0. 0. 0. 0.
 0. 0. 0. 0.
 0. 0. 0. 0.
 0. 0. 0. 0.
 0. 0. 0. 0.
 0. 0. 0. 0.
 0. 0. 0. 0.
 0. 0. 0. 0.
 0. 0. 0. 0.
 0. 0. 0. 0.
 0. 0. 0. 0.
 0. 0. 0. 0.
 0. 0. 0. 0.
 0. 0. 0. 0.
 0. 0. 0. 0.
 0. 0. 0. 0.
 0. 0. 0. 0.
 0. 0. 0. 0.
 0. 0. 0. 0.
 0. 0. 0. 0.
 0. 0. 0. 0.
 0. 0. 0. 0.
   </PP_BETA.2>
   <PP_BETA.3
       type="real"
       size="1408"
       columns="4"
       index="3"
       angular_momentum="1"
       cutoff_radius_index=" 260"
       cutoff_radius="    2.5900000000E+00" >
    1.4173801022E-12    4.2550173326E-04    1.7014110161E-03    3.8259409144E-03
    6.7961159252E-03    1.0607776056E-02    1.5255582531E-02    2.0733025117E-02
    2.7032431071E-02    3.4144975684E-02    4.2060694440E-02    5.0768496748E-02
    6.0256181260E-02    7.0510452745E-02    8.1516940511E-02    9.3260218360E-02
    1.0572382605E-01    1.1889029223E-01    1.3274115890E-01    1.4725700722E-01
    1.6241748482E-01    1.7820133446E-01    1.9458642401E-01    2.1154977785E-01
    2.2906760947E-01    2.4711535531E-01    2.6566770994E-01    2.8469866222E-01
    3.0418153274E-01    3.2408901226E-01    3.4439320121E-01    3.6506565010E-01
    3.8607740099E-01    4.0739902965E-01    4.2900068867E-01    4.5085215127E-01
    4.7292285572E-01    4.9518195051E-01    5.1759833998E-01    5.4014073042E-01
    5.6277767666E-01    5.8547762892E-01    6.0820897992E-01    6.3094011224E-01
    6.5363944573E-01    6.7627548493E-01    6.9881686650E-01    7.2123240647E-01
    7.4349114725E-01    7.6556240438E-01    7.8741581288E-01    8.0902137315E-01
    8.3034949625E-01    8.5137104863E-01    8.7205739608E-01    8.9238044690E-01
    9.1231269420E-01    9.3182725718E-01    9.5089792148E-01    9.6949917825E-01
    9.8760626217E-01    1.0051951881E+00    1.0222427866E+00    1.0387267374E+00
    1.0546256024E+00    1.0699188564E+00    1.0845869163E+00    1.0986111687E+00
    1.1119739961E+00    1.1246588010E+00    1.1366500281E+00    1.1479331849E+00
    1.1584948602E+00    1.1683227412E+00    1.1774056277E+00    1.1857334451E+00
    1.1932972549E+00    1.2000892640E+00    1.2061028304E+00    1.2113324688E+00
    1.2157738524E+00    1.2194238136E+00    1.2222803429E+00    1.2243425847E+00
    1.2256108317E+00    1.2260865180E+00    1.2257722087E+00    1.2246715885E+00
    1.2227894485E+00    1.2201316706E+00    1.2167052103E+00    1.2125180777E+00
    1.2075793163E+00    1.2018989810E+00    1.1954881139E+00    1.1883587178E+00
    1.1805237297E+00    1.1719969915E+00    1.1627932198E+00    1.1529279744E+00
    1.1424176256E+00    1.1312793196E+00    1.1195309440E+00    1.1071910909E+00
    1.0942790200E+00    1.0808146206E+00    1.0668183721E+00    1.0523113051E+00
    1.0373149603E+00    1.0218513481E+00    1.0059429072E+00    9.8961246231E-01
    9.7288318274E-01    9.5577853952E-01    9.3832226315E-01    9.2053830097E-01
    9.0245077464E-01    8.8408393767E-01    8.6546213313E-01    8.4660975167E-01
    8.2755118981E-01    8.0831080867E-01    7.8891289322E-01    7.6938161203E-01
    7.4974097770E-01    7.3001480799E-01    7.1022668773E-01    6.9039993154E-01
    6.7055754754E-01    6.5072220189E-01    6.3091618452E-01    6.1116137587E-01
    5.9147921472E-01    5.7189066736E-01    5.5241619786E-01    5.3307573977E-01
    5.1388866903E-01    4.9487377840E-01    4.7604925317E-01    4.5743264849E-01
    4.3904086802E-01    4.2089014427E-01    4.0299602037E-01    3.8537333344E-01
    3.6803619964E-01    3.5099800070E-01    3.3427137219E-01    3.1786819335E-01
    3.0179957865E-01    2.8607587089E-01    2.7070663604E-01    2.5570065972E-01
    2.4106594528E-01    2.2680971351E-01    2.1293840404E-01    1.9945767827E-01
    1.8637242392E-01    1.7368676107E-01    1.6140404986E-01    1.4952689957E-01
    1.3805717919E-01    1.2699602947E-01    1.1634387632E-01    1.0610044550E-01
    9.6264778738E-02    8.6835250935E-02    7.7809588682E-02    6.9184889848E-02
    6.0957644267E-02    5.3123755422E-02    4.5678563098E-02    3.8616866895E-02
    3.1932950569E-02    2.5620607107E-02    1.9673164478E-02    1.4083511968E-02
    8.8441270447E-03    3.9471026554E-03   -6.1582510765E-04   -4.8532490592E-03
   -8.7740627673E-03   -1.2387432275E-02   -1.5702767778E-02   -1.8729695331E-02
   -2.1478028676E-02   -2.3957741256E-02   -2.6178938497E-02   -2.8151830438E-02
   -2.9886704779E-02   -3.1393900419E-02   -3.2683781561E-02   -3.3766712436E-02
   -3.4653032740E-02   -3.5353033810E-02   -3.5876935635E-02   -3.6234864730E-02
   -3.6436832937E-02   -3.6492717211E-02   -3.6412240416E-02   -3.6204953187E-02
   -3.5880216890E-02   -3.5447187711E-02   -3.4914801904E-02   -3.4291762217E-02
   -3.3586525520E-02   -3.2807291642E-02   -3.1961993430E-02   -3.1058288035E-02
   -3.0103549411E-02   -2.9104862046E-02   -2.8069015883E-02   -2.7002502443E-02
   -2.5911512111E-02   -2.4801932568E-02   -2.3679348338E-02   -2.2549041423E-02
   -2.1415992967E-02   -2.0284885940E-02   -1.9160108769E-02   -1.8045759878E-02
   -1.6945653085E-02   -1.5863323806E-02   -1.4802036000E-02   -1.3764789792E-02
   -1.2754329736E-02   -1.1773153618E-02   -1.0823521773E-02   -9.9074668168E-03
   -9.0268037519E-03   -8.1831403624E-03   -7.3778878444E-03   -6.6122716044E-03
   -5.8873421411E-03   -5.2039864166E-03   -4.5629352947E-03   -3.9647843389E-03
   -3.4099896732E-03   -2.8988356652E-03   -2.4312903574E-03   -2.0070871153E-03
   -1.6260196591E-03   -1.2876988173E-03   -9.9151641636E-04   -7.3667970686E-04
   -5.2220979863E-04   -3.4694845646E-04   -2.0964336203E-04   -1.0820336231E-04
   -4.2111994144E-05   -1.0782003703E-05   -1.2348815569E-06    1.7246099433E-08
   -1.1358865886E-07    2.4443580481E-09    1.8564828143E-09    9.1659693644E-09
    0.0000000000E+00    0.0000000000E+00    0.0000000000E+00    0.0000000000E+00
 0. 0. 0. 0.
 0. 0. 0. 0.
 0. 0. 0. 0.
 0. 0. 0. 0.
 0. 0. 0. 0.
 0. 0. 0. 0.
 0. 0. 0. 0.
 0. 0. 0. 0.
 0. 0. 0. 0.
 0. 0. 0. 0.
 0. 0. 0. 0.
 0. 0. 0. 0.
 0. 0. 0. 0.
 0. 0. 0. 0.
 0. 0. 0. 0.
 0. 0. 0. 0.
 0. 0. 0. 0.
 0. 0. 0. 0.
 0. 0. 0. 0.
 0. 0. 0. 0.
 0. 0. 0. 0.
 0. 0. 0. 0.
 0. 0. 0. 0.
 0. 0. 0. 0.
 0. 0. 0. 0.
 0. 0. 0. 0.
 0. 0. 0. 0.
 0. 0. 0. 0.
 0. 0. 0. 0.
 0. 0. 0. 0.
 0. 0. 0. 0.
 0. 0. 0. 0.
 0. 0. 0. 0.
 0. 0. 0. 0.
 0. 0. 0. 0.
 0. 0. 0. 0.
 0. 0. 0. 0.
 0. 0. 0. 0.
 0. 0. 0. 0.
 0. 0. 0. 0.
 0. 0. 0. 0.
 0. 0. 0. 0.
 0. 0. 0. 0.
 0. 0. 0. 0.
 0. 0. 0. 0.
 0. 0. 0. 0.
 0. 0. 0. 0.
 0. 0. 0. 0.
 0. 0. 0. 0.
 0. 0. 0. 0.
 0. 0. 0. 0.
 0. 0. 0. 0.
 0. 0. 0. 0.
 0. 0. 0. 0.
 0. 0. 0. 0.
 0. 0. 0. 0.
 0. 0. 0. 0.
 0. 0. 0. 0.
 0. 0. 0. 0.
 0. 0. 0. 0.
 0. 0. 0. 0.
 0. 0. 0. 0.
 0. 0. 0. 0.
 0. 0. 0. 0.
 0. 0. 0. 0.
 0. 0. 0. 0.
 0. 0. 0. 0.
 0. 0. 0. 0.
 0. 0. 0. 0.
 0. 0. 0. 0.
 0. 0. 0. 0.
 0. 0. 0. 0.
 0. 0. 0. 0.
 0. 0. 0. 0.
 0. 0. 0. 0.
 0. 0. 0. 0.
 0. 0. 0. 0.
 0. 0. 0. 0.
 0. 0. 0. 0.
 0. 0. 0. 0.
 0. 0. 0. 0.
 0. 0. 0. 0.
 0. 0. 0. 0.
 0. 0. 0. 0.
 0. 0. 0. 0.
 0. 0. 0. 0.
 0. 0. 0. 0.
 0. 0. 0. 0.
 0. 0. 0. 0.
 0. 0. 0. 0.
 0. 0. 0. 0.
 0. 0. 0. 0.
 0. 0. 0. 0.
 0. 0. 0. 0.
 0. 0. 0. 0.
 0. 0. 0. 0.
 0. 0. 0. 0.
 0. 0. 0. 0.
 0. 0. 0. 0.
 0. 0. 0. 0.
 0. 0. 0. 0.
 0. 0. 0. 0.
 0. 0. 0. 0.
 0. 0. 0. 0.
 0. 0. 0. 0.
 0. 0. 0. 0.
 0. 0. 0. 0.
 0. 0. 0. 0.
 0. 0. 0. 0.
 0. 0. 0. 0.
 0. 0. 0. 0.
 0. 0. 0. 0.
 0. 0. 0. 0.
 0. 0. 0. 0.
 0. 0. 0. 0.
 0. 0. 0. 0.
 0. 0. 0. 0.
 0. 0. 0. 0.
 0. 0. 0. 0.
 0. 0. 0. 0.
 0. 0. 0. 0.
 0. 0. 0. 0.
 0. 0. 0. 0.
 0. 0. 0. 0.
 0. 0. 0. 0.
 0. 0. 0. 0.
 0. 0. 0. 0.
 0. 0. 0. 0.
 0. 0. 0. 0.
 0. 0. 0. 0.
 0. 0. 0. 0.
 0. 0. 0. 0.
 0. 0. 0. 0.
 0. 0. 0. 0.
 0. 0. 0. 0.
 0. 0. 0. 0.
 0. 0. 0. 0.
 0. 0. 0. 0.
 0. 0. 0. 0.
 0. 0. 0. 0.
 0. 0. 0. 0.
 0. 0. 0. 0.
 0. 0. 0. 0.
 0. 0. 0. 0.
 0. 0. 0. 0.
 0. 0. 0. 0.
 0. 0. 0. 0.
 0. 0. 0. 0.
 0. 0. 0. 0.
 0. 0. 0. 0.
 0. 0. 0. 0.
 0. 0. 0. 0.
 0. 0. 0. 0.
 0. 0. 0. 0.
 0. 0. 0. 0.
 0. 0. 0. 0.
 0. 0. 0. 0.
 0. 0. 0. 0.
 0. 0. 0. 0.
 0. 0. 0. 0.
 0. 0. 0. 0.
 0. 0. 0. 0.
 0. 0. 0. 0.
 0. 0. 0. 0.
 0. 0. 0. 0.
 0. 0. 0. 0.
 0. 0. 0. 0.
 0. 0. 0. 0.
 0. 0. 0. 0.
 0. 0. 0. 0.
 0. 0. 0. 0.
 0. 0. 0. 0.
 0. 0. 0. 0.
 0. 0. 0. 0.
 0. 0. 0. 0.
 0. 0. 0. 0.
 0. 0. 0. 0.
 0. 0. 0. 0.
 0. 0. 0. 0.
 0. 0. 0. 0.
 0. 0. 0. 0.
 0. 0. 0. 0.
 0. 0. 0. 0.
 0. 0. 0. 0.
 0. 0. 0. 0.
 0. 0. 0. 0.
 0. 0. 0. 0.
 0. 0. 0. 0.
 0. 0. 0. 0.
 0. 0. 0. 0.
 0. 0. 0. 0.
 0. 0. 0. 0.
 0. 0. 0. 0.
 0. 0. 0. 0.
 0. 0. 0. 0.
 0. 0. 0. 0.
 0. 0. 0. 0.
 0. 0. 0. 0.
 0. 0. 0. 0.
 0. 0. 0. 0.
 0. 0. 0. 0.
 0. 0. 0. 0.
 0. 0. 0. 0.
 0. 0. 0. 0.
 0. 0. 0. 0.
 0. 0. 0. 0.
 0. 0. 0. 0.
 0. 0. 0. 0.
 0. 0. 0. 0.
 0. 0. 0. 0.
 0. 0. 0. 0.
 0. 0. 0. 0.
 0. 0. 0. 0.
 0. 0. 0. 0.
 0. 0. 0. 0.
 0. 0. 0. 0.
 0. 0. 0. 0.
 0. 0. 0. 0.
 0. 0. 0. 0.
 0. 0. 0. 0.
 0. 0. 0. 0.
 0. 0. 0. 0.
 0. 0. 0. 0.
 0. 0. 0. 0.
 0. 0. 0. 0.
 0. 0. 0. 0.
 0. 0. 0. 0.
 0. 0. 0. 0.
 0. 0. 0. 0.
 0. 0. 0. 0.
 0. 0. 0. 0.
 0. 0. 0. 0.
 0. 0. 0. 0.
 0. 0. 0. 0.
 0. 0. 0. 0.
 0. 0. 0. 0.
 0. 0. 0. 0.
 0. 0. 0. 0.
 0. 0. 0. 0.
 0. 0. 0. 0.
 0. 0. 0. 0.
 0. 0. 0. 0.
 0. 0. 0. 0.
 0. 0. 0. 0.
 0. 0. 0. 0.
 0. 0. 0. 0.
 0. 0. 0. 0.
 0. 0. 0. 0.
 0. 0. 0. 0.
 0. 0. 0. 0.
 0. 0. 0. 0.
 0. 0. 0. 0.
 0. 0. 0. 0.
 0. 0. 0. 0.
 0. 0. 0. 0.
 0. 0. 0. 0.
 0. 0. 0. 0.
 0. 0. 0. 0.
 0. 0. 0. 0.
 0. 0. 0. 0.
 0. 0. 0. 0.
 0. 0. 0. 0.
 0. 0. 0. 0.
 0. 0. 0. 0.
 0. 0. 0. 0.
 0. 0. 0. 0.
 0. 0. 0. 0.
 0. 0. 0. 0.
 0. 0. 0. 0.
 0. 0. 0. 0.
 0. 0. 0. 0.
 0. 0. 0. 0.
 0. 0. 0. 0.
 0. 0. 0. 0.
 0. 0. 0. 0.
 0. 0. 0. 0.
 0. 0. 0. 0.
 0. 0. 0. 0.
 0. 0. 0. 0.
 0. 0. 0. 0.
 0. 0. 0. 0.
 0. 0. 0. 0.
 0. 0. 0. 0.
 0. 0. 0. 0.
 0. 0. 0. 0.
 0. 0. 0. 0.
 0. 0. 0. 0.
   </PP_BETA.3>
   <PP_BETA.4
       type="real"
       size="1408"
       columns="4"
       index="4"
       angular_momentum="1"
       cutoff_radius_index=" 260"
       cutoff_radius="    2.5900000000E+00" >
    1.7848153511E-12    3.6207748612E-04    1.4478595089E-03    3.2559953504E-03
    5.7842357750E-03    9.0294359681E-03    1.2987559643E-02    1.7653684313E-02
    2.3022007711E-02    2.9085855365E-02    3.5837689293E-02    4.3269117830E-02
    5.1370906549E-02    6.0132990277E-02    6.9544486177E-02    7.9593707883E-02
    9.0268180661E-02    1.0155465758E-01    1.1343913666E-01    1.2590687899E-01
    1.3894242779E-01    1.5252962829E-01    1.6665164867E-01    1.8129100164E-01
    1.9642956696E-01    2.1204861476E-01    2.2812882955E-01    2.4465033499E-01
    2.6159271934E-01    2.7893506162E-01    2.9665595831E-01    3.1473355074E-01
    3.3314555294E-01    3.5186928010E-01    3.7088167751E-01    3.9015934985E-01
    4.0967859107E-01    4.2941541454E-01    4.4934558354E-01    4.6944464217E-01
    4.8968794644E-01    5.1005069562E-01    5.3050796385E-01    5.5103473187E-01
    5.7160591889E-01    5.9219641459E-01    6.1278111119E-01    6.3333493545E-01
    6.5383288082E-01    6.7425003937E-01    6.9456163380E-01    7.1474304921E-01
    7.3476986476E-01    7.5461788511E-01    7.7426317167E-01    7.9368207355E-01
    8.1285125816E-01    8.3174774153E-01    8.5034891818E-01    8.6863259059E-01
    8.8657699822E-01    9.0416084594E-01    9.2136333202E-01    9.3816417541E-01
    9.5454364248E-01    9.7048257303E-01    9.8596240562E-01    1.0009652021E+00
    1.0154736714E+00    1.0294711924E+00    1.0429418359E+00    1.0558703860E+00
    1.0682423597E+00    1.0800440268E+00    1.0912624272E+00    1.1018853885E+00
    1.1119015415E+00    1.1213003351E+00    1.1300720500E+00    1.1382078105E+00
    1.1456995963E+00    1.1525402513E+00    1.1587234928E+00    1.1642439183E+00
    1.1690970112E+00    1.1732791449E+00    1.1767875859E+00    1.1796204954E+00
    1.1817769287E+00    1.1832568342E+00    1.1840610503E+00    1.1841913005E+00
    1.1836501884E+00    1.1824411890E+00    1.1805686409E+00    1.1780377350E+00
    1.1748545031E+00    1.1710258045E+00    1.1665593109E+00    1.1614634904E+00
    1.1557475898E+00    1.1494216160E+00    1.1424963148E+00    1.1349831503E+00
    1.1268942815E+00    1.1182425382E+00    1.1090413961E+00    1.0993049501E+00
    1.0890478871E+00    1.0782854579E+00    1.0670334472E+00    1.0553081442E+00
    1.0431263110E+00    1.0305051513E+00    1.0174622779E+00    1.0040156797E+00
    9.9018368825E-01    9.7598494411E-01    9.6143836233E-01    9.4656309815E-01
    9.3137851226E-01    9.1590413608E-01    9.0015963693E-01    8.8416478337E-01
    8.6793941057E-01    8.5150338602E-01    8.3487657546E-01    8.1807880928E-01
    8.0112984933E-01    7.8404935632E-01    7.6685685779E-01    7.4957171683E-01
    7.3221310151E-01    7.1479995518E-01    6.9735096765E-01    6.7988454732E-01
    6.6241879431E-01    6.4497147467E-01    6.2755999569E-01    6.1020138238E-01
    5.9291225517E-01    5.7570880876E-01    5.5860679235E-01    5.4162149107E-01
    5.2476770882E-01    5.0805975236E-01    4.9151141678E-01    4.7513597238E-01
    4.5894615287E-01    4.4295414491E-01    4.2717157910E-01    4.1160952224E-01
    3.9627847098E-01    3.8118834676E-01    3.6634849215E-01    3.5176766831E-01
    3.3745405388E-01    3.2341524498E-01    3.0965825641E-01    2.9618952411E-01
    2.8301490856E-01    2.7013969941E-01    2.5756862106E-01    2.4530583924E-01
    2.3335496852E-01    2.2171908071E-01    2.1040071412E-01    1.9940188355E-01
    1.8872409108E-01    1.7836833748E-01    1.6833513430E-01    1.5862451650E-01
    1.4923605564E-01    1.4016887352E-01    1.3142165626E-01    1.2299266873E-01
    1.1487976935E-01    1.0708042516E-01    9.9591727085E-02    9.2410405449E-02
    8.5532845621E-02    7.8955103764E-02    7.2672922672E-02    6.6681747640E-02
    6.0976742345E-02    5.5552804701E-02    5.0404582665E-02    4.5526489950E-02
    4.0912721655E-02    3.6557269750E-02    3.2453938423E-02    2.8596359265E-02
    2.4978006270E-02    2.1592210643E-02    1.8432175404E-02    1.5490989773E-02
    1.2761643327E-02    1.0237039936E-02    7.9100114466E-03    5.7733311336E-03
    3.8197269011E-03    2.0418942355E-03    4.3250890942E-04   -1.0157605668E-03
   -2.3102407441E-03   -3.4582412864E-03   -4.4670432725E-03   -5.3438877509E-03
   -6.0959645439E-03   -6.7304013037E-03   -7.2542528189E-03   -7.6744905731E-03
   -7.9979925550E-03   -8.2315333239E-03   -8.3817743297E-03   -8.4552544934E-03
   -8.4583810492E-03   -8.3974206538E-03   -8.2784907682E-03   -8.1075513173E-03
   -7.8903966343E-03   -7.6326476982E-03   -7.3397446725E-03   -7.0169397537E-03
   -6.6692903410E-03   -6.3016525368E-03   -5.9186749893E-03   -5.5247930896E-03
   -5.1242235355E-03   -4.7209592737E-03   -4.3187648355E-03   -3.9211720802E-03
   -3.5314763483E-03   -3.1527334834E-03   -2.7877536414E-03   -2.4391078953E-03
   -2.1091136593E-03   -1.7998037838E-03   -1.5127655496E-03   -1.2492317676E-03
   -1.0104076571E-03   -7.9717824315E-04   -6.1005613640E-04   -4.4921271888E-04
   -3.1446851072E-04   -2.0529444146E-04   -1.2084690024E-04   -5.9651453317E-05
   -2.0616373919E-05   -2.2864098788E-06    1.8053698978E-06    1.4775271053E-07
   -3.5872988062E-07    6.6467370186E-08    1.5259173988E-08   -3.2016701193E-09
    0.0000000000E+00    0.0000000000E+00    0.0000000000E+00    0.0000000000E+00
 0. 0. 0. 0.
 0. 0. 0. 0.
 0. 0. 0. 0.
 0. 0. 0. 0.
 0. 0. 0. 0.
 0. 0. 0. 0.
 0. 0. 0. 0.
 0. 0. 0. 0.
 0. 0. 0. 0.
 0. 0. 0. 0.
 0. 0. 0. 0.
 0. 0. 0. 0.
 0. 0. 0. 0.
 0. 0. 0. 0.
 0. 0. 0. 0.
 0. 0. 0. 0.
 0. 0. 0. 0.
 0. 0. 0. 0.
 0. 0. 0. 0.
 0. 0. 0. 0.
 0. 0. 0. 0.
 0. 0. 0. 0.
 0. 0. 0. 0.
 0. 0. 0. 0.
 0. 0. 0. 0.
 0. 0. 0. 0.
 0. 0. 0. 0.
 0. 0. 0. 0.
 0. 0. 0. 0.
 0. 0. 0. 0.
 0. 0. 0. 0.
 0. 0. 0. 0.
 0. 0. 0. 0.
 0. 0. 0. 0.
 0. 0. 0. 0.
 0. 0. 0. 0.
 0. 0. 0. 0.
 0. 0. 0. 0.
 0. 0. 0. 0.
 0. 0. 0. 0.
 0. 0. 0. 0.
 0. 0. 0. 0.
 0. 0. 0. 0.
 0. 0. 0. 0.
 0. 0. 0. 0.
 0. 0. 0. 0.
 0. 0. 0. 0.
 0. 0. 0. 0.
 0. 0. 0. 0.
 0. 0. 0. 0.
 0. 0. 0. 0.
 0. 0. 0. 0.
 0. 0. 0. 0.
 0. 0. 0. 0.
 0. 0. 0. 0.
 0. 0. 0. 0.
 0. 0. 0. 0.
 0. 0. 0. 0.
 0. 0. 0. 0.
 0. 0. 0. 0.
 0. 0. 0. 0.
 0. 0. 0. 0.
 0. 0. 0. 0.
 0. 0. 0. 0.
 0. 0. 0. 0.
 0. 0. 0. 0.
 0. 0. 0. 0.
 0. 0. 0. 0.
 0. 0. 0. 0.
 0. 0. 0. 0.
 0. 0. 0. 0.
 0. 0. 0. 0.
 0. 0. 0. 0.
 0. 0. 0. 0.
 0. 0. 0. 0.
 0. 0. 0. 0.
 0. 0. 0. 0.
 0. 0. 0. 0.
 0. 0. 0. 0.
 0. 0. 0. 0.
 0. 0. 0. 0.
 0. 0. 0. 0.
 0. 0. 0. 0.
 0. 0. 0. 0.
 0. 0. 0. 0.
 0. 0. 0. 0.
 0. 0. 0. 0.
 0. 0. 0. 0.
 0. 0. 0. 0.
 0. 0. 0. 0.
 0. 0. 0. 0.
 0. 0. 0. 0.
 0. 0. 0. 0.
 0. 0. 0. 0.
 0. 0. 0. 0.
 0. 0. 0. 0.
 0. 0. 0. 0.
 0. 0. 0. 0.
 0. 0. 0. 0.
 0. 0. 0. 0.
 0. 0. 0. 0.
 0. 0. 0. 0.
 0. 0. 0. 0.
 0. 0. 0. 0.
 0. 0. 0. 0.
 0. 0. 0. 0.
 0. 0. 0. 0.
 0. 0. 0. 0.
 0. 0. 0. 0.
 0. 0. 0. 0.
 0. 0. 0. 0.
 0. 0. 0. 0.
 0. 0. 0. 0.
 0. 0. 0. 0.
 0. 0. 0. 0.
 0. 0. 0. 0.
 0. 0. 0. 0.
 0. 0. 0. 0.
 0. 0. 0. 0.
 0. 0. 0. 0.
 0. 0. 0. 0.
 0. 0. 0. 0.
 0. 0. 0. 0.
 0. 0. 0. 0.
 0. 0. 0. 0.
 0. 0. 0. 0.
 0. 0. 0. 0.
 0. 0. 0. 0.
 0. 0. 0. 0.
 0. 0. 0. 0.
 0. 0. 0. 0.
 0. 0. 0. 0.
 0. 0. 0. 0.
 0. 0. 0. 0.
 0. 0. 0. 0.
 0. 0. 0. 0.
 0. 0. 0. 0.
 0. 0. 0. 0.
 0. 0. 0. 0.
 0. 0. 0. 0.
 0. 0. 0. 0.
 0. 0. 0. 0.
 0. 0. 0. 0.
 0. 0. 0. 0.
 0. 0. 0. 0.
 0. 0. 0. 0.
 0. 0. 0. 0.
 0. 0. 0. 0.
 0. 0. 0. 0.
 0. 0. 0. 0.
 0. 0. 0. 0.
 0. 0. 0. 0.
 0. 0. 0. 0.
 0. 0. 0. 0.
 0. 0. 0. 0.
 0. 0. 0. 0.
 0. 0. 0. 0.
 0. 0. 0. 0.
 0. 0. 0. 0.
 0. 0. 0. 0.
 0. 0. 0. 0.
 0. 0. 0. 0.
 0. 0. 0. 0.
 0. 0. 0. 0.
 0. 0. 0. 0.
 0. 0. 0. 0.
 0. 0. 0. 0.
 0. 0. 0. 0.
 0. 0. 0. 0.
 0. 0. 0. 0.
 0. 0. 0. 0.
 0. 0. 0. 0.
 0. 0. 0. 0.
 0. 0. 0. 0.
 0. 0. 0. 0.
 0. 0. 0. 0.
 0. 0. 0. 0.
 0. 0. 0. 0.
 0. 0. 0. 0.
 0. 0. 0. 0.
 0. 0. 0. 0.
 0. 0. 0. 0.
 0. 0. 0. 0.
 0. 0. 0. 0.
 0. 0. 0. 0.
 0. 0. 0. 0.
 0. 0. 0. 0.
 0. 0. 0. 0.
 0. 0. 0. 0.
 0. 0. 0. 0.
 0. 0. 0. 0.
 0. 0. 0. 0.
 0. 0. 0. 0.
 0. 0. 0. 0.
 0. 0. 0. 0.
 0. 0. 0. 0.
 0. 0. 0. 0.
 0. 0. 0. 0.
 0. 0. 0. 0.
 0. 0. 0. 0.
 0. 0. 0. 0.
 0. 0. 0. 0.
 0. 0. 0. 0.
 0. 0. 0. 0.
 0. 0. 0. 0.
 0. 0. 0. 0.
 0. 0. 0. 0.
 0. 0. 0. 0.
 0. 0. 0. 0.
 0. 0. 0. 0.
 0. 0. 0. 0.
 0. 0. 0. 0.
 0. 0. 0. 0.
 0. 0. 0. 0.
 0. 0. 0. 0.
 0. 0. 0. 0.
 0. 0. 0. 0.
 0. 0. 0. 0.
 0. 0. 0. 0.
 0. 0. 0. 0.
 0. 0. 0. 0.
 0. 0. 0. 0.
 0. 0. 0. 0.
 0. 0. 0. 0.
 0. 0. 0. 0.
 0. 0. 0. 0.
 0. 0. 0. 0.
 0. 0. 0. 0.
 0. 0. 0. 0.
 0. 0. 0. 0.
 0. 0. 0. 0.
 0. 0. 0. 0.
 0. 0. 0. 0.
 0. 0. 0. 0.
 0. 0. 0. 0.
 0. 0. 0. 0.
 0. 0. 0. 0.
 0. 0. 0. 0.
 0. 0. 0. 0.
 0. 0. 0. 0.
 0. 0. 0. 0.
 0. 0. 0. 0.
 0. 0. 0. 0.
 0. 0. 0. 0.
 0. 0. 0. 0.
 0. 0. 0. 0.
 0. 0. 0. 0.
 0. 0. 0. 0.
 0. 0. 0. 0.
 0. 0. 0. 0.
 0. 0. 0. 0.
 0. 0. 0. 0.
 0. 0. 0. 0.
 0. 0. 0. 0.
 0. 0. 0. 0.
 0. 0. 0. 0.
 0. 0. 0. 0.
 0. 0. 0. 0.
 0. 0. 0. 0.
 0. 0. 0. 0.
 0. 0. 0. 0.
 0. 0. 0. 0.
 0. 0. 0. 0.
 0. 0. 0. 0.
 0. 0. 0. 0.
 0. 0. 0. 0.
 0. 0. 0. 0.
 0. 0. 0. 0.
 0. 0. 0. 0.
 0. 0. 0. 0.
 0. 0. 0. 0.
 0. 0. 0. 0.
 0. 0. 0. 0.
 0. 0. 0. 0.
 0. 0. 0. 0.
 0. 0. 0. 0.
 0. 0. 0. 0.
 0. 0. 0. 0.
 0. 0. 0. 0.
 0. 0. 0. 0.
 0. 0. 0. 0.
 0. 0. 0. 0.
 0. 0. 0. 0.
 0. 0. 0. 0.
 0. 0. 0. 0.
 0. 0. 0. 0.
 0. 0. 0. 0.
   </PP_BETA.4>
   <PP_BETA.5
       type="real"
       size="1408"
       columns="4"
       index="5"
       angular_momentum="1"
       cutoff_radius_index=" 260"
       cutoff_radius="    2.5900000000E+00" >
    1.0631891201E-11   -4.0568798064E-04   -1.6219123485E-03   -3.6461551028E-03
   -6.4742219850E-03   -1.0100246113E-02   -1.4516693112E-02   -1.9714367770E-02
   -2.5682422290E-02   -3.2408366174E-02   -3.9878077820E-02   -4.8075817918E-02
   -5.6984244710E-02   -6.6584431221E-02   -7.6855884556E-02   -8.7776567353E-02
   -9.9322921519E-02   -1.1146989433E-01   -1.2419096700E-01   -1.3745818589E-01
   -1.5124219633E-01   -1.6551227930E-01   -1.8023639094E-01   -1.9538120507E-01
   -2.1091215876E-01   -2.2679350097E-01   -2.4298834442E-01   -2.5945872067E-01
   -2.7616563847E-01   -2.9306914534E-01   -3.1012839249E-01   -3.2730170301E-01
   -3.4454664324E-01   -3.6182009739E-01   -3.7907834530E-01   -3.9627714317E-01
   -4.1337180731E-01   -4.3031730071E-01   -4.4706832216E-01   -4.6357939812E-01
   -4.7980497666E-01   -4.9569952378E-01   -5.1121762146E-01   -5.2631406753E-01
   -5.4094397692E-01   -5.5506288409E-01   -5.6862684635E-01   -5.8159254780E-01
   -5.9391740354E-01   -6.0555966386E-01   -6.1647851810E-01   -6.2663419783E-01
   -6.3598807895E-01   -6.4450278254E-01   -6.5214227389E-01   -6.5887195956E-01
   -6.6465878198E-01   -6.6947131139E-01   -6.7327983459E-01   -6.7605644040E-01
   -6.7777510134E-01   -6.7841175126E-01   -6.7794435868E-01   -6.7635299547E-01
   -6.7361990067E-01   -6.6972953912E-01   -6.6466865480E-01   -6.5842631850E-01
   -6.5099396972E-01   -6.4236545265E-01   -6.3253704600E-01   -6.2150748662E-01
   -6.0927798679E-01   -5.9585224505E-01   -5.8123645062E-01   -5.6543928131E-01
   -5.4847189492E-01   -5.3034791417E-01   -5.1108340524E-01   -4.9069684991E-01
   -4.6920911148E-01   -4.4664339455E-01   -4.2302519881E-01   -3.9838226697E-01
   -3.7274452713E-01   -3.4614402960E-01   -3.1861487865E-01   -2.9019315911E-01
   -2.6091685841E-01   -2.3082578408E-01   -1.9996147710E-01   -1.6836712138E-01
   -1.3608744965E-01   -1.0316864610E-01   -6.9658246035E-02   -3.5605032906E-02
   -1.0589330518E-03    3.3929091601E-02    6.9307152484E-02    1.0502254470E-01
    1.4102185838E-01    1.7725109077E-01    2.1365575875E-01    2.5018101150E-01
    2.8677174299E-01    3.2337270409E-01    3.5992861394E-01    3.9638427043E-01
    4.3268465944E-01    4.6877506274E-01    5.0460116416E-01    5.4010915405E-01
    5.7524583165E-01    6.0995870530E-01    6.4419609028E-01    6.7790720421E-01
    7.1104225974E-01    7.4355255462E-01    7.7539055878E-01    8.0650999857E-01
    8.3686593792E-01    8.6641485646E-01    8.9511472434E-01    9.2292507400E-01
    9.4980706857E-01    9.7572356699E-01    1.0006391858E+00    1.0245203574E+00
    1.0473353855E+00    1.0690544961E+00    1.0896498862E+00    1.1090957683E+00
    1.1273684116E+00    1.1444461798E+00    1.1603095653E+00    1.1749412203E+00
    1.1883259832E+00    1.2004509029E+00    1.2113052584E+00    1.2208805754E+00
    1.2291706384E+00    1.2361715004E+00    1.2418814872E+00    1.2463011994E+00
    1.2494335096E+00    1.2512835557E+00    1.2518587310E+00    1.2511686691E+00
    1.2492252257E+00    1.2460424558E+00    1.2416365864E+00    1.2360259858E+00
    1.2292311277E+00    1.2212745511E+00    1.2121808162E+00    1.2019764557E+00
    1.1906899211E+00    1.1783515251E+00    1.1649933793E+00    1.1506493275E+00
    1.1353548741E+00    1.1191471086E+00    1.1020646253E+00    1.0841474390E+00
    1.0654368961E+00    1.0459755818E+00    1.0258072232E+00    1.0049765887E+00
    9.8352938324E-01    9.6151214078E-01    9.3897211275E-01    9.1595715393E-01
    8.9251560533E-01    8.6869617468E-01    8.4454781465E-01    8.2011959924E-01
    7.9546059865E-01    7.7061975305E-01    7.4564574557E-01    7.2058687494E-01
    6.9549092827E-01    6.7040505435E-01    6.4537563796E-01    6.2044817565E-01
    5.9566715339E-01    5.7107592684E-01    5.4671660431E-01    5.2262993336E-01
    4.9885519117E-01    4.7543007939E-01    4.5239062389E-01    4.2977107984E-01
    4.0760384270E-01    3.8591936545E-01    3.6474608261E-01    3.4411034138E-01
    3.2403634035E-01    3.0454607614E-01    2.8565929825E-01    2.6739347261E-01
    2.4976375385E-01    2.3278296674E-01    2.1646159698E-01    2.0080779138E-01
    1.8582736773E-01    1.7152383428E-01    1.5789841907E-01    1.4495010889E-01
    1.3267569793E-01    1.2106984611E-01    1.1012514675E-01    9.9832203556E-02
    9.0179716626E-02    8.1154577186E-02    7.2741970758E-02    6.4925488372E-02
    5.7687245426E-02    5.1008007726E-02    4.4867324224E-02    3.9243665926E-02
    3.4114570405E-02    2.9456791325E-02    2.5246452356E-02    2.1459204822E-02
    1.8070388430E-02    1.5055194361E-02    1.2388830048E-02    1.0046684900E-02
    8.0044962553E-03    6.2385148369E-03    4.7256689758E-03    3.4437270177E-03
    2.3714567101E-03    1.4887909505E-03    7.7690629740E-04    2.1858243451E-04
   -2.0197119723E-04   -4.9985532394E-04   -6.9275282244E-04   -7.9919825867E-04
   -8.3212442620E-04   -8.0413956822E-04   -7.2836365967E-04   -6.1776808062E-04
   -4.8527063792E-04   -3.4365472756E-04   -2.0552359651E-04   -8.3665018412E-05
    1.0853495024E-05    6.9402946296E-05    5.8014515779E-05    3.4469677641E-06
   -7.3146632514E-06    1.5343361457E-06    3.3705115766E-07   -1.8279299830E-07
    0.0000000000E+00    0.0000000000E+00    0.0000000000E+00    0.0000000000E+00
 0. 0. 0. 0.
 0. 0. 0. 0.
 0. 0. 0. 0.
 0. 0. 0. 0.
 0. 0. 0. 0.
 0. 0. 0. 0.
 0. 0. 0. 0.
 0. 0. 0. 0.
 0. 0. 0. 0.
 0. 0. 0. 0.
 0. 0. 0. 0.
 0. 0. 0. 0.
 0. 0. 0. 0.
 0. 0. 0. 0.
 0. 0. 0. 0.
 0. 0. 0. 0.
 0. 0. 0. 0.
 0. 0. 0. 0.
 0. 0. 0. 0.
 0. 0. 0. 0.
 0. 0. 0. 0.
 0. 0. 0. 0.
 0. 0. 0. 0.
 0. 0. 0. 0.
 0. 0. 0. 0.
 0. 0. 0. 0.
 0. 0. 0. 0.
 0. 0. 0. 0.
 0. 0. 0. 0.
 0. 0. 0. 0.
 0. 0. 0. 0.
 0. 0. 0. 0.
 0. 0. 0. 0.
 0. 0. 0. 0.
 0. 0. 0. 0.
 0. 0. 0. 0.
 0. 0. 0. 0.
 0. 0. 0. 0.
 0. 0. 0. 0.
 0. 0. 0. 0.
 0. 0. 0. 0.
 0. 0. 0. 0.
 0. 0. 0. 0.
 0. 0. 0. 0.
 0. 0. 0. 0.
 0. 0. 0. 0.
 0. 0. 0. 0.
 0. 0. 0. 0.
 0. 0. 0. 0.
 0. 0. 0. 0.
 0. 0. 0. 0.
 0. 0. 0. 0.
 0. 0. 0. 0.
 0. 0. 0. 0.
 0. 0. 0. 0.
 0. 0. 0. 0.
 0. 0. 0. 0.
 0. 0. 0. 0.
 0. 0. 0. 0.
 0. 0. 0. 0.
 0. 0. 0. 0.
 0. 0. 0. 0.
 0. 0. 0. 0.
 0. 0. 0. 0.
 0. 0. 0. 0.
 0. 0. 0. 0.
 0. 0. 0. 0.
 0. 0. 0. 0.
 0. 0. 0. 0.
 0. 0. 0. 0.
 0. 0. 0. 0.
 0. 0. 0. 0.
 0. 0. 0. 0.
 0. 0. 0. 0.
 0. 0. 0. 0.
 0. 0. 0. 0.
 0. 0. 0. 0.
 0. 0. 0. 0.
 0. 0. 0. 0.
 0. 0. 0. 0.
 0. 0. 0. 0.
 0. 0. 0. 0.
 0. 0. 0. 0.
 0. 0. 0. 0.
 0. 0. 0. 0.
 0. 0. 0. 0.
 0. 0. 0. 0.
 0. 0. 0. 0.
 0. 0. 0. 0.
 0. 0. 0. 0.
 0. 0. 0. 0.
 0. 0. 0. 0.
 0. 0. 0. 0.
 0. 0. 0. 0.
 0. 0. 0. 0.
 0. 0. 0. 0.
 0. 0. 0. 0.
 0. 0. 0. 0.
 0. 0. 0. 0.
 0. 0. 0. 0.
 0. 0. 0. 0.
 0. 0. 0. 0.
 0. 0. 0. 0.
 0. 0. 0. 0.
 0. 0. 0. 0.
 0. 0. 0. 0.
 0. 0. 0. 0.
 0. 0. 0. 0.
 0. 0. 0. 0.
 0. 0. 0. 0.
 0. 0. 0. 0.
 0. 0. 0. 0.
 0. 0. 0. 0.
 0. 0. 0. 0.
 0. 0. 0. 0.
 0. 0. 0. 0.
 0. 0. 0. 0.
 0. 0. 0. 0.
 0. 0. 0. 0.
 0. 0. 0. 0.
 0. 0. 0. 0.
 0. 0. 0. 0.
 0. 0. 0. 0.
 0. 0. 0. 0.
 0. 0. 0. 0.
 0. 0. 0. 0.
 0. 0. 0. 0.
 0. 0. 0. 0.
 0. 0. 0. 0.
 0. 0. 0. 0.
 0. 0. 0. 0.
 0. 0. 0. 0.
 0. 0. 0. 0.
 0. 0. 0. 0.
 0. 0. 0. 0.
 0. 0. 0. 0.
 0. 0. 0. 0.
 0. 0. 0. 0.
 0. 0. 0. 0.
 0. 0. 0. 0.
 0. 0. 0. 0.
 0. 0. 0. 0.
 0. 0. 0. 0.
 0. 0. 0. 0.
 0. 0. 0. 0.
 0. 0. 0. 0.
 0. 0. 0. 0.
 0. 0. 0. 0.
 0. 0. 0. 0.
 0. 0. 0. 0.
 0. 0. 0. 0.
 0. 0. 0. 0.
 0. 0. 0. 0.
 0. 0. 0. 0.
 0. 0. 0. 0.
 0. 0. 0. 0.
 0. 0. 0. 0.
 0. 0. 0. 0.
 0. 0. 0. 0.
 0. 0. 0. 0.
 0. 0. 0. 0.
 0. 0. 0. 0.
 0. 0. 0. 0.
 0. 0. 0. 0.
 0. 0. 0. 0.
 0. 0. 0. 0.
 0. 0. 0. 0.
 0. 0. 0. 0.
 0. 0. 0. 0.
 0. 0. 0. 0.
 0. 0. 0. 0.
 0. 0. 0. 0.
 0. 0. 0. 0.
 0. 0. 0. 0.
 0. 0. 0. 0.
 0. 0. 0. 0.
 0. 0. 0. 0.
 0. 0. 0. 0.
 0. 0. 0. 0.
 0. 0. 0. 0.
 0. 0. 0. 0.
 0. 0. 0. 0.
 0. 0. 0. 0.
 0. 0. 0. 0.
 0. 0. 0. 0.
 0. 0. 0. 0.
 0. 0. 0. 0.
 0. 0. 0. 0.
 0. 0. 0. 0.
 0. 0. 0. 0.
 0. 0. 0. 0.
 0. 0. 0. 0.
 0. 0. 0. 0.
 0. 0. 0. 0.
 0. 0. 0. 0.
 0. 0. 0. 0.
 0. 0. 0. 0.
 0. 0. 0. 0.
 0. 0. 0. 0.
 0. 0. 0. 0.
 0. 0. 0. 0.
 0. 0. 0. 0.
 0. 0. 0. 0.
 0. 0. 0. 0.
 0. 0. 0. 0.
 0. 0. 0. 0.
 0. 0. 0. 0.
 0. 0. 0. 0.
 0. 0. 0. 0.
 0. 0. 0. 0.
 0. 0. 0. 0.
 0. 0. 0. 0.
 0. 0. 0. 0.
 0. 0. 0. 0.
 0. 0. 0. 0.
 0. 0. 0. 0.
 0. 0. 0. 0.
 0. 0. 0. 0.
 0. 0. 0. 0.
 0. 0. 0. 0.
 0. 0. 0. 0.
 0. 0. 0. 0.
 0. 0. 0. 0.
 0. 0. 0. 0.
 0. 0. 0. 0.
 0. 0. 0. 0.
 0. 0. 0. 0.
 0. 0. 0. 0.
 0. 0. 0. 0.
 0. 0. 0. 0.
 0. 0. 0. 0.
 0. 0. 0. 0.
 0. 0. 0. 0.
 0. 0. 0. 0.
 0. 0. 0. 0.
 0. 0. 0. 0.
 0. 0. 0. 0.
 0. 0. 0. 0.
 0. 0. 0. 0.
 0. 0. 0. 0.
 0. 0. 0. 0.
 0. 0. 0. 0.
 0. 0. 0. 0.
 0. 0. 0. 0.
 0. 0. 0. 0.
 0. 0. 0. 0.
 0. 0. 0. 0.
 0. 0. 0. 0.
 0. 0. 0. 0.
 0. 0. 0. 0.
 0. 0. 0. 0.
 0. 0. 0. 0.
 0. 0. 0. 0.
 0. 0. 0. 0.
 0. 0. 0. 0.
 0. 0. 0. 0.
 0. 0. 0. 0.
 0. 0. 0. 0.
 0. 0. 0. 0.
 0. 0. 0. 0.
 0. 0. 0. 0.
 0. 0. 0. 0.
 0. 0. 0. 0.
 0. 0. 0. 0.
 0. 0. 0. 0.
 0. 0. 0. 0.
 0. 0. 0. 0.
 0. 0. 0. 0.
 0. 0. 0. 0.
 0. 0. 0. 0.
 0. 0. 0. 0.
 0. 0. 0. 0.
 0. 0. 0. 0.
 0. 0. 0. 0.
 0. 0. 0. 0.
 0. 0. 0. 0.
 0. 0. 0. 0.
 0. 0. 0. 0.
 0. 0. 0. 0.
 0. 0. 0. 0.
 0. 0. 0. 0.
 0. 0. 0. 0.
 0. 0. 0. 0.
 0. 0. 0. 0.
 0. 0. 0. 0.
 0. 0. 0. 0.
 0. 0. 0. 0.
   </PP_BETA.5>
   <PP_BETA.6
       type="real"
       size="1408"
       columns="4"
       index="6"
       angular_momentum="1"
       cutoff_radius_index=" 260"
       cutoff_radius="    2.5900000000E+00" >
   -7.4146883078E-11    5.0384366223E-04    2.0139452221E-03    4.5260165357E-03
    8.0329111913E-03    1.2524625392E-02    1.7988299474E-02    2.4408220327E-02
    3.1765825075E-02    4.0039706433E-02    4.9205620216E-02    5.9236495549E-02
    7.0102448357E-02    8.1770798788E-02    9.4206093237E-02    1.0737013166E-01
    1.2122200094E-01    1.3571811495E-01    1.5081226222E-01    1.6645566170E-01
    1.8259702755E-01    1.9918264346E-01    2.1615644735E-01    2.3346012675E-01
    2.5103322573E-01    2.6881326363E-01    2.8673586602E-01    3.0473490836E-01
    3.2274267237E-01    3.4069001540E-01    3.5850655279E-01    3.7612085314E-01
    3.9346064625E-01    4.1045304353E-01    4.2702477040E-01    4.4310241013E-01
    4.5861265843E-01    4.7348258815E-01    4.8763992305E-01    5.0101331962E-01
    5.1353265600E-01    5.2512932657E-01    5.3573654102E-01    5.4528962639E-01
    5.5372633066E-01    5.6098712625E-01    5.6701551178E-01    5.7175831041E-01
    5.7516596305E-01    5.7719281454E-01    5.7779739115E-01    5.7694266744E-01
    5.7459632078E-01    5.7073097173E-01    5.6532440848E-01    5.5835979361E-01
    5.4982585172E-01    5.3971703603E-01    5.2803367280E-01    5.1478208186E-01
    4.9997467227E-01    4.8363001166E-01    4.6577286847E-01    4.4643422604E-01
    4.2565126788E-01    4.0346733359E-01    3.7993184492E-01    3.5510020189E-01
    3.2903364874E-01    3.0179911004E-01    2.7346899716E-01    2.4412098559E-01
    2.1383776393E-01    1.8270675529E-01    1.5081981224E-01    1.1827288659E-01
    8.5165675299E-02    5.1601244162E-02    1.7685631071E-02   -1.6472569389E-02
   -5.0762637886E-02   -8.5072176715E-02   -1.1928756833E-01   -1.5329444367E-01
   -1.8697815780E-01   -2.2022427041E-01   -2.5291902853E-01   -2.8494984886E-01
   -3.1620579710E-01   -3.4657806165E-01   -3.7596041901E-01   -4.0424968832E-01
   -4.3134617247E-01   -4.5715408331E-01   -4.8158194862E-01   -5.0454299836E-01
   -5.2595552827E-01   -5.4574323854E-01   -5.6383554579E-01   -5.8016786647E-01
   -5.9468187029E-01   -6.0732570207E-01   -6.1805417091E-01   -6.2682890571E-01
   -6.3361847614E-01   -6.3839847853E-01   -6.4115158632E-01   -6.4186756488E-01
   -6.4054325087E-01   -6.3718249626E-01   -6.3179607779E-01   -6.2440157241E-01
   -6.1502319964E-01   -6.0369163226E-01   -5.9044377634E-01   -5.7532252247E-01
   -5.5837646974E-01   -5.3965962438E-01   -5.1923107526E-01   -4.9715464823E-01
   -4.7349854179E-01   -4.4833494640E-01   -4.2173965002E-01   -3.9379163250E-01
   -3.6457265129E-01   -3.3416682142E-01   -3.0266019218E-01   -2.7014032345E-01
   -2.3669586415E-01   -2.0241613557E-01   -1.6739072212E-01   -1.3170907206E-01
   -9.5460110516E-02   -5.8731867176E-02   -2.1611120810E-02    1.5816937371E-02
    5.3469019620E-02    9.1264035134E-02    1.2912335957E-01    1.6697107930E-01
    2.0473420919E-01    2.4234288313E-01    2.7973051639E-01    3.1683393957E-01
    3.5359350358E-01    3.8995315592E-01    4.2586048806E-01    4.6126675474E-01
    4.9612686533E-01    5.3039934844E-01    5.6404629058E-01    5.9703325013E-01
    6.2932914797E-01    6.6090613639E-01    6.9173944793E-01    7.2180722600E-01
    7.5109033925E-01    7.7957218187E-01    8.0723846185E-01    8.3407697956E-01
    8.6007739895E-01    8.8523101366E-01    9.0953051054E-01    9.3296973279E-01
    9.5554344516E-01    9.7724710355E-01    9.9807663122E-01    1.0180282038E+00
    1.0370980450E+00    1.0552822358E+00    1.0725765376E+00    1.0889762320E+00
    1.1044759791E+00    1.1190696948E+00    1.1327504482E+00    1.1455103820E+00
    1.1573406535E+00    1.1682314007E+00    1.1781717302E+00    1.1871497298E+00
    1.1951525047E+00    1.2021662368E+00    1.2081762676E+00    1.2131672028E+00
    1.2171230399E+00    1.2200273145E+00    1.2218632677E+00    1.2226140304E+00
    1.2222628244E+00    1.2207931782E+00    1.2181891558E+00    1.2144355962E+00
    1.2095183618E+00    1.2034245933E+00    1.1961429699E+00    1.1876639704E+00
    1.1779801350E+00    1.1670863246E+00    1.1549799751E+00    1.1416613447E+00
    1.1271337522E+00    1.1114038030E+00    1.0944816027E+00    1.0763809544E+00
    1.0571195387E+00    1.0367190746E+00    1.0152054602E+00    9.9260889017E-01
    9.6896395133E-01    9.4430969276E-01    9.1868967134E-01    8.9215197131E-01
    8.6474919777E-01    8.3653844381E-01    8.0758123141E-01    7.7794342637E-01
    7.4769512786E-01    7.1691053326E-01    6.8566777932E-01    6.5404876082E-01
    6.2213892825E-01    5.9002706591E-01    5.5780505246E-01    5.2556760586E-01
    4.9341201472E-01    4.6143785862E-01    4.2974671960E-01    3.9844188764E-01
    3.6762806256E-01    3.3741105528E-01    3.0789749119E-01    2.7919451930E-01
    2.5140952716E-01    2.2464992823E-01    1.9902243940E-01    1.7463416487E-01
    1.5159041458E-01    1.2998926771E-01    1.0989946189E-01    9.1370826444E-02
    7.4475432362E-02    5.9272542128E-02    4.5802406716E-02    3.4089833827E-02
    2.4142983184E-02    1.5953394019E-02    9.4987789023E-03    4.7174477783E-03
    1.5883205352E-03    6.7515197762E-05   -2.3974027814E-04   -1.7580085678E-05
    4.0578040112E-05   -7.7566419316E-06   -1.7552910606E-06    5.5590071123E-07
    0.0000000000E+00    0.0000000000E+00    0.0000000000E+00    0.0000000000E+00
 0. 0. 0. 0.
 0. 0. 0. 0.
 0. 0. 0. 0.
 0. 0. 0. 0.
 0. 0. 0. 0.
 0. 0. 0. 0.
 0. 0. 0. 0.
 0. 0. 0. 0.
 0. 0. 0. 0.
 0. 0. 0. 0.
 0. 0. 0. 0.
 0. 0. 0. 0.
 0. 0. 0. 0.
 0. 0. 0. 0.
 0. 0. 0. 0.
 0. 0. 0. 0.
 0. 0. 0. 0.
 0. 0. 0. 0.
 0. 0. 0. 0.
 0. 0. 0. 0.
 0. 0. 0. 0.
 0. 0. 0. 0.
 0. 0. 0. 0.
 0. 0. 0. 0.
 0. 0. 0. 0.
 0. 0. 0. 0.
 0. 0. 0. 0.
 0. 0. 0. 0.
 0. 0. 0. 0.
 0. 0. 0. 0.
 0. 0. 0. 0.
 0. 0. 0. 0.
 0. 0. 0. 0.
 0. 0. 0. 0.
 0. 0. 0. 0.
 0. 0. 0. 0.
 0. 0. 0. 0.
 0. 0. 0. 0.
 0. 0. 0. 0.
 0. 0. 0. 0.
 0. 0. 0. 0.
 0. 0. 0. 0.
 0. 0. 0. 0.
 0. 0. 0. 0.
 0. 0. 0. 0.
 0. 0. 0. 0.
 0. 0. 0. 0.
 0. 0. 0. 0.
 0. 0. 0. 0.
 0. 0. 0. 0.
 0. 0. 0. 0.
 0. 0. 0. 0.
 0. 0. 0. 0.
 0. 0. 0. 0.
 0. 0. 0. 0.
 0. 0. 0. 0.
 0. 0. 0. 0.
 0. 0. 0. 0.
 0. 0. 0. 0.
 0. 0. 0. 0.
 0. 0. 0. 0.
 0. 0. 0. 0.
 0. 0. 0. 0.
 0. 0. 0. 0.
 0. 0. 0. 0.
 0. 0. 0. 0.
 0. 0. 0. 0.
 0. 0. 0. 0.
 0. 0. 0. 0.
 0. 0. 0. 0.
 0. 0. 0. 0.
 0. 0. 0. 0.
 0. 0. 0. 0.
 0. 0. 0. 0.
 0. 0. 0. 0.
 0. 0. 0. 0.
 0. 0. 0. 0.
 0. 0. 0. 0.
 0. 0. 0. 0.
 0. 0. 0. 0.
 0. 0. 0. 0.
 0. 0. 0. 0.
 0. 0. 0. 0.
 0. 0. 0. 0.
 0. 0. 0. 0.
 0. 0. 0. 0.
 0. 0. 0. 0.
 0. 0. 0. 0.
 0. 0. 0. 0.
 0. 0. 0. 0.
 0. 0. 0. 0.
 0. 0. 0. 0.
 0. 0. 0. 0.
 0. 0. 0. 0.
 0. 0. 0. 0.
 0. 0. 0. 0.
 0. 0. 0. 0.
 0. 0. 0. 0.
 0. 0. 0. 0.
 0. 0. 0. 0.
 0. 0. 0. 0.
 0. 0. 0. 0.
 0. 0. 0. 0.
 0. 0. 0. 0.
 0. 0. 0. 0.
 0. 0. 0. 0.
 0. 0. 0. 0.
 0. 0. 0. 0.
 0. 0. 0. 0.
 0. 0. 0. 0.
 0. 0. 0. 0.
 0. 0. 0. 0.
 0. 0. 0. 0.
 0. 0. 0. 0.
 0. 0. 0. 0.
 0. 0. 0. 0.
 0. 0. 0. 0.
 0. 0. 0. 0.
 0. 0. 0. 0.
 0. 0. 0. 0.
 0. 0. 0. 0.
 0. 0. 0. 0.
 0. 0. 0. 0.
 0. 0. 0. 0.
 0. 0. 0. 0.
 0. 0. 0. 0.
 0. 0. 0. 0.
 0. 0. 0. 0.
 0. 0. 0. 0.
 0. 0. 0. 0.
 0. 0. 0. 0.
 0. 0. 0. 0.
 0. 0. 0. 0.
 0. 0. 0. 0.
 0. 0. 0. 0.
 0. 0. 0. 0.
 0. 0. 0. 0.
 0. 0. 0. 0.
 0. 0. 0. 0.
 0. 0. 0. 0.
 0. 0. 0. 0.
 0. 0. 0. 0.
 0. 0. 0. 0.
 0. 0. 0. 0.
 0. 0. 0. 0.
 0. 0. 0. 0.
 0. 0. 0. 0.
 0. 0. 0. 0.
 0. 0. 0. 0.
 0. 0. 0. 0.
 0. 0. 0. 0.
 0. 0. 0. 0.
 0. 0. 0. 0.
 0. 0. 0. 0.
 0. 0. 0. 0.
 0. 0. 0. 0.
 0. 0. 0. 0.
 0. 0. 0. 0.
 0. 0. 0. 0.
 0. 0. 0. 0.
 0. 0. 0. 0.
 0. 0. 0. 0.
 0. 0. 0. 0.
 0. 0. 0. 0.
 0. 0. 0. 0.
 0. 0. 0. 0.
 0. 0. 0. 0.
 0. 0. 0. 0.
 0. 0. 0. 0.
 0. 0. 0. 0.
 0. 0. 0. 0.
 0. 0. 0. 0.
 0. 0. 0. 0.
 0. 0. 0. 0.
 0. 0. 0. 0.
 0. 0. 0. 0.
 0. 0. 0. 0.
 0. 0. 0. 0.
 0. 0. 0. 0.
 0. 0. 0. 0.
 0. 0. 0. 0.
 0. 0. 0. 0.
 0. 0. 0. 0.
 0. 0. 0. 0.
 0. 0. 0. 0.
 0. 0. 0. 0.
 0. 0. 0. 0.
 0. 0. 0. 0.
 0. 0. 0. 0.
 0. 0. 0. 0.
 0. 0. 0. 0.
 0. 0. 0. 0.
 0. 0. 0. 0.
 0. 0. 0. 0.
 0. 0. 0. 0.
 0. 0. 0. 0.
 0. 0. 0. 0.
 0. 0. 0. 0.
 0. 0. 0. 0.
 0. 0. 0. 0.
 0. 0. 0. 0.
 0. 0. 0. 0.
 0. 0. 0. 0.
 0. 0. 0. 0.
 0. 0. 0. 0.
 0. 0. 0. 0.
 0. 0. 0. 0.
 0. 0. 0. 0.
 0. 0. 0. 0.
 0. 0. 0. 0.
 0. 0. 0. 0.
 0. 0. 0. 0.
 0. 0. 0. 0.
 0. 0. 0. 0.
 0. 0. 0. 0.
 0. 0. 0. 0.
 0. 0. 0. 0.
 0. 0. 0. 0.
 0. 0. 0. 0.
 0. 0. 0. 0.
 0. 0. 0. 0.
 0. 0. 0. 0.
 0. 0. 0. 0.
 0. 0. 0. 0.
 0. 0. 0. 0.
 0. 0. 0. 0.
 0. 0. 0. 0.
 0. 0. 0. 0.
 0. 0. 0. 0.
 0. 0. 0. 0.
 0. 0. 0. 0.
 0. 0. 0. 0.
 0. 0. 0. 0.
 0. 0. 0. 0.
 0. 0. 0. 0.
 0. 0. 0. 0.
 0. 0. 0. 0.
 0. 0. 0. 0.
 0. 0. 0. 0.
 0. 0. 0. 0.
 0. 0. 0. 0.
 0. 0. 0. 0.
 0. 0. 0. 0.
 0. 0. 0. 0.
 0. 0. 0. 0.
 0. 0. 0. 0.
 0. 0. 0. 0.
 0. 0. 0. 0.
 0. 0. 0. 0.
 0. 0. 0. 0.
 0. 0. 0. 0.
 0. 0. 0. 0.
 0. 0. 0. 0.
 0. 0. 0. 0.
 0. 0. 0. 0.
 0. 0. 0. 0.
 0. 0. 0. 0.
 0. 0. 0. 0.
 0. 0. 0. 0.
 0. 0. 0. 0.
 0. 0. 0. 0.
 0. 0. 0. 0.
 0. 0. 0. 0.
 0. 0. 0. 0.
 0. 0. 0. 0.
 0. 0. 0. 0.
 0. 0. 0. 0.
 0. 0. 0. 0.
 0. 0. 0. 0.
 0. 0. 0. 0.
 0. 0. 0. 0.
 0. 0. 0. 0.
 0. 0. 0. 0.
 0. 0. 0. 0.
 0. 0. 0. 0.
 0. 0. 0. 0.
 0. 0. 0. 0.
 0. 0. 0. 0.
 0. 0. 0. 0.
 0. 0. 0. 0.
 0. 0. 0. 0.
 0. 0. 0. 0.
 0. 0. 0. 0.
 0. 0. 0. 0.
 0. 0. 0. 0.
 0. 0. 0. 0.
 0. 0. 0. 0.
   </PP_BETA.6>
   <PP_BETA.7
       type="real"
       size="1408"
       columns="4"
       index="7"
       angular_momentum="2"
       cutoff_radius_index=" 260"
       cutoff_radius="    2.5900000000E+00" >
   -2.6639329197E-11    3.3790141692E-06    2.7034386066E-05    9.1253707528E-05
    2.1634643605E-04    4.2265332801E-04    7.3055409146E-04    1.1604726964E-03
    1.7328798074E-03    2.4682918358E-03    3.3872661480E-03    4.5103920095E-03
    5.8582768947E-03    7.4515278451E-03    9.3107276169E-03    1.1456405421E-02
    1.3909002118E-02    1.6688829808E-02    1.9816025805E-02    2.3310501077E-02
    2.7191883277E-02    3.1479454586E-02    3.6192084624E-02    4.1348158789E-02
    4.6965502412E-02    5.3061301191E-02    5.9652018430E-02    6.6753309648E-02
    7.4379935177E-02    8.2545671409E-02    9.1263221375E-02    1.0054412540E-01
    1.1039867256E-01    1.2083581373E-01    1.3186307693E-01    1.4348648586E-01
    1.5571048225E-01    1.6853785290E-01    1.8196966206E-01    1.9600518986E-01
    2.1064187762E-01    2.2587528033E-01    2.4169902729E-01    2.5810479112E-01
    2.7508226579E-01    2.9261915395E-01    3.1070116407E-01    3.2931201742E-01
    3.4843346531E-01    3.6804531653E-01    3.8812547508E-01    4.0864998820E-01
    4.2959310442E-01    4.5092734155E-01    4.7262356423E-01    4.9465107068E-01
    5.1697768823E-01    5.3956987704E-01    5.6239284144E-01    5.8541064828E-01
    6.0858635145E-01    6.3188212190E-01    6.5525938227E-01    6.7867894530E-01
    7.0210115508E-01    7.2548603031E-01    7.4879340843E-01    7.7198308991E-01
    7.9501498153E-01    8.1784923783E-01    8.4044639976E-01    8.6276752955E-01
    8.8477434103E-01    9.0642932445E-01    9.2769586508E-01    9.4853835476E-01
    9.6892229583E-01    9.8881439666E-01    1.0081826584E+00    1.0269964523E+00
    1.0452265876E+00    1.0628453686E+00    1.0798266429E+00    1.0961458375E+00
    1.1117799860E+00    1.1267077445E+00    1.1409093978E+00    1.1543668551E+00
    1.1670636366E+00    1.1789848506E+00    1.1901171615E+00    1.2004487502E+00
    1.2099692667E+00    1.2186697752E+00    1.2265426945E+00    1.2335817315E+00
    1.2397818116E+00    1.2451390048E+00    1.2496504495E+00    1.2533142744E+00
    1.2561295200E+00    1.2580960604E+00    1.2592145258E+00    1.2594862274E+00
    1.2589130859E+00    1.2574975628E+00    1.2552425976E+00    1.2521515493E+00
    1.2482281454E+00    1.2434764367E+00    1.2379007603E+00    1.2315057096E+00
    1.2242961141E+00    1.2162770263E+00    1.2074537181E+00    1.1978316866E+00
    1.1874166683E+00    1.1762146622E+00    1.1642319620E+00    1.1514751965E+00
    1.1379513782E+00    1.1236679590E+00    1.1086328936E+00    1.0928547088E+00
    1.0763425780E+00    1.0591064015E+00    1.0411568892E+00    1.0225056476E+00
    1.0031652676E+00    9.8314941349E-01    9.6247291148E-01    9.4115183708E-01
    9.1920359944E-01    8.9664702221E-01    8.7350241942E-01    8.4979166534E-01
    8.2553825715E-01    8.0076736948E-01    7.7550589968E-01    7.4978250295E-01
    7.2362761635E-01    6.9707347096E-01    6.7015409145E-01    6.4290528240E-01
    6.1536460086E-01    5.8757131476E-01    5.5956634684E-01    5.3139220388E-01
    5.0309289135E-01    4.7471381329E-01    4.4630165784E-01    4.1790426865E-01
    3.8957050268E-01    3.6135007488E-01    3.3329339061E-01    3.0545136652E-01
    2.7787524089E-01    2.5061637444E-01    2.2372604292E-01    1.9725522246E-01
    1.7125436938E-01    1.4577319556E-01    1.2086044105E-01    9.6563645396E-02
    7.2928919304E-02    5.0000718161E-02    2.7821619168E-02    6.4321036344E-03
   -1.4129653897E-02   -3.3827988113E-02   -5.2629935400E-02   -7.0505414802E-02
   -8.7427396011E-02   -1.0337205301E-01   -1.1831890206E-01   -1.3225092282E-01
   -1.4515466161E-01   -1.5702031561E-01   -1.6784179748E-01   -1.7761677937E-01
   -1.8634671600E-01   -1.9403684627E-01   -2.0069617314E-01   -2.0633742174E-01
   -2.1097697571E-01   -2.1463479207E-01   -2.1733429485E-01   -2.1910224820E-01
   -2.1996860956E-01   -2.1996636374E-01   -2.1913133901E-01   -2.1750200622E-01
   -2.1511926227E-01   -2.1202619938E-01   -2.0826786154E-01   -2.0389098988E-01
   -1.9894375862E-01   -1.9347550334E-01   -1.8753644346E-01   -1.8117740085E-01
   -1.7444951647E-01   -1.6740396692E-01   -1.6009168306E-01   -1.5256307246E-01
   -1.4486774766E-01   -1.3705426220E-01   -1.2916985619E-01   -1.2126021314E-01
   -1.1336922983E-01   -1.0553880073E-01   -9.7808618497E-02   -9.0215991830E-02
   -8.2795681959E-02   -7.5579758834E-02   -6.8597477928E-02   -6.1875178423E-02
   -5.5436203391E-02   -4.9300842383E-02   -4.3486296703E-02   -3.8006667435E-02
   -3.2872966136E-02   -2.8093147915E-02   -2.3672166449E-02   -1.9612050346E-02
   -1.5912000032E-02   -1.2568504254E-02   -9.5754750745E-03   -6.9244001533E-03
   -4.6045109178E-03   -2.6029651365E-03   -9.0504229604E-04    5.0564989550E-04
    1.6469597480E-03    2.5379677684E-03    3.1987609315E-03    3.6501936495E-03
    3.9136772735E-03    4.0110365007E-03    3.9644837363E-03    3.7970725810E-03
    3.5335593738E-03    3.1964063179E-03    2.8061147512E-03    2.3831094972E-03
    1.9470712409E-03    1.5168670299E-03    1.1104077944E-03    7.4470921692E-04
    4.3499844227E-04    1.9474825088E-04    4.3194819765E-05   -1.7345660545E-05
   -1.1849241874E-05    3.2314207876E-06    6.2771397152E-07   -6.7591605572E-07
    3.7589239699E-08    1.4835416027E-08    0.0000000000E+00    0.0000000000E+00
 0. 0. 0. 0.
 0. 0. 0. 0.
 0. 0. 0. 0.
 0. 0. 0. 0.
 0. 0. 0. 0.
 0. 0. 0. 0.
 0. 0. 0. 0.
 0. 0. 0. 0.
 0. 0. 0. 0.
 0. 0. 0. 0.
 0. 0. 0. 0.
 0. 0. 0. 0.
 0. 0. 0. 0.
 0. 0. 0. 0.
 0. 0. 0. 0.
 0. 0. 0. 0.
 0. 0. 0. 0.
 0. 0. 0. 0.
 0. 0. 0. 0.
 0. 0. 0. 0.
 0. 0. 0. 0.
 0. 0. 0. 0.
 0. 0. 0. 0.
 0. 0. 0. 0.
 0. 0. 0. 0.
 0. 0. 0. 0.
 0. 0. 0. 0.
 0. 0. 0. 0.
 0. 0. 0. 0.
 0. 0. 0. 0.
 0. 0. 0. 0.
 0. 0. 0. 0.
 0. 0. 0. 0.
 0. 0. 0. 0.
 0. 0. 0. 0.
 0. 0. 0. 0.
 0. 0. 0. 0.
 0. 0. 0. 0.
 0. 0. 0. 0.
 0. 0. 0. 0.
 0. 0. 0. 0.
 0. 0. 0. 0.
 0. 0. 0. 0.
 0. 0. 0. 0.
 0. 0. 0. 0.
 0. 0. 0. 0.
 0. 0. 0. 0.
 0. 0. 0. 0.
 0. 0. 0. 0.
 0. 0. 0. 0.
 0. 0. 0. 0.
 0. 0. 0. 0.
 0. 0. 0. 0.
 0. 0. 0. 0.
 0. 0. 0. 0.
 0. 0. 0. 0.
 0. 0. 0. 0.
 0. 0. 0. 0.
 0. 0. 0. 0.
 0. 0. 0. 0.
 0. 0. 0. 0.
 0. 0. 0. 0.
 0. 0. 0. 0.
 0. 0. 0. 0.
 0. 0. 0. 0.
 0. 0. 0. 0.
 0. 0. 0. 0.
 0. 0. 0. 0.
 0. 0. 0. 0.
 0. 0. 0. 0.
 0. 0. 0. 0.
 0. 0. 0. 0.
 0. 0. 0. 0.
 0. 0. 0. 0.
 0. 0. 0. 0.
 0. 0. 0. 0.
 0. 0. 0. 0.
 0. 0. 0. 0.
 0. 0. 0. 0.
 0. 0. 0. 0.
 0. 0. 0. 0.
 0. 0. 0. 0.
 0. 0. 0. 0.
 0. 0. 0. 0.
 0. 0. 0. 0.
 0. 0. 0. 0.
 0. 0. 0. 0.
 0. 0. 0. 0.
 0. 0. 0. 0.
 0. 0. 0. 0.
 0. 0. 0. 0.
 0. 0. 0. 0.
 0. 0. 0. 0.
 0. 0. 0. 0.
 0. 0. 0. 0.
 0. 0. 0. 0.
 0. 0. 0. 0.
 0. 0. 0. 0.
 0. 0. 0. 0.
 0. 0. 0. 0.
 0. 0. 0. 0.
 0. 0. 0. 0.
 0. 0. 0. 0.
 0. 0. 0. 0.
 0. 0. 0. 0.
 0. 0. 0. 0.
 0. 0. 0. 0.
 0. 0. 0. 0.
 0. 0. 0. 0.
 0. 0. 0. 0.
 0. 0. 0. 0.
 0. 0. 0. 0.
 0. 0. 0. 0.
 0. 0. 0. 0.
 0. 0. 0. 0.
 0. 0. 0. 0.
 0. 0. 0. 0.
 0. 0. 0. 0.
 0. 0. 0. 0.
 0. 0. 0. 0.
 0. 0. 0. 0.
 0. 0. 0. 0.
 0. 0. 0. 0.
 0. 0. 0. 0.
 0. 0. 0. 0.
 0. 0. 0. 0.
 0. 0. 0. 0.
 0. 0. 0. 0.
 0. 0. 0. 0.
 0. 0. 0. 0.
 0. 0. 0. 0.
 0. 0. 0. 0.
 0. 0. 0. 0.
 0. 0. 0. 0.
 0. 0. 0. 0.
 0. 0. 0. 0.
 0. 0. 0. 0.
 0. 0. 0. 0.
 0. 0. 0. 0.
 0. 0. 0. 0.
 0. 0. 0. 0.
 0. 0. 0. 0.
 0. 0. 0. 0.
 0. 0. 0. 0.
 0. 0. 0. 0.
 0. 0. 0. 0.
 0. 0. 0. 0.
 0. 0. 0. 0.
 0. 0. 0. 0.
 0. 0. 0. 0.
 0. 0. 0. 0.
 0. 0. 0. 0.
 0. 0. 0. 0.
 0. 0. 0. 0.
 0. 0. 0. 0.
 0. 0. 0. 0.
 0. 0. 0. 0.
 0. 0. 0. 0.
 0. 0. 0. 0.
 0. 0. 0. 0.
 0. 0. 0. 0.
 0. 0. 0. 0.
 0. 0. 0. 0.
 0. 0. 0. 0.
 0. 0. 0. 0.
 0. 0. 0. 0.
 0. 0. 0. 0.
 0. 0. 0. 0.
 0. 0. 0. 0.
 0. 0. 0. 0.
 0. 0. 0. 0.
 0. 0. 0. 0.
 0. 0. 0. 0.
 0. 0. 0. 0.
 0. 0. 0. 0.
 0. 0. 0. 0.
 0. 0. 0. 0.
 0. 0. 0. 0.
 0. 0. 0. 0.
 0. 0. 0. 0.
 0. 0. 0. 0.
 0. 0. 0. 0.
 0. 0. 0. 0.
 0. 0. 0. 0.
 0. 0. 0. 0.
 0. 0. 0. 0.
 0. 0. 0. 0.
 0. 0. 0. 0.
 0. 0. 0. 0.
 0. 0. 0. 0.
 0. 0. 0. 0.
 0. 0. 0. 0.
 0. 0. 0. 0.
 0. 0. 0. 0.
 0. 0. 0. 0.
 0. 0. 0. 0.
 0. 0. 0. 0.
 0. 0. 0. 0.
 0. 0. 0. 0.
 0. 0. 0. 0.
 0. 0. 0. 0.
 0. 0. 0. 0.
 0. 0. 0. 0.
 0. 0. 0. 0.
 0. 0. 0. 0.
 0. 0. 0. 0.
 0. 0. 0. 0.
 0. 0. 0. 0.
 0. 0. 0. 0.
 0. 0. 0. 0.
 0. 0. 0. 0.
 0. 0. 0. 0.
 0. 0. 0. 0.
 0. 0. 0. 0.
 0. 0. 0. 0.
 0. 0. 0. 0.
 0. 0. 0. 0.
 0. 0. 0. 0.
 0. 0. 0. 0.
 0. 0. 0. 0.
 0. 0. 0. 0.
 0. 0. 0. 0.
 0. 0. 0. 0.
 0. 0. 0. 0.
 0. 0. 0. 0.
 0. 0. 0. 0.
 0. 0. 0. 0.
 0. 0. 0. 0.
 0. 0. 0. 0.
 0. 0. 0. 0.
 0. 0. 0. 0.
 0. 0. 0. 0.
 0. 0. 0. 0.
 0. 0. 0. 0.
 0. 0. 0. 0.
 0. 0. 0. 0.
 0. 0. 0. 0.
 0. 0. 0. 0.
 0. 0. 0. 0.
 0. 0. 0. 0.
 0. 0. 0. 0.
 0. 0. 0. 0.
 0. 0. 0. 0.
 0. 0. 0. 0.
 0. 0. 0. 0.
 0. 0. 0. 0.
 0. 0. 0. 0.
 0. 0. 0. 0.
 0. 0. 0. 0.
 0. 0. 0. 0.
 0. 0. 0. 0.
 0. 0. 0. 0.
 0. 0. 0. 0.
 0. 0. 0. 0.
 0. 0. 0. 0.
 0. 0. 0. 0.
 0. 0. 0. 0.
 0. 0. 0. 0.
 0. 0. 0. 0.
 0. 0. 0. 0.
 0. 0. 0. 0.
 0. 0. 0. 0.
 0. 0. 0. 0.
 0. 0. 0. 0.
 0. 0. 0. 0.
 0. 0. 0. 0.
 0. 0. 0. 0.
 0. 0. 0. 0.
 0. 0. 0. 0.
 0. 0. 0. 0.
 0. 0. 0. 0.
 0. 0. 0. 0.
 0. 0. 0. 0.
 0. 0. 0. 0.
 0. 0. 0. 0.
 0. 0. 0. 0.
 0. 0. 0. 0.
 0. 0. 0. 0.
 0. 0. 0. 0.
 0. 0. 0. 0.
 0. 0. 0. 0.
 0. 0. 0. 0.
 0. 0. 0. 0.
 0. 0. 0. 0.
 0. 0. 0. 0.
 0. 0. 0. 0.
 0. 0. 0. 0.
   </PP_BETA.7>
   <PP_BETA.8
       type="real"
       size="1408"
       columns="4"
       index="8"
       angular_momentum="2"
       cutoff_radius_index=" 260"
       cutoff_radius="    2.5900000000E+00" >
   -2.3770605059E-11    3.3468351933E-06    2.6776066064E-05    9.0376896088E-05
    2.1425161002E-04    4.1852078484E-04    7.2332692203E-04    1.1488360032E-03
    1.7152364947E-03    2.4427353561E-03    3.3515506424E-03    4.4619003287E-03
    5.7939870294E-03    7.3679783340E-03    9.2039825306E-03    1.1322019545E-02
    1.3741986977E-02    1.6483621183E-02    1.9566453400E-02    2.3009760985E-02
    2.6832513891E-02    3.1053316569E-02    3.5690345545E-02    4.0761282977E-02
    4.6283246558E-02    5.2272716174E-02    5.8745457795E-02    6.5716445098E-02
    7.3199779382E-02    8.1208608376E-02    8.9755044541E-02    9.8850083537E-02
    1.0850352351E-01    1.1872388588E-01    1.2951833836E-01    1.4089262082E-01
    1.5285097475E-01    1.6539607702E-01    1.7852897847E-01    1.9224904809E-01
    2.0655392340E-01    2.2143946741E-01    2.3689973294E-01    2.5292693456E-01
    2.6951142874E-01    2.8664170239E-01    3.0430437029E-01    3.2248418146E-01
    3.4116403484E-01    3.6032500414E-01    3.7994637210E-01    4.0000567400E-01
    4.2047875034E-01    4.4133980841E-01    4.6256149266E-01    4.8411496334E-01
    5.0596998313E-01    5.2809501125E-01    5.5045730445E-01    5.7302302445E-01
    5.9575735099E-01    6.1862459992E-01    6.4158834558E-01    6.6461154663E-01
    6.8765667462E-01    7.1068584435E-01    7.3366094530E-01    7.5654377319E-01
    7.7929616087E-01    8.0188010760E-01    8.2425790601E-01    8.4639226580E-01
    8.6824643346E-01    8.8978430719E-01    9.1097054646E-01    9.3177067523E-01
    9.5215117862E-01    9.7207959207E-01    9.9152458284E-01    1.0104560231E+00
    1.0288450547E+00    1.0466641447E+00    1.0638871320E+00    1.0804892652E+00
    1.0964472301E+00    1.1117391694E+00    1.1263446923E+00    1.1402448759E+00
    1.1534222572E+00    1.1658608179E+00    1.1775459608E+00    1.1884644785E+00
    1.1986045168E+00    1.2079555302E+00    1.2165082331E+00    1.2242545461E+00
    1.2311875380E+00    1.2373013653E+00    1.2425912081E+00    1.2470532062E+00
    1.2506843928E+00    1.2534826298E+00    1.2554465432E+00    1.2565754604E+00
    1.2568693509E+00    1.2563287693E+00    1.2549548030E+00    1.2527490250E+00
    1.2497134515E+00    1.2458505057E+00    1.2411629880E+00    1.2356540536E+00
    1.2293271968E+00    1.2221862428E+00    1.2142353476E+00    1.2054790056E+00
    1.1959220645E+00    1.1855697488E+00    1.1744276897E+00    1.1625019636E+00
    1.1497991362E+00    1.1363263140E+00    1.1220912013E+00    1.1071021626E+00
    1.0913682898E+00    1.0748994729E+00    1.0577064744E+00    1.0398010054E+00
    1.0211958029E+00    1.0019047085E+00    9.8194274473E-01    9.6132619126E-01
    9.4007265764E-01    9.1820115247E-01    8.9573214790E-01    8.7268763831E-01
    8.4909119232E-01    8.2496799704E-01    8.0034489382E-01    7.7525040447E-01
    7.4971474740E-01    7.2376984263E-01    6.9744930541E-01    6.7078842764E-01
    6.4382414665E-01    6.1659500120E-01    5.8914107414E-01    5.6150392183E-01
    5.3372649017E-01    5.0585301736E-01    4.7792892361E-01    4.5000068800E-01
    4.2211571315E-01    3.9432217804E-01    3.6666887966E-01    3.3920506447E-01
    3.1198025023E-01    2.8504403947E-01    2.5844592539E-01    2.3223509166E-01
    2.0646020699E-01    1.8116921609E-01    1.5640912815E-01    1.3222580437E-01
    1.0866374596E-01    8.5765883991E-02    6.3573372751E-02    4.2125387909E-02
    2.1458931110E-02    1.6086423811E-03   -1.7393378198E-02   -3.5517738184E-02
   -5.2737908494E-02   -6.9030365902E-02   -8.4374721137E-02   -9.8753831491E-02
   -1.1215389694E-01   -1.2456453889E-01   -1.3597886081E-01   -1.4639349009E-01
   -1.5580860055E-01   -1.6422791539E-01   -1.7165869009E-01   -1.7811167545E-01
   -1.8360106059E-01   -1.8814439616E-01   -1.9176249828E-01   -1.9447933339E-01
   -1.9632188489E-01   -1.9732000225E-01   -1.9750623343E-01   -1.9691564182E-01
   -1.9558560858E-01   -1.9355562194E-01   -1.9086705459E-01   -1.8756293075E-01
   -1.8368768440E-01   -1.7928691039E-01   -1.7440710992E-01   -1.6909543229E-01
   -1.6339941460E-01   -1.5736672112E-01   -1.5104488428E-01   -1.4448104881E-01
   -1.3772172101E-01   -1.3081252475E-01   -1.2379796589E-01   -1.1672120669E-01
   -1.0962385185E-01   -1.0254574750E-01   -9.5524794593E-02   -8.8596777839E-02
   -8.1795211391E-02   -7.5151202220E-02   -6.8693332060E-02   -6.2447558620E-02
   -5.6437136644E-02   -5.0682559206E-02   -4.5201519530E-02   -4.0008893401E-02
   -3.5116742114E-02   -3.0534335744E-02   -2.6268196341E-02   -2.2322160543E-02
   -1.8697460897E-02   -1.5392825066E-02   -1.2404591964E-02   -9.7268437209E-03
   -7.3515522512E-03   -5.2687391053E-03   -3.4666471735E-03   -1.9319227547E-03
   -6.4980630324E-04    3.9566907598E-04    1.2214778521E-03    1.8453876201E-03
    2.2857765233E-03    2.5615254825E-03    2.6920361069E-03    2.6977667071E-03
    2.6012081363E-03    2.4226086520E-03    2.1803658984E-03    1.8930901857E-03
    1.5789192560E-03    1.2554732913E-03    9.3972805806E-04    6.4811752245E-04
    3.9552740685E-04    1.9512148342E-04    6.9505619696E-05    1.6185605494E-05
    1.1928422582E-06   -8.8024146227E-09    3.6851590559E-08    5.5795787356E-08
   -2.8180402285E-08   -1.1122012445E-08    0.0000000000E+00    0.0000000000E+00
 0. 0. 0. 0.
 0. 0. 0. 0.
 0. 0. 0. 0.
 0. 0. 0. 0.
 0. 0. 0. 0.
 0. 0. 0. 0.
 0. 0. 0. 0.
 0. 0. 0. 0.
 0. 0. 0. 0.
 0. 0. 0. 0.
 0. 0. 0. 0.
 0. 0. 0. 0.
 0. 0. 0. 0.
 0. 0. 0. 0.
 0. 0. 0. 0.
 0. 0. 0. 0.
 0. 0. 0. 0.
 0. 0. 0. 0.
 0. 0. 0. 0.
 0. 0. 0. 0.
 0. 0. 0. 0.
 0. 0. 0. 0.
 0. 0. 0. 0.
 0. 0. 0. 0.
 0. 0. 0. 0.
 0. 0. 0. 0.
 0. 0. 0. 0.
 0. 0. 0. 0.
 0. 0. 0. 0.
 0. 0. 0. 0.
 0. 0. 0. 0.
 0. 0. 0. 0.
 0. 0. 0. 0.
 0. 0. 0. 0.
 0. 0. 0. 0.
 0. 0. 0. 0.
 0. 0. 0. 0.
 0. 0. 0. 0.
 0. 0. 0. 0.
 0. 0. 0. 0.
 0. 0. 0. 0.
 0. 0. 0. 0.
 0. 0. 0. 0.
 0. 0. 0. 0.
 0. 0. 0. 0.
 0. 0. 0. 0.
 0. 0. 0. 0.
 0. 0. 0. 0.
 0. 0. 0. 0.
 0. 0. 0. 0.
 0. 0. 0. 0.
 0. 0. 0. 0.
 0. 0. 0. 0.
 0. 0. 0. 0.
 0. 0. 0. 0.
 0. 0. 0. 0.
 0. 0. 0. 0.
 0. 0. 0. 0.
 0. 0. 0. 0.
 0. 0. 0. 0.
 0. 0. 0. 0.
 0. 0. 0. 0.
 0. 0. 0. 0.
 0. 0. 0. 0.
 0. 0. 0. 0.
 0. 0. 0. 0.
 0. 0. 0. 0.
 0. 0. 0. 0.
 0. 0. 0. 0.
 0. 0. 0. 0.
 0. 0. 0. 0.
 0. 0. 0. 0.
 0. 0. 0. 0.
 0. 0. 0. 0.
 0. 0. 0. 0.
 0. 0. 0. 0.
 0. 0. 0. 0.
 0. 0. 0. 0.
 0. 0. 0. 0.
 0. 0. 0. 0.
 0. 0. 0. 0.
 0. 0. 0. 0.
 0. 0. 0. 0.
 0. 0. 0. 0.
 0. 0. 0. 0.
 0. 0. 0. 0.
 0. 0. 0. 0.
 0. 0. 0. 0.
 0. 0. 0. 0.
 0. 0. 0. 0.
 0. 0. 0. 0.
 0. 0. 0. 0.
 0. 0. 0. 0.
 0. 0. 0. 0.
 0. 0. 0. 0.
 0. 0. 0. 0.
 0. 0. 0. 0.
 0. 0. 0. 0.
 0. 0. 0. 0.
 0. 0. 0. 0.
 0. 0. 0. 0.
 0. 0. 0. 0.
 0. 0. 0. 0.
 0. 0. 0. 0.
 0. 0. 0. 0.
 0. 0. 0. 0.
 0. 0. 0. 0.
 0. 0. 0. 0.
 0. 0. 0. 0.
 0. 0. 0. 0.
 0. 0. 0. 0.
 0. 0. 0. 0.
 0. 0. 0. 0.
 0. 0. 0. 0.
 0. 0. 0. 0.
 0. 0. 0. 0.
 0. 0. 0. 0.
 0. 0. 0. 0.
 0. 0. 0. 0.
 0. 0. 0. 0.
 0. 0. 0. 0.
 0. 0. 0. 0.
 0. 0. 0. 0.
 0. 0. 0. 0.
 0. 0. 0. 0.
 0. 0. 0. 0.
 0. 0. 0. 0.
 0. 0. 0. 0.
 0. 0. 0. 0.
 0. 0. 0. 0.
 0. 0. 0. 0.
 0. 0. 0. 0.
 0. 0. 0. 0.
 0. 0. 0. 0.
 0. 0. 0. 0.
 0. 0. 0. 0.
 0. 0. 0. 0.
 0. 0. 0. 0.
 0. 0. 0. 0.
 0. 0. 0. 0.
 0. 0. 0. 0.
 0. 0. 0. 0.
 0. 0. 0. 0.
 0. 0. 0. 0.
 0. 0. 0. 0.
 0. 0. 0. 0.
 0. 0. 0. 0.
 0. 0. 0. 0.
 0. 0. 0. 0.
 0. 0. 0. 0.
 0. 0. 0. 0.
 0. 0. 0. 0.
 0. 0. 0. 0.
 0. 0. 0. 0.
 0. 0. 0. 0.
 0. 0. 0. 0.
 0. 0. 0. 0.
 0. 0. 0. 0.
 0. 0. 0. 0.
 0. 0. 0. 0.
 0. 0. 0. 0.
 0. 0. 0. 0.
 0. 0. 0. 0.
 0. 0. 0. 0.
 0. 0. 0. 0.
 0. 0. 0. 0.
 0. 0. 0. 0.
 0. 0. 0. 0.
 0. 0. 0. 0.
 0. 0. 0. 0.
 0. 0. 0. 0.
 0. 0. 0. 0.
 0. 0. 0. 0.
 0. 0. 0. 0.
 0. 0. 0. 0.
 0. 0. 0. 0.
 0. 0. 0. 0.
 0. 0. 0. 0.
 0. 0. 0. 0.
 0. 0. 0. 0.
 0. 0. 0. 0.
 0. 0. 0. 0.
 0. 0. 0. 0.
 0. 0. 0. 0.
 0. 0. 0. 0.
 0. 0. 0. 0.
 0. 0. 0. 0.
 0. 0. 0. 0.
 0. 0. 0. 0.
 0. 0. 0. 0.
 0. 0. 0. 0.
 0. 0. 0. 0.
 0. 0. 0. 0.
 0. 0. 0. 0.
 0. 0. 0. 0.
 0. 0. 0. 0.
 0. 0. 0. 0.
 0. 0. 0. 0.
 0. 0. 0. 0.
 0. 0. 0. 0.
 0. 0. 0. 0.
 0. 0. 0. 0.
 0. 0. 0. 0.
 0. 0. 0. 0.
 0. 0. 0. 0.
 0. 0. 0. 0.
 0. 0. 0. 0.
 0. 0. 0. 0.
 0. 0. 0. 0.
 0. 0. 0. 0.
 0. 0. 0. 0.
 0. 0. 0. 0.
 0. 0. 0. 0.
 0. 0. 0. 0.
 0. 0. 0. 0.
 0. 0. 0. 0.
 0. 0. 0. 0.
 0. 0. 0. 0.
 0. 0. 0. 0.
 0. 0. 0. 0.
 0. 0. 0. 0.
 0. 0. 0. 0.
 0. 0. 0. 0.
 0. 0. 0. 0.
 0. 0. 0. 0.
 0. 0. 0. 0.
 0. 0. 0. 0.
 0. 0. 0. 0.
 0. 0. 0. 0.
 0. 0. 0. 0.
 0. 0. 0. 0.
 0. 0. 0. 0.
 0. 0. 0. 0.
 0. 0. 0. 0.
 0. 0. 0. 0.
 0. 0. 0. 0.
 0. 0. 0. 0.
 0. 0. 0. 0.
 0. 0. 0. 0.
 0. 0. 0. 0.
 0. 0. 0. 0.
 0. 0. 0. 0.
 0. 0. 0. 0.
 0. 0. 0. 0.
 0. 0. 0. 0.
 0. 0. 0. 0.
 0. 0. 0. 0.
 0. 0. 0. 0.
 0. 0. 0. 0.
 0. 0. 0. 0.
 0. 0. 0. 0.
 0. 0. 0. 0.
 0. 0. 0. 0.
 0. 0. 0. 0.
 0. 0. 0. 0.
 0. 0. 0. 0.
 0. 0. 0. 0.
 0. 0. 0. 0.
 0. 0. 0. 0.
 0. 0. 0. 0.
 0. 0. 0. 0.
 0. 0. 0. 0.
 0. 0. 0. 0.
 0. 0. 0. 0.
 0. 0. 0. 0.
 0. 0. 0. 0.
 0. 0. 0. 0.
 0. 0. 0. 0.
 0. 0. 0. 0.
 0. 0. 0. 0.
 0. 0. 0. 0.
 0. 0. 0. 0.
 0. 0. 0. 0.
 0. 0. 0. 0.
 0. 0. 0. 0.
 0. 0. 0. 0.
 0. 0. 0. 0.
 0. 0. 0. 0.
 0. 0. 0. 0.
 0. 0. 0. 0.
 0. 0. 0. 0.
 0. 0. 0. 0.
 0. 0. 0. 0.
 0. 0. 0. 0.
 0. 0. 0. 0.
 0. 0. 0. 0.
 0. 0. 0. 0.
   </PP_BETA.8>
   <PP_BETA.9
       type="real"
       size="1408"
       columns="4"
       index="9"
       angular_momentum="2"
       cutoff_radius_index=" 260"
       cutoff_radius="    2.5900000000E+00" >
    9.4602844872E-11   -7.7695360972E-07   -6.2444004162E-06   -2.1236217825E-05
   -5.0870847471E-05   -1.0068809112E-04   -1.7677939075E-04   -2.8590953283E-04
   -4.3562781154E-04   -6.3436680188E-04   -8.9152703086E-04   -1.2175459914E-03
   -1.6239501181E-03   -2.1233885328E-03   -2.7296475751E-03   -3.4576453462E-03
   -4.3234057218E-03   -5.3440115252E-03   -6.5375367887E-03   -7.9229582728E-03
   -9.5200466583E-03   -1.1349238062E-02   -1.3431486763E-02   -1.5788100264E-02
   -1.8440558006E-02   -2.1410315303E-02   -2.4718594202E-02   -2.8386163215E-02
   -3.2433107967E-02   -3.6878594984E-02   -4.1740630956E-02   -4.7035819893E-02
   -5.2779120672E-02   -5.8983607533E-02   -6.5660236079E-02   -7.2817617353E-02
   -8.0461802523E-02   -8.8596080660E-02   -9.7220792000E-02   -1.0633315899E-01
   -1.1592713728E-01   -1.2599328863E-01   -1.3651867769E-01   -1.4748679405E-01
   -1.5887750127E-01   -1.7066701387E-01   -1.8282790325E-01   -1.9532913332E-01
   -2.0813612619E-01   -2.2121085796E-01   -2.3451198472E-01   -2.4799499798E-01
   -2.6161240914E-01   -2.7531396180E-01   -2.8904687067E-01   -3.0275608567E-01
   -3.1638457919E-01   -3.2987365466E-01   -3.4316327416E-01   -3.5619240241E-01
   -3.6889936478E-01   -3.8122221615E-01   -3.9309911801E-01   -4.0446872038E-01
   -4.1527054570E-01   -4.2544537124E-01   -4.3493560684E-01   -4.4368566482E-01
   -4.5164231871E-01   -4.5875504774E-01   -4.6497636400E-01   -4.7026211925E-01
   -4.7457178874E-01   -4.7786872929E-01   -4.8012040931E-01   -4.8129860850E-01
   -4.8137958534E-01   -4.8034421077E-01   -4.7817806659E-01   -4.7487150755E-01
   -4.7041968645E-01   -4.6482254177E-01   -4.5808474779E-01   -4.5021562744E-01
   -4.4122902854E-01   -4.3114316435E-01   -4.1998041973E-01   -4.0776712444E-01
   -3.9453329574E-01   -3.8031235226E-01   -3.6514080179E-01   -3.4905790581E-01
   -3.3210532367E-01   -3.1432673978E-01   -2.9576747708E-01   -2.7647410058E-01
   -2.5649401449E-01   -2.3587505687E-01   -2.1466509557E-01   -1.9291162944E-01
   -1.7066139861E-01   -1.4796000770E-01   -1.2485156569E-01   -1.0137834609E-01
   -7.7580470830E-02   -5.3495621199E-02   -2.9158778852E-02   -4.6019996844E-03
    2.0145776897E-02    4.5058881115E-02    7.0115026499E-02    9.5295382581E-02
    1.2058460548E-01    1.4597082561E-01    1.7144559221E-01    1.9700377466E-01
    2.2264342124E-01    2.4836557597E-01    2.7417405518E-01    3.0007518519E-01
    3.2607750347E-01    3.5219142563E-01    3.7842888125E-01    4.0480292164E-01
    4.3132730308E-01    4.5801604949E-01    4.8488299847E-01    5.1194133514E-01
    5.3920311821E-01    5.6667880303E-01    5.9437676634E-01    6.2230283759E-01
    6.5045984172E-01    6.7884715828E-01    7.0746030164E-01    7.3629052709E-01
    7.6532446730E-01    7.9454380352E-01    8.2392497574E-01    8.5343893552E-01
    8.8305094518E-01    9.1272042642E-01    9.4240086133E-01    9.7203974796E-01
    1.0015786127E+00    1.0309530806E+00    1.0600930051E+00    1.0889226571E+00
    1.1173609736E+00    1.1453218658E+00    1.1727145846E+00    1.1994441430E+00
    1.2254117920E+00    1.2505155488E+00    1.2746507730E+00    1.2977107876E+00
    1.3195875407E+00    1.3401723036E+00    1.3593564000E+00    1.3770319609E+00
    1.3930927006E+00    1.4074347066E+00    1.4199572382E+00    1.4305635272E+00
    1.4391615744E+00    1.4456649350E+00    1.4499934871E+00    1.4520741755E+00
    1.4518417264E+00    1.4492393244E+00    1.4442192471E+00    1.4367434511E+00
    1.4267841042E+00    1.4143240569E+00    1.3993572512E+00    1.3818890592E+00
    1.3619365500E+00    1.3395286800E+00    1.3147064043E+00    1.2875227071E+00
    1.2580425488E+00    1.2263427295E+00    1.1925116675E+00    1.1566490945E+00
    1.1188656669E+00    1.0792824958E+00    1.0380305978E+00    9.9525026881E-01
    9.5109038540E-01    9.0570763718E-01    8.5926569512E-01    8.1193432105E-01
    7.6388842436E-01    7.1530707177E-01    6.6637245738E-01    6.1726883970E-01
    5.6818145330E-01    5.1929540276E-01    4.7079454680E-01    4.2286038075E-01
    3.7567092548E-01    3.2939963101E-01    2.8421430305E-01    2.4027606040E-01
    1.9773833135E-01    1.5674589654E-01    1.1743398587E-01    7.9927436408E-02
    4.4339917974E-02    1.0773232621E-02   -2.0683306355E-02   -4.9953410739E-02
   -7.6974264571E-02   -1.0169687828E-01   -1.2408634663E-01   -1.4412200793E-01
   -1.6179750288E-01   -1.7712073201E-01   -1.9011371143E-01   -2.0081232750E-01
   -2.0926599172E-01   -2.1553719792E-01   -2.1970098452E-01   -2.2184430549E-01
   -2.2206531423E-01   -2.2047256529E-01   -2.1718413964E-01   -2.1232669945E-01
   -2.0603447941E-01   -1.9844822158E-01   -1.8971406167E-01   -1.7998237459E-01
   -1.6940658822E-01   -1.5814197045E-01   -1.4634442543E-01   -1.3416921099E-01
   -1.2176985456E-01   -1.0929751084E-01   -9.6900783326E-02   -8.4727295300E-02
   -7.2926720159E-02   -6.1635008375E-02   -5.0975444367E-02   -4.1065752442E-02
   -3.2015299932E-02   -2.3924647274E-02   -1.6884836293E-02   -1.0979143005E-02
   -6.2717934585E-03   -2.8075659400E-03   -7.3023845459E-04    7.7608967869E-05
    9.8276071511E-05   -2.8709364980E-05   -5.7446251991E-06    5.8642225063E-06
   -1.9998431264E-07   -7.8928185318E-08    0.0000000000E+00    0.0000000000E+00
 0. 0. 0. 0.
 0. 0. 0. 0.
 0. 0. 0. 0.
 0. 0. 0. 0.
 0. 0. 0. 0.
 0. 0. 0. 0.
 0. 0. 0. 0.
 0. 0. 0. 0.
 0. 0. 0. 0.
 0. 0. 0. 0.
 0. 0. 0. 0.
 0. 0. 0. 0.
 0. 0. 0. 0.
 0. 0. 0. 0.
 0. 0. 0. 0.
 0. 0. 0. 0.
 0. 0. 0. 0.
 0. 0. 0. 0.
 0. 0. 0. 0.
 0. 0. 0. 0.
 0. 0. 0. 0.
 0. 0. 0. 0.
 0. 0. 0. 0.
 0. 0. 0. 0.
 0. 0. 0. 0.
 0. 0. 0. 0.
 0. 0. 0. 0.
 0. 0. 0. 0.
 0. 0. 0. 0.
 0. 0. 0. 0.
 0. 0. 0. 0.
 0. 0. 0. 0.
 0. 0. 0. 0.
 0. 0. 0. 0.
 0. 0. 0. 0.
 0. 0. 0. 0.
 0. 0. 0. 0.
 0. 0. 0. 0.
 0. 0. 0. 0.
 0. 0. 0. 0.
 0. 0. 0. 0.
 0. 0. 0. 0.
 0. 0. 0. 0.
 0. 0. 0. 0.
 0. 0. 0. 0.
 0. 0. 0. 0.
 0. 0. 0. 0.
 0. 0. 0. 0.
 0. 0. 0. 0.
 0. 0. 0. 0.
 0. 0. 0. 0.
 0. 0. 0. 0.
 0. 0. 0. 0.
 0. 0. 0. 0.
 0. 0. 0. 0.
 0. 0. 0. 0.
 0. 0. 0. 0.
 0. 0. 0. 0.
 0. 0. 0. 0.
 0. 0. 0. 0.
 0. 0. 0. 0.
 0. 0. 0. 0.
 0. 0. 0. 0.
 0. 0. 0. 0.
 0. 0. 0. 0.
 0. 0. 0. 0.
 0. 0. 0. 0.
 0. 0. 0. 0.
 0. 0. 0. 0.
 0. 0. 0. 0.
 0. 0. 0. 0.
 0. 0. 0. 0.
 0. 0. 0. 0.
 0. 0. 0. 0.
 0. 0. 0. 0.
 0. 0. 0. 0.
 0. 0. 0. 0.
 0. 0. 0. 0.
 0. 0. 0. 0.
 0. 0. 0. 0.
 0. 0. 0. 0.
 0. 0. 0. 0.
 0. 0. 0. 0.
 0. 0. 0. 0.
 0. 0. 0. 0.
 0. 0. 0. 0.
 0. 0. 0. 0.
 0. 0. 0. 0.
 0. 0. 0. 0.
 0. 0. 0. 0.
 0. 0. 0. 0.
 0. 0. 0. 0.
 0. 0. 0. 0.
 0. 0. 0. 0.
 0. 0. 0. 0.
 0. 0. 0. 0.
 0. 0. 0. 0.
 0. 0. 0. 0.
 0. 0. 0. 0.
 0. 0. 0. 0.
 0. 0. 0. 0.
 0. 0. 0. 0.
 0. 0. 0. 0.
 0. 0. 0. 0.
 0. 0. 0. 0.
 0. 0. 0. 0.
 0. 0. 0. 0.
 0. 0. 0. 0.
 0. 0. 0. 0.
 0. 0. 0. 0.
 0. 0. 0. 0.
 0. 0. 0. 0.
 0. 0. 0. 0.
 0. 0. 0. 0.
 0. 0. 0. 0.
 0. 0. 0. 0.
 0. 0. 0. 0.
 0. 0. 0. 0.
 0. 0. 0. 0.
 0. 0. 0. 0.
 0. 0. 0. 0.
 0. 0. 0. 0.
 0. 0. 0. 0.
 0. 0. 0. 0.
 0. 0. 0. 0.
 0. 0. 0. 0.
 0. 0. 0. 0.
 0. 0. 0. 0.
 0. 0. 0. 0.
 0. 0. 0. 0.
 0. 0. 0. 0.
 0. 0. 0. 0.
 0. 0. 0. 0.
 0. 0. 0. 0.
 0. 0. 0. 0.
 0. 0. 0. 0.
 0. 0. 0. 0.
 0. 0. 0. 0.
 0. 0. 0. 0.
 0. 0. 0. 0.
 0. 0. 0. 0.
 0. 0. 0. 0.
 0. 0. 0. 0.
 0. 0. 0. 0.
 0. 0. 0. 0.
 0. 0. 0. 0.
 0. 0. 0. 0.
 0. 0. 0. 0.
 0. 0. 0. 0.
 0. 0. 0. 0.
 0. 0. 0. 0.
 0. 0. 0. 0.
 0. 0. 0. 0.
 0. 0. 0. 0.
 0. 0. 0. 0.
 0. 0. 0. 0.
 0. 0. 0. 0.
 0. 0. 0. 0.
 0. 0. 0. 0.
 0. 0. 0. 0.
 0. 0. 0. 0.
 0. 0. 0. 0.
 0. 0. 0. 0.
 0. 0. 0. 0.
 0. 0. 0. 0.
 0. 0. 0. 0.
 0. 0. 0. 0.
 0. 0. 0. 0.
 0. 0. 0. 0.
 0. 0. 0. 0.
 0. 0. 0. 0.
 0. 0. 0. 0.
 0. 0. 0. 0.
 0. 0. 0. 0.
 0. 0. 0. 0.
 0. 0. 0. 0.
 0. 0. 0. 0.
 0. 0. 0. 0.
 0. 0. 0. 0.
 0. 0. 0. 0.
 0. 0. 0. 0.
 0. 0. 0. 0.
 0. 0. 0. 0.
 0. 0. 0. 0.
 0. 0. 0. 0.
 0. 0. 0. 0.
 0. 0. 0. 0.
 0. 0. 0. 0.
 0. 0. 0. 0.
 0. 0. 0. 0.
 0. 0. 0. 0.
 0. 0. 0. 0.
 0. 0. 0. 0.
 0. 0. 0. 0.
 0. 0. 0. 0.
 0. 0. 0. 0.
 0. 0. 0. 0.
 0. 0. 0. 0.
 0. 0. 0. 0.
 0. 0. 0. 0.
 0. 0. 0. 0.
 0. 0. 0. 0.
 0. 0. 0. 0.
 0. 0. 0. 0.
 0. 0. 0. 0.
 0. 0. 0. 0.
 0. 0. 0. 0.
 0. 0. 0. 0.
 0. 0. 0. 0.
 0. 0. 0. 0.
 0. 0. 0. 0.
 0. 0. 0. 0.
 0. 0. 0. 0.
 0. 0. 0. 0.
 0. 0. 0. 0.
 0. 0. 0. 0.
 0. 0. 0. 0.
 0. 0. 0. 0.
 0. 0. 0. 0.
 0. 0. 0. 0.
 0. 0. 0. 0.
 0. 0. 0. 0.
 0. 0. 0. 0.
 0. 0. 0. 0.
 0. 0. 0. 0.
 0. 0. 0. 0.
 0. 0. 0. 0.
 0. 0. 0. 0.
 0. 0. 0. 0.
 0. 0. 0. 0.
 0. 0. 0. 0.
 0. 0. 0. 0.
 0. 0. 0. 0.
 0. 0. 0. 0.
 0. 0. 0. 0.
 0. 0. 0. 0.
 0. 0. 0. 0.
 0. 0. 0. 0.
 0. 0. 0. 0.
 0. 0. 0. 0.
 0. 0. 0. 0.
 0. 0. 0. 0.
 0. 0. 0. 0.
 0. 0. 0. 0.
 0. 0. 0. 0.
 0. 0. 0. 0.
 0. 0. 0. 0.
 0. 0. 0. 0.
 0. 0. 0. 0.
 0. 0. 0. 0.
 0. 0. 0. 0.
 0. 0. 0. 0.
 0. 0. 0. 0.
 0. 0. 0. 0.
 0. 0. 0. 0.
 0. 0. 0. 0.
 0. 0. 0. 0.
 0. 0. 0. 0.
 0. 0. 0. 0.
 0. 0. 0. 0.
 0. 0. 0. 0.
 0. 0. 0. 0.
 0. 0. 0. 0.
 0. 0. 0. 0.
 0. 0. 0. 0.
 0. 0. 0. 0.
 0. 0. 0. 0.
 0. 0. 0. 0.
 0. 0. 0. 0.
 0. 0. 0. 0.
 0. 0. 0. 0.
 0. 0. 0. 0.
 0. 0. 0. 0.
 0. 0. 0. 0.
 0. 0. 0. 0.
 0. 0. 0. 0.
 0. 0. 0. 0.
 0. 0. 0. 0.
 0. 0. 0. 0.
 0. 0. 0. 0.
 0. 0. 0. 0.
 0. 0. 0. 0.
 0. 0. 0. 0.
 0. 0. 0. 0.
 0. 0. 0. 0.
 0. 0. 0. 0.
 0. 0. 0. 0.
   </PP_BETA.9>
   <PP_BETA.10
       type="real"
       size="1408"
       columns="4"
       index="10"
       angular_momentum="2"
       cutoff_radius_index=" 260"
       cutoff_radius="    2.5900000000E+00" >
    8.8873264759E-11   -9.5553051708E-07   -7.6703676622E-06   -2.6033993738E-05
   -6.2194185090E-05   -1.2268103863E-04   -2.1452491733E-04   -3.4536639300E-04
   -5.2355635333E-04   -7.5824455000E-04   -1.0594549930E-03   -1.4381467436E-03
   -1.9062588223E-03   -2.4767381258E-03   -3.1635494407E-03   -3.9816668425E-03
   -4.9470459830E-03   -6.0765769875E-03   -7.3880179074E-03   -8.8999089022E-03
   -1.0631467549E-02   -1.2602465906E-02   -1.4833090176E-02   -1.7343784022E-02
   -2.0155076816E-02   -2.3287398258E-02   -2.6760881013E-02   -3.0595153181E-02
   -3.4809122527E-02   -3.9420754576E-02   -4.4446846760E-02   -4.9902800883E-02
   -5.5802396278E-02   -6.2157566017E-02   -6.8978178607E-02   -7.6271827563E-02
   -8.4043631237E-02   -9.2296045222E-02   -1.0102868957E-01   -1.1023819296E-01
   -1.1991805587E-01   -1.3005853455E-01   -1.4064654756E-01   -1.5166560634E-01
   -1.6309577120E-01   -1.7491363372E-01   -1.8709232647E-01   -1.9960156074E-01
   -2.1240769239E-01   -2.2547381630E-01   -2.3875988887E-01   -2.5222287837E-01
   -2.6581694235E-01   -2.7949363117E-01   -2.9320211639E-01   -3.0688944257E-01
   -3.2050080071E-01   -3.3397982152E-01   -3.4726888613E-01   -3.6030945215E-01
   -3.7304239236E-01   -3.8540834344E-01   -3.9734806197E-01   -4.0880278463E-01
   -4.1971458983E-01   -4.3002675757E-01   -4.3968412453E-01   -4.4863343128E-01
   -4.5682365873E-01   -4.6420635059E-01   -4.7073591930E-01   -4.7636993237E-01
   -4.8106937671E-01   -4.8479889851E-01   -4.8752701625E-01   -4.8922630507E-01
   -4.8987355053E-01   -4.8944987030E-01   -4.8794080259E-01   -4.8533636023E-01
   -4.8163104989E-01   -4.7682385608E-01   -4.7091818977E-01   -4.6392180217E-01
   -4.5584666412E-01   -4.4670881208E-01   -4.3652816210E-01   -4.2532829314E-01
   -4.1313620188E-01   -3.9998203092E-01   -3.8589877300E-01   -3.7092195375E-01
   -3.5508929603E-01   -3.3844036877E-01   -3.2101622381E-01   -3.0285902388E-01
   -2.8401166551E-01   -2.6451740034E-01   -2.4441945845E-01   -2.2376067759E-01
   -2.0258314173E-01   -1.8092783271E-01   -1.5883429845E-01   -1.3634034111E-01
   -1.1348172849E-01   -9.0291931701E-02   -6.6801891984E-02   -4.3039819210E-02
   -1.9031024481E-02    5.2022112158E-03    2.9640730573E-02    5.4268554377E-02
    7.9072895789E-02    1.0404413385E-01    1.2917574599E-01    1.5446419965E-01
    1.7990880365E-01    2.0551152011E-01    2.3127673847E-01    2.5721101310E-01
    2.8332276681E-01    3.0962196264E-01    3.3611974672E-01    3.6282806542E-01
    3.8975926023E-01    4.1692564397E-01    4.4433906251E-01    4.7201044596E-01
    4.9994935388E-01    5.2816351881E-01    5.5665839294E-01    5.8543670240E-01
    6.1449801393E-01    6.4383831861E-01    6.7344963718E-01    7.0331965150E-01
    7.3343136652E-01    7.6376280671E-01    7.9428675123E-01    8.2497051107E-01
    8.5577575186E-01    8.8665836511E-01    9.1756839066E-01    9.4844999245E-01
    9.7924148946E-01    1.0098754432E+00    1.0402788024E+00    1.0703731058E+00
    1.1000747419E+00    1.1292952667E+00    1.1579417761E+00    1.1859173334E+00
    1.2131214485E+00    1.2394506065E+00    1.2647988425E+00    1.2890583594E+00
    1.3121201836E+00    1.3338748561E+00    1.3542131519E+00    1.3730268242E+00
    1.3902093674E+00    1.4056567929E+00    1.4192684125E+00    1.4309476220E+00
    1.4406026807E+00    1.4481474779E+00    1.4535022832E+00    1.4565944709E+00
    1.4573592148E+00    1.4557401469E+00    1.4516899721E+00    1.4451710367E+00
    1.4361558416E+00    1.4246274979E+00    1.4105801191E+00    1.3940191458E+00
    1.3749615984E+00    1.3534362566E+00    1.3294837605E+00    1.3031566327E+00
    1.2745192194E+00    1.2436475492E+00    1.2106291100E+00    1.1755625436E+00
    1.1385572592E+00    1.0997329679E+00    1.0592191389E+00    1.0171543827E+00
    9.7368576208E-01    9.2896803701E-01    8.8316284716E-01    8.3643783726E-01
    7.8896573111E-01    7.4092336040E-01    6.9249065475E-01    6.4384960007E-01
    5.9518317230E-01    5.4667425421E-01    4.9850454279E-01    4.5085345532E-01
    4.0389704190E-01    3.5780691251E-01    3.1274918651E-01    2.6888347256E-01
    2.2636188642E-01    1.8532811444E-01    1.4591652958E-01    1.0825136717E-01
    7.2445966543E-02    3.8602084878E-02    6.8092885129E-03   -2.2855573136E-02
   -5.0328806739E-02   -7.5560223517E-02   -9.8513393885E-02   -1.1916580588E-01
   -1.3750892568E-01   -1.5354815921E-01   -1.6730271458E-01   -1.7880536595E-01
   -1.8810211996E-01   -1.9525178678E-01   -2.0032545853E-01   -2.0340589842E-01
   -2.0458684483E-01   -2.0397223494E-01   -2.0167535364E-01   -1.9781791323E-01
   -1.9252907091E-01   -1.8594439082E-01   -1.7820475809E-01   -1.6945525276E-01
   -1.5984399207E-01   -1.4952094542E-01   -1.3863676303E-01   -1.2734150947E-01
   -1.1578363458E-01   -1.0410947429E-01   -9.2463283347E-02   -8.0989294270E-02
   -6.9835458863E-02   -5.9135322657E-02   -4.9009422600E-02   -3.9573697577E-02
   -3.0936410187E-02   -2.3197771731E-02   -1.6449247161E-02   -1.0775544454E-02
   -6.2423548640E-03   -2.8947418989E-03   -8.9920953790E-04   -1.0729051412E-04
    2.8402304807E-05   -1.1480558691E-05   -2.6181839996E-06    1.9554266693E-06
    1.6124908370E-07    6.3640479558E-08    0.0000000000E+00    0.0000000000E+00
 0. 0. 0. 0.
 0. 0. 0. 0.
 0. 0. 0. 0.
 0. 0. 0. 0.
 0. 0. 0. 0.
 0. 0. 0. 0.
 0. 0. 0. 0.
 0. 0. 0. 0.
 0. 0. 0. 0.
 0. 0. 0. 0.
 0. 0. 0. 0.
 0. 0. 0. 0.
 0. 0. 0. 0.
 0. 0. 0. 0.
 0. 0. 0. 0.
 0. 0. 0. 0.
 0. 0. 0. 0.
 0. 0. 0. 0.
 0. 0. 0. 0.
 0. 0. 0. 0.
 0. 0. 0. 0.
 0. 0. 0. 0.
 0. 0. 0. 0.
 0. 0. 0. 0.
 0. 0. 0. 0.
 0. 0. 0. 0.
 0. 0. 0. 0.
 0. 0. 0. 0.
 0. 0. 0. 0.
 0. 0. 0. 0.
 0. 0. 0. 0.
 0. 0. 0. 0.
 0. 0. 0. 0.
 0. 0. 0. 0.
 0. 0. 0. 0.
 0. 0. 0. 0.
 0. 0. 0. 0.
 0. 0. 0. 0.
 0. 0. 0. 0.
 0. 0. 0. 0.
 0. 0. 0. 0.
 0. 0. 0. 0.
 0. 0. 0. 0.
 0. 0. 0. 0.
 0. 0. 0. 0.
 0. 0. 0. 0.
 0. 0. 0. 0.
 0. 0. 0. 0.
 0. 0. 0. 0.
 0. 0. 0. 0.
 0. 0. 0. 0.
 0. 0. 0. 0.
 0. 0. 0. 0.
 0. 0. 0. 0.
 0. 0. 0. 0.
 0. 0. 0. 0.
 0. 0. 0. 0.
 0. 0. 0. 0.
 0. 0. 0. 0.
 0. 0. 0. 0.
 0. 0. 0. 0.
 0. 0. 0. 0.
 0. 0. 0. 0.
 0. 0. 0. 0.
 0. 0. 0. 0.
 0. 0. 0. 0.
 0. 0. 0. 0.
 0. 0. 0. 0.
 0. 0. 0. 0.
 0. 0. 0. 0.
 0. 0. 0. 0.
 0. 0. 0. 0.
 0. 0. 0. 0.
 0. 0. 0. 0.
 0. 0. 0. 0.
 0. 0. 0. 0.
 0. 0. 0. 0.
 0. 0. 0. 0.
 0. 0. 0. 0.
 0. 0. 0. 0.
 0. 0. 0. 0.
 0. 0. 0. 0.
 0. 0. 0. 0.
 0. 0. 0. 0.
 0. 0. 0. 0.
 0. 0. 0. 0.
 0. 0. 0. 0.
 0. 0. 0. 0.
 0. 0. 0. 0.
 0. 0. 0. 0.
 0. 0. 0. 0.
 0. 0. 0. 0.
 0. 0. 0. 0.
 0. 0. 0. 0.
 0. 0. 0. 0.
 0. 0. 0. 0.
 0. 0. 0. 0.
 0. 0. 0. 0.
 0. 0. 0. 0.
 0. 0. 0. 0.
 0. 0. 0. 0.
 0. 0. 0. 0.
 0. 0. 0. 0.
 0. 0. 0. 0.
 0. 0. 0. 0.
 0. 0. 0. 0.
 0. 0. 0. 0.
 0. 0. 0. 0.
 0. 0. 0. 0.
 0. 0. 0. 0.
 0. 0. 0. 0.
 0. 0. 0. 0.
 0. 0. 0. 0.
 0. 0. 0. 0.
 0. 0. 0. 0.
 0. 0. 0. 0.
 0. 0. 0. 0.
 0. 0. 0. 0.
 0. 0. 0. 0.
 0. 0. 0. 0.
 0. 0. 0. 0.
 0. 0. 0. 0.
 0. 0. 0. 0.
 0. 0. 0. 0.
 0. 0. 0. 0.
 0. 0. 0. 0.
 0. 0. 0. 0.
 0. 0. 0. 0.
 0. 0. 0. 0.
 0. 0. 0. 0.
 0. 0. 0. 0.
 0. 0. 0. 0.
 0. 0. 0. 0.
 0. 0. 0. 0.
 0. 0. 0. 0.
 0. 0. 0. 0.
 0. 0. 0. 0.
 0. 0. 0. 0.
 0. 0. 0. 0.
 0. 0. 0. 0.
 0. 0. 0. 0.
 0. 0. 0. 0.
 0. 0. 0. 0.
 0. 0. 0. 0.
 0. 0. 0. 0.
 0. 0. 0. 0.
 0. 0. 0. 0.
 0. 0. 0. 0.
 0. 0. 0. 0.
 0. 0. 0. 0.
 0. 0. 0. 0.
 0. 0. 0. 0.
 0. 0. 0. 0.
 0. 0. 0. 0.
 0. 0. 0. 0.
 0. 0. 0. 0.
 0. 0. 0. 0.
 0. 0. 0. 0.
 0. 0. 0. 0.
 0. 0. 0. 0.
 0. 0. 0. 0.
 0. 0. 0. 0.
 0. 0. 0. 0.
 0. 0. 0. 0.
 0. 0. 0. 0.
 0. 0. 0. 0.
 0. 0. 0. 0.
 0. 0. 0. 0.
 0. 0. 0. 0.
 0. 0. 0. 0.
 0. 0. 0. 0.
 0. 0. 0. 0.
 0. 0. 0. 0.
 0. 0. 0. 0.
 0. 0. 0. 0.
 0. 0. 0. 0.
 0. 0. 0. 0.
 0. 0. 0. 0.
 0. 0. 0. 0.
 0. 0. 0. 0.
 0. 0. 0. 0.
 0. 0. 0. 0.
 0. 0. 0. 0.
 0. 0. 0. 0.
 0. 0. 0. 0.
 0. 0. 0. 0.
 0. 0. 0. 0.
 0. 0. 0. 0.
 0. 0. 0. 0.
 0. 0. 0. 0.
 0. 0. 0. 0.
 0. 0. 0. 0.
 0. 0. 0. 0.
 0. 0. 0. 0.
 0. 0. 0. 0.
 0. 0. 0. 0.
 0. 0. 0. 0.
 0. 0. 0. 0.
 0. 0. 0. 0.
 0. 0. 0. 0.
 0. 0. 0. 0.
 0. 0. 0. 0.
 0. 0. 0. 0.
 0. 0. 0. 0.
 0. 0. 0. 0.
 0. 0. 0. 0.
 0. 0. 0. 0.
 0. 0. 0. 0.
 0. 0. 0. 0.
 0. 0. 0. 0.
 0. 0. 0. 0.
 0. 0. 0. 0.
 0. 0. 0. 0.
 0. 0. 0. 0.
 0. 0. 0. 0.
 0. 0. 0. 0.
 0. 0. 0. 0.
 0. 0. 0. 0.
 0. 0. 0. 0.
 0. 0. 0. 0.
 0. 0. 0. 0.
 0. 0. 0. 0.
 0. 0. 0. 0.
 0. 0. 0. 0.
 0. 0. 0. 0.
 0. 0. 0. 0.
 0. 0. 0. 0.
 0. 0. 0. 0.
 0. 0. 0. 0.
 0. 0. 0. 0.
 0. 0. 0. 0.
 0. 0. 0. 0.
 0. 0. 0. 0.
 0. 0. 0. 0.
 0. 0. 0. 0.
 0. 0. 0. 0.
 0. 0. 0. 0.
 0. 0. 0. 0.
 0. 0. 0. 0.
 0. 0. 0. 0.
 0. 0. 0. 0.
 0. 0. 0. 0.
 0. 0. 0. 0.
 0. 0. 0. 0.
 0. 0. 0. 0.
 0. 0. 0. 0.
 0. 0. 0. 0.
 0. 0. 0. 0.
 0. 0. 0. 0.
 0. 0. 0. 0.
 0. 0. 0. 0.
 0. 0. 0. 0.
 0. 0. 0. 0.
 0. 0. 0. 0.
 0. 0. 0. 0.
 0. 0. 0. 0.
 0. 0. 0. 0.
 0. 0. 0. 0.
 0. 0. 0. 0.
 0. 0. 0. 0.
 0. 0. 0. 0.
 0. 0. 0. 0.
 0. 0. 0. 0.
 0. 0. 0. 0.
 0. 0. 0. 0.
 0. 0. 0. 0.
 0. 0. 0. 0.
 0. 0. 0. 0.
 0. 0. 0. 0.
 0. 0. 0. 0.
 0. 0. 0. 0.
 0. 0. 0. 0.
 0. 0. 0. 0.
 0. 0. 0. 0.
 0. 0. 0. 0.
 0. 0. 0. 0.
 0. 0. 0. 0.
 0. 0. 0. 0.
 0. 0. 0. 0.
 0. 0. 0. 0.
 0. 0. 0. 0.
 0. 0. 0. 0.
 0. 0. 0. 0.
 0. 0. 0. 0.
 0. 0. 0. 0.
 0. 0. 0. 0.
 0. 0. 0. 0.
   </PP_BETA.10>
   <PP_BETA.11
       type="real"
       size="1408"
       columns="4"
       index="11"
       angular_momentum="3"
       cutoff_radius_index=" 260"
       cutoff_radius="    2.5900000000E+00" >
   -6.4047095806E-11    9.0983469968E-08    1.4549350642E-06    7.3588604194E-06
    2.3227810042E-05    5.6615060284E-05    1.1716060435E-04    2.1653818871E-04
    3.6839119438E-04    5.8825772409E-04    8.9348531548E-04    1.3031357557E-03
    1.8378805250E-03    2.5198874451E-03    3.3726991496E-03    4.4211040370E-03
    5.6910003948E-03    7.2092544176E-03    9.0035528624E-03    1.1102251104E-02
    1.3534217366E-02    1.6328673914E-02    1.9515035989E-02    2.3122749281E-02
    2.7181126695E-02    3.1719185208E-02    3.6765483526E-02    4.2347961307E-02
    4.8493780624E-02    5.5229170363E-02    6.2579274198E-02    7.0568002746E-02
    7.9217890488E-02    8.8549958004E-02    9.8583579997E-02    1.0933635960E-01
    1.2082400935E-01    1.3306023928E-01    1.4605665236E-01    1.5982264767E-01
    1.7436533164E-01    1.8968943732E-01    2.0579725224E-01    2.2268855468E-01
    2.4036055872E-01    2.5880786799E-01    2.7802243832E-01    2.9799354929E-01
    3.1870778463E-01    3.4014902159E-01    3.6229842917E-01    3.8513447523E-01
    4.0863294236E-01    4.3276695256E-01    4.5750700053E-01    4.8282099556E-01
    5.0867431189E-01    5.3502984752E-01    5.6184809120E-01    5.8908719765E-01
    6.1670307075E-01    6.4464945470E-01    6.7287803283E-01    7.0133853412E-01
    7.2997884706E-01    7.5874514079E-01    7.8758199337E-01    8.1643252680E-01
    8.4523854873E-01    8.7394070056E-01    9.0247861166E-01    9.3079105934E-01
    9.5881613445E-01    9.8649141203E-01    1.0137541268E+00    1.0405413530E+00
    1.0667901883E+00    1.0924379407E+00    1.1174223192E+00    1.1416816261E+00
    1.1651549514E+00    1.1877823685E+00    1.2095051305E+00    1.2302658660E+00
    1.2500087744E+00    1.2686798196E+00    1.2862269213E+00    1.3026001429E+00
    1.3177518756E+00    1.3316370181E+00    1.3442131501E+00    1.3554406993E+00
    1.3652831018E+00    1.3737069534E+00    1.3806821526E+00    1.3861820333E+00
    1.3901834875E+00    1.3926670761E+00    1.3936171276E+00    1.3930218246E+00
    1.3908732764E+00    1.3871675779E+00    1.3819048538E+00    1.3750892880E+00
    1.3667291380E+00    1.3568367330E+00    1.3454284570E+00    1.3325247152E+00
    1.3181498852E+00    1.3023322513E+00    1.2851039241E+00    1.2665007436E+00
    1.2465621676E+00    1.2253311452E+00    1.2028539755E+00    1.1791801536E+00
    1.1543622026E+00    1.1284554938E+00    1.1015180555E+00    1.0736103714E+00
    1.0447951690E+00    1.0151372006E+00    9.8470301582E-01    9.5356072855E-01
    9.2177977911E-01    8.8943069215E-01    8.5658483236E-01    8.2331415879E-01
    7.8969097917E-01    7.5578770548E-01    7.2167661195E-01    6.8742959675E-01
    6.5311794853E-01    6.1881211884E-01    5.8458150169E-01    5.5049422109E-01
    5.1661692763E-01    4.8301460492E-01    4.4975038670E-01    4.1688538537E-01
    3.8447853249E-01    3.5258643186E-01    3.2126322555E-01    2.9056047328E-01
    2.6052704532E-01    2.3120902912E-01    2.0264964970E-01    1.7488920371E-01
    1.4796500706E-01    1.2191135589E-01    9.6759500526E-02    7.2537632091E-02
    4.9270881224E-02    2.6981328445E-02    5.6880255214E-03   -1.4592972789E-02
   -3.3848567322E-02   -5.2068564143E-02   -6.9245615997E-02   -8.5375156344E-02
   -1.0045532678E-01   -1.1448689861E-01   -1.2747318943E-01   -1.3941997536E-01
   -1.5033539980E-01   -1.6022987942E-01   -1.6911600799E-01   -1.7700845876E-01
   -1.8392388598E-01   -1.8988082611E-01   -1.9489959920E-01   -1.9900221084E-01
   -2.0221225515E-01   -2.0455481901E-01   -2.0605638782E-01   -2.0674475297E-01
   -2.0664892114E-01   -2.0579902552E-01   -2.0422623883E-01   -2.0196268821E-01
   -1.9904137190E-01   -1.9549607734E-01   -1.9136130081E-01   -1.8667216814E-01
   -1.8146435632E-01   -1.7577401579E-01   -1.6963769308E-01   -1.6309225339E-01
   -1.5617480311E-01   -1.4892261166E-01   -1.4137303262E-01   -1.3356342379E-01
   -1.2553106595E-01   -1.1731308027E-01   -1.0894634401E-01   -1.0046740457E-01
   -9.1912391856E-02   -8.3316928796E-02   -7.4716040251E-02   -6.6144060342E-02
   -5.7634538395E-02   -4.9220143748E-02   -4.0932569721E-02   -3.2802437104E-02
   -2.4859197591E-02   -1.7131037623E-02   -9.6447831716E-03   -2.4258060236E-03
    4.5020678192E-03    1.1116646983E-02    1.7397460136E-02    2.3325837287E-02
    2.8884986257E-02    3.4060063626E-02    3.8838239447E-02    4.3208755034E-02
    4.7162973164E-02    5.0694420047E-02    5.3798818472E-02    5.6474111574E-02
    5.8720476724E-02    6.0540329121E-02    6.1938314712E-02    6.2921292164E-02
    6.3498303680E-02    6.3680534550E-02    6.3481261425E-02    6.2915789355E-02
    6.2001377807E-02    6.0757155901E-02    5.9204027246E-02    5.7364564865E-02
    5.5262896701E-02    5.2924582916E-02    5.0376480589E-02    4.7646618465E-02
    4.4764028422E-02    4.1758490394E-02    3.8660269287E-02    3.5499905036E-02
    3.2308079011E-02    2.9115386946E-02    2.5952239723E-02    2.2848857363E-02
    1.9836562032E-02    1.6945452971E-02    1.4202664659E-02    1.1634440327E-02
    9.2658987993E-03    7.1208393478E-03    5.2216573936E-03    3.5892430606E-03
    2.2438609132E-03    1.1960328312E-03    4.7543564802E-04    1.0933231972E-04
   -3.1445639720E-06   -2.7839742076E-06    4.0136524669E-06   -3.8818139326E-07
 0. 0. 0. 0.
 0. 0. 0. 0.
 0. 0. 0. 0.
 0. 0. 0. 0.
 0. 0. 0. 0.
 0. 0. 0. 0.
 0. 0. 0. 0.
 0. 0. 0. 0.
 0. 0. 0. 0.
 0. 0. 0. 0.
 0. 0. 0. 0.
 0. 0. 0. 0.
 0. 0. 0. 0.
 0. 0. 0. 0.
 0. 0. 0. 0.
 0. 0. 0. 0.
 0. 0. 0. 0.
 0. 0. 0. 0.
 0. 0. 0. 0.
 0. 0. 0. 0.
 0. 0. 0. 0.
 0. 0. 0. 0.
 0. 0. 0. 0.
 0. 0. 0. 0.
 0. 0. 0. 0.
 0. 0. 0. 0.
 0. 0. 0. 0.
 0. 0. 0. 0.
 0. 0. 0. 0.
 0. 0. 0. 0.
 0. 0. 0. 0.
 0. 0. 0. 0.
 0. 0. 0. 0.
 0. 0. 0. 0.
 0. 0. 0. 0.
 0. 0. 0. 0.
 0. 0. 0. 0.
 0. 0. 0. 0.
 0. 0. 0. 0.
 0. 0. 0. 0.
 0. 0. 0. 0.
 0. 0. 0. 0.
 0. 0. 0. 0.
 0. 0. 0. 0.
 0. 0. 0. 0.
 0. 0. 0. 0.
 0. 0. 0. 0.
 0. 0. 0. 0.
 0. 0. 0. 0.
 0. 0. 0. 0.
 0. 0. 0. 0.
 0. 0. 0. 0.
 0. 0. 0. 0.
 0. 0. 0. 0.
 0. 0. 0. 0.
 0. 0. 0. 0.
 0. 0. 0. 0.
 0. 0. 0. 0.
 0. 0. 0. 0.
 0. 0. 0. 0.
 0. 0. 0. 0.
 0. 0. 0. 0.
 0. 0. 0. 0.
 0. 0. 0. 0.
 0. 0. 0. 0.
 0. 0. 0. 0.
 0. 0. 0. 0.
 0. 0. 0. 0.
 0. 0. 0. 0.
 0. 0. 0. 0.
 0. 0. 0. 0.
 0. 0. 0. 0.
 0. 0. 0. 0.
 0. 0. 0. 0.
 0. 0. 0. 0.
 0. 0. 0. 0.
 0. 0. 0. 0.
 0. 0. 0. 0.
 0. 0. 0. 0.
 0. 0. 0. 0.
 0. 0. 0. 0.
 0. 0. 0. 0.
 0. 0. 0. 0.
 0. 0. 0. 0.
 0. 0. 0. 0.
 0. 0. 0. 0.
 0. 0. 0. 0.
 0. 0. 0. 0.
 0. 0. 0. 0.
 0. 0. 0. 0.
 0. 0. 0. 0.
 0. 0. 0. 0.
 0. 0. 0. 0.
 0. 0. 0. 0.
 0. 0. 0. 0.
 0. 0. 0. 0.
 0. 0. 0. 0.
 0. 0. 0. 0.
 0. 0. 0. 0.
 0. 0. 0. 0.
 0. 0. 0. 0.
 0. 0. 0. 0.
 0. 0. 0. 0.
 0. 0. 0. 0.
 0. 0. 0. 0.
 0. 0. 0. 0.
 0. 0. 0. 0.
 0. 0. 0. 0.
 0. 0. 0. 0.
 0. 0. 0. 0.
 0. 0. 0. 0.
 0. 0. 0. 0.
 0. 0. 0. 0.
 0. 0. 0. 0.
 0. 0. 0. 0.
 0. 0. 0. 0.
 0. 0. 0. 0.
 0. 0. 0. 0.
 0. 0. 0. 0.
 0. 0. 0. 0.
 0. 0. 0. 0.
 0. 0. 0. 0.
 0. 0. 0. 0.
 0. 0. 0. 0.
 0. 0. 0. 0.
 0. 0. 0. 0.
 0. 0. 0. 0.
 0. 0. 0. 0.
 0. 0. 0. 0.
 0. 0. 0. 0.
 0. 0. 0. 0.
 0. 0. 0. 0.
 0. 0. 0. 0.
 0. 0. 0. 0.
 0. 0. 0. 0.
 0. 0. 0. 0.
 0. 0. 0. 0.
 0. 0. 0. 0.
 0. 0. 0. 0.
 0. 0. 0. 0.
 0. 0. 0. 0.
 0. 0. 0. 0.
 0. 0. 0. 0.
 0. 0. 0. 0.
 0. 0. 0. 0.
 0. 0. 0. 0.
 0. 0. 0. 0.
 0. 0. 0. 0.
 0. 0. 0. 0.
 0. 0. 0. 0.
 0. 0. 0. 0.
 0. 0. 0. 0.
 0. 0. 0. 0.
 0. 0. 0. 0.
 0. 0. 0. 0.
 0. 0. 0. 0.
 0. 0. 0. 0.
 0. 0. 0. 0.
 0. 0. 0. 0.
 0. 0. 0. 0.
 0. 0. 0. 0.
 0. 0. 0. 0.
 0. 0. 0. 0.
 0. 0. 0. 0.
 0. 0. 0. 0.
 0. 0. 0. 0.
 0. 0. 0. 0.
 0. 0. 0. 0.
 0. 0. 0. 0.
 0. 0. 0. 0.
 0. 0. 0. 0.
 0. 0. 0. 0.
 0. 0. 0. 0.
 0. 0. 0. 0.
 0. 0. 0. 0.
 0. 0. 0. 0.
 0. 0. 0. 0.
 0. 0. 0. 0.
 0. 0. 0. 0.
 0. 0. 0. 0.
 0. 0. 0. 0.
 0. 0. 0. 0.
 0. 0. 0. 0.
 0. 0. 0. 0.
 0. 0. 0. 0.
 0. 0. 0. 0.
 0. 0. 0. 0.
 0. 0. 0. 0.
 0. 0. 0. 0.
 0. 0. 0. 0.
 0. 0. 0. 0.
 0. 0. 0. 0.
 0. 0. 0. 0.
 0. 0. 0. 0.
 0. 0. 0. 0.
 0. 0. 0. 0.
 0. 0. 0. 0.
 0. 0. 0. 0.
 0. 0. 0. 0.
 0. 0. 0. 0.
 0. 0. 0. 0.
 0. 0. 0. 0.
 0. 0. 0. 0.
 0. 0. 0. 0.
 0. 0. 0. 0.
 0. 0. 0. 0.
 0. 0. 0. 0.
 0. 0. 0. 0.
 0. 0. 0. 0.
 0. 0. 0. 0.
 0. 0. 0. 0.
 0. 0. 0. 0.
 0. 0. 0. 0.
 0. 0. 0. 0.
 0. 0. 0. 0.
 0. 0. 0. 0.
 0. 0. 0. 0.
 0. 0. 0. 0.
 0. 0. 0. 0.
 0. 0. 0. 0.
 0. 0. 0. 0.
 0. 0. 0. 0.
 0. 0. 0. 0.
 0. 0. 0. 0.
 0. 0. 0. 0.
 0. 0. 0. 0.
 0. 0. 0. 0.
 0. 0. 0. 0.
 0. 0. 0. 0.
 0. 0. 0. 0.
 0. 0. 0. 0.
 0. 0. 0. 0.
 0. 0. 0. 0.
 0. 0. 0. 0.
 0. 0. 0. 0.
 0. 0. 0. 0.
 0. 0. 0. 0.
 0. 0. 0. 0.
 0. 0. 0. 0.
 0. 0. 0. 0.
 0. 0. 0. 0.
 0. 0. 0. 0.
 0. 0. 0. 0.
 0. 0. 0. 0.
 0. 0. 0. 0.
 0. 0. 0. 0.
 0. 0. 0. 0.
 0. 0. 0. 0.
 0. 0. 0. 0.
 0. 0. 0. 0.
 0. 0. 0. 0.
 0. 0. 0. 0.
 0. 0. 0. 0.
 0. 0. 0. 0.
 0. 0. 0. 0.
 0. 0. 0. 0.
 0. 0. 0. 0.
 0. 0. 0. 0.
 0. 0. 0. 0.
 0. 0. 0. 0.
 0. 0. 0. 0.
 0. 0. 0. 0.
 0. 0. 0. 0.
 0. 0. 0. 0.
 0. 0. 0. 0.
 0. 0. 0. 0.
 0. 0. 0. 0.
 0. 0. 0. 0.
 0. 0. 0. 0.
 0. 0. 0. 0.
 0. 0. 0. 0.
 0. 0. 0. 0.
 0. 0. 0. 0.
 0. 0. 0. 0.
 0. 0. 0. 0.
 0. 0. 0. 0.
 0. 0. 0. 0.
 0. 0. 0. 0.
 0. 0. 0. 0.
 0. 0. 0. 0.
 0. 0. 0. 0.
 0. 0. 0. 0.
 0. 0. 0. 0.
 0. 0. 0. 0.
 0. 0. 0. 0.
 0. 0. 0. 0.
 0. 0. 0. 0.
   </PP_BETA.11>
   <PP_BETA.12
       type="real"
       size="1408"
       columns="4"
       index="12"
       angular_momentum="3"
       cutoff_radius_index=" 260"
       cutoff_radius="    2.5900000000E+00" >
   -7.1094827779E-11    9.5952008845E-08    1.5343667874E-06    7.7604365494E-06
    2.4494572831E-05    5.9700175907E-05    1.2353877616E-04    2.2831280899E-04
    3.8839635601E-04    6.2015425359E-04    9.4185003506E-04    1.3735432344E-03
    1.9369766365E-03    2.6554541113E-03    3.5537097183E-03    4.6577688084E-03
    5.9948018877E-03    7.5929720404E-03    9.4812767307E-03    1.1689384825E-02
    1.4247469687E-02    1.7186039211E-02    2.0535763646E-02    2.4327302081E-02
    2.8591128437E-02    3.3357357787E-02    3.8655573840E-02    4.4514658358E-02
    5.0962623281E-02    5.8026446276E-02    6.5731910417E-02    7.4103448639E-02
    8.3163993580E-02    9.2934833392E-02    1.0343547403E-01    1.1468350853E-01
    1.2669449366E-01    1.3948183437E-01    1.5305667645E-01    1.6742780753E-01
    1.8260156683E-01    1.9858176384E-01    2.1536960606E-01    2.3296363603E-01
    2.5135967764E-01    2.7055079189E-01    2.9052724211E-01    3.1127646866E-01
    3.3278307312E-01    3.5502881186E-01    3.7799259909E-01    4.0165051921E-01
    4.2597584839E-01    4.5093908540E-01    4.7650799139E-01    5.0264763877E-01
    5.2932046885E-01    5.5648635819E-01    5.8410269363E-01    6.1212445574E-01
    6.4050431058E-01    6.6919270963E-01    6.9813799785E-01    7.2728652944E-01
    7.5658279144E-01    7.8596953478E-01    8.1538791260E-01    8.4477762577E-01
    8.7407707521E-01    9.0322352082E-01    9.3215324684E-01    9.6080173315E-01
    9.8910383235E-01    1.0169939522E+00    1.0444062430E+00    1.0712747894E+00
    1.0975338068E+00    1.1231178403E+00    1.1479619680E+00    1.1720020055E+00
    1.1951747135E+00    1.2174180049E+00    1.2386711545E+00    1.2588750064E+00
    1.2779721820E+00    1.2959072850E+00    1.3126271044E+00    1.3280808136E+00
    1.3422201655E+00    1.3549996819E+00    1.3663768368E+00    1.3763122323E+00
    1.3847697670E+00    1.3917167950E+00    1.3971242746E+00    1.4009669070E+00
    1.4032232627E+00    1.4038758957E+00    1.4029114443E+00    1.4003207176E+00
    1.3960987680E+00    1.3902449471E+00    1.3827629473E+00    1.3736608252E+00
    1.3629510097E+00    1.3506502920E+00    1.3367797989E+00    1.3213649477E+00
    1.3044353849E+00    1.2860249059E+00    1.2661713591E+00    1.2449165312E+00
    1.2223060176E+00    1.1983890752E+00    1.1732184608E+00    1.1468502541E+00
    1.1193436666E+00    1.0907608376E+00    1.0611666177E+00    1.0306283417E+00
    9.9921559082E-01    9.6699994634E-01    9.3405473601E-01    9.0045477375E-01
    8.6627609468E-01    8.3159568653E-01    7.9649121897E-01    7.6104077217E-01
    7.2532256609E-01    6.8941469184E-01    6.5339484649E-01    6.1734007271E-01
    5.8132650457E-01    5.4542912062E-01    5.0972150564E-01    4.7427562201E-01
    4.3916159182E-01    4.0444749076E-01    3.7019915443E-01    3.3647999808E-01
    3.0335085035E-01    2.7086980148E-01    2.3909206664E-01    2.0806986447E-01
    1.7785231128E-01    1.4848533088E-01    1.2001158008E-01    9.2470389765E-02
    6.5897721312E-02    4.0326138013E-02    1.5784791136E-02   -7.7005799087E-03
   -3.0107633885E-02   -5.1417401182E-02   -7.1614245139E-02   -9.0685812018E-02
   -1.0862297048E-01   -1.2541974143E-01   -1.4107321912E-01   -1.5558348453E-01
   -1.6895351175E-01   -1.8118906862E-01   -1.9229861219E-01   -2.0229318024E-01
   -2.1118627952E-01   -2.1899377163E-01   -2.2573375731E-01   -2.3142646002E-01
   -2.3609410920E-01   -2.3976082424E-01   -2.4245249933E-01   -2.4419668997E-01
   -2.4502250138E-01   -2.4496047920E-01   -2.4404250279E-01   -2.4230168125E-01
   -2.3977225223E-01   -2.3648948376E-01   -2.3248957881E-01   -2.2780958267E-01
   -2.2248729294E-01   -2.1656117192E-01   -2.1007026109E-01   -2.0305409748E-01
   -1.9555263154E-01   -1.8760614614E-01   -1.7925517639E-01   -1.7054042982E-01
   -1.6150270660E-01   -1.5218281944E-01   -1.4262151271E-01   -1.3285938061E-01
   -1.2293678395E-01   -1.1289376541E-01   -1.0276996299E-01   -9.2604521495E-02
   -8.2436002041E-02   -7.2302289477E-02   -6.2240497798E-02   -5.2286873639E-02
   -4.2476698051E-02   -3.2844186787E-02   -2.3422389451E-02   -1.4243087877E-02
   -5.3366942259E-03    3.2678506845E-03    1.1543178219E-02    1.9463591294E-02
    2.7005161579E-02    3.4145823796E-02    4.0865466349E-02    4.7146017483E-02
    5.2971526166E-02    5.8328236876E-02    6.3204657475E-02    6.7591619368E-02
    7.1482329171E-02    7.4872411140E-02    7.7759939668E-02    8.0145461182E-02
    8.2032004888E-02    8.3425081816E-02    8.4332671767E-02    8.4765197785E-02
    8.4735487940E-02    8.4258724241E-02    8.3352378671E-02    8.2036136376E-02
    8.0331806221E-02    7.8263218990E-02    7.5856113655E-02    7.3138012226E-02
    7.0138083797E-02    6.6886998979E-02    6.3416771167E-02    5.9760604291E-02
    5.5952701593E-02    5.2027998641E-02    4.8021888602E-02    4.3969992427E-02
    3.9907996562E-02    3.5871397656E-02    3.1895379440E-02    2.8014786294E-02
    2.4265441403E-02    2.0681714389E-02    1.7294696860E-02    1.4134341115E-02
    1.1229199755E-02    8.6062053530E-03    6.2905672030E-03    4.3056511913E-03
    2.6739598211E-03    1.4070660715E-03    5.3726464405E-04    9.3074757368E-05
   -3.0842996348E-05   -6.3246517176E-06    8.1725385469E-06   -9.8719274283E-07
 0. 0. 0. 0.
 0. 0. 0. 0.
 0. 0. 0. 0.
 0. 0. 0. 0.
 0. 0. 0. 0.
 0. 0. 0. 0.
 0. 0. 0. 0.
 0. 0. 0. 0.
 0. 0. 0. 0.
 0. 0. 0. 0.
 0. 0. 0. 0.
 0. 0. 0. 0.
 0. 0. 0. 0.
 0. 0. 0. 0.
 0. 0. 0. 0.
 0. 0. 0. 0.
 0. 0. 0. 0.
 0. 0. 0. 0.
 0. 0. 0. 0.
 0. 0. 0. 0.
 0. 0. 0. 0.
 0. 0. 0. 0.
 0. 0. 0. 0.
 0. 0. 0. 0.
 0. 0. 0. 0.
 0. 0. 0. 0.
 0. 0. 0. 0.
 0. 0. 0. 0.
 0. 0. 0. 0.
 0. 0. 0. 0.
 0. 0. 0. 0.
 0. 0. 0. 0.
 0. 0. 0. 0.
 0. 0. 0. 0.
 0. 0. 0. 0.
 0. 0. 0. 0.
 0. 0. 0. 0.
 0. 0. 0. 0.
 0. 0. 0. 0.
 0. 0. 0. 0.
 0. 0. 0. 0.
 0. 0. 0. 0.
 0. 0. 0. 0.
 0. 0. 0. 0.
 0. 0. 0. 0.
 0. 0. 0. 0.
 0. 0. 0. 0.
 0. 0. 0. 0.
 0. 0. 0. 0.
 0. 0. 0. 0.
 0. 0. 0. 0.
 0. 0. 0. 0.
 0. 0. 0. 0.
 0. 0. 0. 0.
 0. 0. 0. 0.
 0. 0. 0. 0.
 0. 0. 0. 0.
 0. 0. 0. 0.
 0. 0. 0. 0.
 0. 0. 0. 0.
 0. 0. 0. 0.
 0. 0. 0. 0.
 0. 0. 0. 0.
 0. 0. 0. 0.
 0. 0. 0. 0.
 0. 0. 0. 0.
 0. 0. 0. 0.
 0. 0. 0. 0.
 0. 0. 0. 0.
 0. 0. 0. 0.
 0. 0. 0. 0.
 0. 0. 0. 0.
 0. 0. 0. 0.
 0. 0. 0. 0.
 0. 0. 0. 0.
 0. 0. 0. 0.
 0. 0. 0. 0.
 0. 0. 0. 0.
 0. 0. 0. 0.
 0. 0. 0. 0.
 0. 0. 0. 0.
 0. 0. 0. 0.
 0. 0. 0. 0.
 0. 0. 0. 0.
 0. 0. 0. 0.
 0. 0. 0. 0.
 0. 0. 0. 0.
 0. 0. 0. 0.
 0. 0. 0. 0.
 0. 0. 0. 0.
 0. 0. 0. 0.
 0. 0. 0. 0.
 0. 0. 0. 0.
 0. 0. 0. 0.
 0. 0. 0. 0.
 0. 0. 0. 0.
 0. 0. 0. 0.
 0. 0. 0. 0.
 0. 0. 0. 0.
 0. 0. 0. 0.
 0. 0. 0. 0.
 0. 0. 0. 0.
 0. 0. 0. 0.
 0. 0. 0. 0.
 0. 0. 0. 0.
 0. 0. 0. 0.
 0. 0. 0. 0.
 0. 0. 0. 0.
 0. 0. 0. 0.
 0. 0. 0. 0.
 0. 0. 0. 0.
 0. 0. 0. 0.
 0. 0. 0. 0.
 0. 0. 0. 0.
 0. 0. 0. 0.
 0. 0. 0. 0.
 0. 0. 0. 0.
 0. 0. 0. 0.
 0. 0. 0. 0.
 0. 0. 0. 0.
 0. 0. 0. 0.
 0. 0. 0. 0.
 0. 0. 0. 0.
 0. 0. 0. 0.
 0. 0. 0. 0.
 0. 0. 0. 0.
 0. 0. 0. 0.
 0. 0. 0. 0.
 0. 0. 0. 0.
 0. 0. 0. 0.
 0. 0. 0. 0.
 0. 0. 0. 0.
 0. 0. 0. 0.
 0. 0. 0. 0.
 0. 0. 0. 0.
 0. 0. 0. 0.
 0. 0. 0. 0.
 0. 0. 0. 0.
 0. 0. 0. 0.
 0. 0. 0. 0.
 0. 0. 0. 0.
 0. 0. 0. 0.
 0. 0. 0. 0.
 0. 0. 0. 0.
 0. 0. 0. 0.
 0. 0. 0. 0.
 0. 0. 0. 0.
 0. 0. 0. 0.
 0. 0. 0. 0.
 0. 0. 0. 0.
 0. 0. 0. 0.
 0. 0. 0. 0.
 0. 0. 0. 0.
 0. 0. 0. 0.
 0. 0. 0. 0.
 0. 0. 0. 0.
 0. 0. 0. 0.
 0. 0. 0. 0.
 0. 0. 0. 0.
 0. 0. 0. 0.
 0. 0. 0. 0.
 0. 0. 0. 0.
 0. 0. 0. 0.
 0. 0. 0. 0.
 0. 0. 0. 0.
 0. 0. 0. 0.
 0. 0. 0. 0.
 0. 0. 0. 0.
 0. 0. 0. 0.
 0. 0. 0. 0.
 0. 0. 0. 0.
 0. 0. 0. 0.
 0. 0. 0. 0.
 0. 0. 0. 0.
 0. 0. 0. 0.
 0. 0. 0. 0.
 0. 0. 0. 0.
 0. 0. 0. 0.
 0. 0. 0. 0.
 0. 0. 0. 0.
 0. 0. 0. 0.
 0. 0. 0. 0.
 0. 0. 0. 0.
 0. 0. 0. 0.
 0. 0. 0. 0.
 0. 0. 0. 0.
 0. 0. 0. 0.
 0. 0. 0. 0.
 0. 0. 0. 0.
 0. 0. 0. 0.
 0. 0. 0. 0.
 0. 0. 0. 0.
 0. 0. 0. 0.
 0. 0. 0. 0.
 0. 0. 0. 0.
 0. 0. 0. 0.
 0. 0. 0. 0.
 0. 0. 0. 0.
 0. 0. 0. 0.
 0. 0. 0. 0.
 0. 0. 0. 0.
 0. 0. 0. 0.
 0. 0. 0. 0.
 0. 0. 0. 0.
 0. 0. 0. 0.
 0. 0. 0. 0.
 0. 0. 0. 0.
 0. 0. 0. 0.
 0. 0. 0. 0.
 0. 0. 0. 0.
 0. 0. 0. 0.
 0. 0. 0. 0.
 0. 0. 0. 0.
 0. 0. 0. 0.
 0. 0. 0. 0.
 0. 0. 0. 0.
 0. 0. 0. 0.
 0. 0. 0. 0.
 0. 0. 0. 0.
 0. 0. 0. 0.
 0. 0. 0. 0.
 0. 0. 0. 0.
 0. 0. 0. 0.
 0. 0. 0. 0.
 0. 0. 0. 0.
 0. 0. 0. 0.
 0. 0. 0. 0.
 0. 0. 0. 0.
 0. 0. 0. 0.
 0. 0. 0. 0.
 0. 0. 0. 0.
 0. 0. 0. 0.
 0. 0. 0. 0.
 0. 0. 0. 0.
 0. 0. 0. 0.
 0. 0. 0. 0.
 0. 0. 0. 0.
 0. 0. 0. 0.
 0. 0. 0. 0.
 0. 0. 0. 0.
 0. 0. 0. 0.
 0. 0. 0. 0.
 0. 0. 0. 0.
 0. 0. 0. 0.
 0. 0. 0. 0.
 0. 0. 0. 0.
 0. 0. 0. 0.
 0. 0. 0. 0.
 0. 0. 0. 0.
 0. 0. 0. 0.
 0. 0. 0. 0.
 0. 0. 0. 0.
 0. 0. 0. 0.
 0. 0. 0. 0.
 0. 0. 0. 0.
 0. 0. 0. 0.
 0. 0. 0. 0.
 0. 0. 0. 0.
 0. 0. 0. 0.
 0. 0. 0. 0.
 0. 0. 0. 0.
 0. 0. 0. 0.
 0. 0. 0. 0.
 0. 0. 0. 0.
 0. 0. 0. 0.
 0. 0. 0. 0.
 0. 0. 0. 0.
 0. 0. 0. 0.
 0. 0. 0. 0.
 0. 0. 0. 0.
 0. 0. 0. 0.
 0. 0. 0. 0.
 0. 0. 0. 0.
 0. 0. 0. 0.
 0. 0. 0. 0.
 0. 0. 0. 0.
 0. 0. 0. 0.
 0. 0. 0. 0.
 0. 0. 0. 0.
 0. 0. 0. 0.
 0. 0. 0. 0.
 0. 0. 0. 0.
 0. 0. 0. 0.
 0. 0. 0. 0.
 0. 0. 0. 0.
 0. 0. 0. 0.
 0. 0. 0. 0.
   </PP_BETA.12>
   <PP_BETA.13
       type="real"
       size="1408"
       columns="4"
       index="13"
       angular_momentum="3"
       cutoff_radius_index=" 260"
       cutoff_radius="    2.5900000000E+00" >
    1.6805703910E-10   -1.0550037975E-07   -1.6865604240E-06   -8.5260292029E-06
   -2.6892654596E-05   -6.5487402006E-05   -1.3536893625E-04   -2.4985889438E-04
   -4.2442774514E-04   -6.7656219067E-04   -1.0256152159E-03   -1.4926400294E-03
   -2.1002092651E-03   -2.8722209262E-03   -3.8336926488E-03   -5.0105459429E-03
   -6.4293821336E-03   -8.1172517709E-03   -1.0101419306E-02   -1.2409124847E-02
   -1.5067344790E-02   -1.8102553125E-02   -2.1540485137E-02   -2.5405905214E-02
   -2.9722380359E-02   -3.4512060963E-02   -3.9795470258E-02   -4.5591303803E-02
   -5.1916240194E-02   -5.8784764112E-02   -6.6209002654E-02   -7.4198575772E-02
   -8.2760461497E-02   -9.1898876500E-02   -1.0161517238E-01   -1.1190774796E-01
   -1.2277197766E-01   -1.3420015605E-01   -1.4618145834E-01   -1.5870191667E-01
   -1.7174441175E-01   -1.8528867951E-01   -1.9931133219E-01   -2.1378589325E-01
   -2.2868284546E-01   -2.4396969155E-01   -2.5961102650E-01   -2.7556862093E-01
   -2.9180151465E-01   -3.0826611970E-01   -3.2491633212E-01   -3.4170365176E-01
   -3.5857730934E-01   -3.7548440033E-01   -3.9237002480E-01   -4.0917743299E-01
   -4.2584817599E-01   -4.4232226109E-01   -4.5853831170E-01   -4.7443373136E-01
   -4.8994487178E-01   -5.0500720479E-01   -5.1955549809E-01   -5.3352399490E-01
   -5.4684659745E-01   -5.5945705444E-01   -5.7128915268E-01   -5.8227691283E-01
   -5.9235478966E-01   -6.0145787671E-01   -6.0952211564E-01   -6.1648451031E-01
   -6.2228334562E-01   -6.2685841108E-01   -6.3015122914E-01   -6.3210528796E-01
   -6.3266627851E-01   -6.3178233560E-01   -6.2940428227E-01   -6.2548587721E-01
   -6.1998406423E-01   -6.1285922316E-01   -6.0407542104E-01   -5.9360066274E-01
   -5.8140713951E-01   -5.6747147438E-01   -5.5177496278E-01   -5.3430380680E-01
   -5.1504934159E-01   -4.9400825194E-01   -4.7118277723E-01   -4.4658090300E-01
   -4.2021653701E-01   -3.9210966788E-01   -3.6228650443E-01   -3.3077959362E-01
   -2.9762791522E-01   -2.6287695145E-01   -2.2657872963E-01   -1.8879183632E-01
   -1.4958140136E-01   -1.0901905042E-01   -6.7182824812E-02   -2.4157067652E-02
    1.9967724595E-02    6.5095085625E-02    1.1112279827E-01    1.5794314898E-01
    2.0544321763E-01    2.5350520217E-01    3.0200677731E-01    3.5082148627E-01
    3.9981916417E-01    4.4886639147E-01    4.9782697549E-01    5.4656245792E-01
    5.9493264573E-01    6.4279616288E-01    6.9001101987E-01    7.3643519796E-01
    7.8192724470E-01    8.2634687737E-01    8.6955559063E-01    9.1141726456E-01
    9.5179876944E-01    9.9057056330E-01    1.0276072783E+00    1.0627882924E+00
    1.0959982817E+00    1.1271277514E+00    1.1560735395E+00    1.1827392921E+00
    1.2070359051E+00    1.2288819309E+00    1.2482039468E+00    1.2649368811E+00
    1.2790242979E+00    1.2904186356E+00    1.2990813992E+00    1.3049833050E+00
    1.3081043770E+00    1.3084339933E+00    1.3059708853E+00    1.3007230861E+00
    1.2927078328E+00    1.2819514207E+00    1.2684890124E+00    1.2523644036E+00
    1.2336297467E+00    1.2123452357E+00    1.1885787549E+00    1.1624054934E+00
    1.1339075303E+00    1.1031733926E+00    1.0702975897E+00    1.0353801287E+00
    9.9852601407E-01    9.5984473467E-01    9.1944974362E-01    8.7745793340E-01
    8.3398911074E-01    7.8916547474E-01    7.4311110188E-01    6.9595144119E-01
    6.4781282296E-01    5.9882198378E-01    5.4910561078E-01    4.9878990746E-01
    4.4800018320E-01    3.9686046843E-01    3.4549315683E-01    2.9401867578E-01
    2.4255518591E-01    1.9121831017E-01    1.4012089258E-01    8.9372786455E-02
    3.9080671584E-02   -1.0652100555E-02   -5.9725634620E-02   -1.0804359374E-01
   -1.5551327805E-01   -2.0204568125E-01   -2.4755552747E-01   -2.9196129052E-01
   -3.3518519803E-01   -3.7715322300E-01   -4.1779506527E-01   -4.5704412547E-01
   -4.9483747420E-01   -5.3111581870E-01   -5.6582346969E-01   -5.9890831056E-01
   -6.3032177116E-01   -6.6001880812E-01   -6.8795789354E-01   -7.1410101347E-01
   -7.3841367761E-01   -7.6086494112E-01   -7.8142743921E-01   -8.0007743497E-01
   -8.1679488048E-01   -8.3156349088E-01   -8.4437083091E-01   -8.5520841287E-01
   -8.6407180503E-01   -8.7096074860E-01   -8.7587928184E-01   -8.7883586897E-01
   -8.7984353168E-01   -8.7891998067E-01   -8.7608774458E-01   -8.7137429334E-01
   -8.6481215301E-01   -8.5643900909E-01   -8.4629779510E-01   -8.3443676332E-01
   -8.2090953476E-01   -8.0577512518E-01   -7.8909794430E-01   -7.7094776562E-01
   -7.5139966410E-01   -7.3053391954E-01   -7.0843588352E-01   -6.8519580822E-01
   -6.6090863554E-01   -6.3567374563E-01   -6.0959466391E-01   -5.8277872636E-01
   -5.5533670303E-01   -5.2738238036E-01   -4.9903210307E-01   -4.7040427679E-01
   -4.4161883361E-01   -4.1279665815E-01   -3.8405902023E-01   -3.5552683191E-01
   -3.2732019045E-01   -2.9955858162E-01   -2.7236113107E-01   -2.4584639682E-01
   -2.2013176822E-01   -1.9533234692E-01   -1.7156109867E-01   -1.4892983620E-01
   -1.2756211340E-01   -1.0757147551E-01   -8.9045815869E-02   -7.2069654691E-02
   -5.6722577351E-02   -4.3077921266E-02   -3.1202676908E-02   -2.1157098249E-02
   -1.2999276191E-02   -6.7402481711E-03   -2.4849576833E-03   -3.2049151242E-04
    2.3764913649E-04    4.0127334705E-05   -5.0359121460E-05    6.4905610173E-06
 0. 0. 0. 0.
 0. 0. 0. 0.
 0. 0. 0. 0.
 0. 0. 0. 0.
 0. 0. 0. 0.
 0. 0. 0. 0.
 0. 0. 0. 0.
 0. 0. 0. 0.
 0. 0. 0. 0.
 0. 0. 0. 0.
 0. 0. 0. 0.
 0. 0. 0. 0.
 0. 0. 0. 0.
 0. 0. 0. 0.
 0. 0. 0. 0.
 0. 0. 0. 0.
 0. 0. 0. 0.
 0. 0. 0. 0.
 0. 0. 0. 0.
 0. 0. 0. 0.
 0. 0. 0. 0.
 0. 0. 0. 0.
 0. 0. 0. 0.
 0. 0. 0. 0.
 0. 0. 0. 0.
 0. 0. 0. 0.
 0. 0. 0. 0.
 0. 0. 0. 0.
 0. 0. 0. 0.
 0. 0. 0. 0.
 0. 0. 0. 0.
 0. 0. 0. 0.
 0. 0. 0. 0.
 0. 0. 0. 0.
 0. 0. 0. 0.
 0. 0. 0. 0.
 0. 0. 0. 0.
 0. 0. 0. 0.
 0. 0. 0. 0.
 0. 0. 0. 0.
 0. 0. 0. 0.
 0. 0. 0. 0.
 0. 0. 0. 0.
 0. 0. 0. 0.
 0. 0. 0. 0.
 0. 0. 0. 0.
 0. 0. 0. 0.
 0. 0. 0. 0.
 0. 0. 0. 0.
 0. 0. 0. 0.
 0. 0. 0. 0.
 0. 0. 0. 0.
 0. 0. 0. 0.
 0. 0. 0. 0.
 0. 0. 0. 0.
 0. 0. 0. 0.
 0. 0. 0. 0.
 0. 0. 0. 0.
 0. 0. 0. 0.
 0. 0. 0. 0.
 0. 0. 0. 0.
 0. 0. 0. 0.
 0. 0. 0. 0.
 0. 0. 0. 0.
 0. 0. 0. 0.
 0. 0. 0. 0.
 0. 0. 0. 0.
 0. 0. 0. 0.
 0. 0. 0. 0.
 0. 0. 0. 0.
 0. 0. 0. 0.
 0. 0. 0. 0.
 0. 0. 0. 0.
 0. 0. 0. 0.
 0. 0. 0. 0.
 0. 0. 0. 0.
 0. 0. 0. 0.
 0. 0. 0. 0.
 0. 0. 0. 0.
 0. 0. 0. 0.
 0. 0. 0. 0.
 0. 0. 0. 0.
 0. 0. 0. 0.
 0. 0. 0. 0.
 0. 0. 0. 0.
 0. 0. 0. 0.
 0. 0. 0. 0.
 0. 0. 0. 0.
 0. 0. 0. 0.
 0. 0. 0. 0.
 0. 0. 0. 0.
 0. 0. 0. 0.
 0. 0. 0. 0.
 0. 0. 0. 0.
 0. 0. 0. 0.
 0. 0. 0. 0.
 0. 0. 0. 0.
 0. 0. 0. 0.
 0. 0. 0. 0.
 0. 0. 0. 0.
 0. 0. 0. 0.
 0. 0. 0. 0.
 0. 0. 0. 0.
 0. 0. 0. 0.
 0. 0. 0. 0.
 0. 0. 0. 0.
 0. 0. 0. 0.
 0. 0. 0. 0.
 0. 0. 0. 0.
 0. 0. 0. 0.
 0. 0. 0. 0.
 0. 0. 0. 0.
 0. 0. 0. 0.
 0. 0. 0. 0.
 0. 0. 0. 0.
 0. 0. 0. 0.
 0. 0. 0. 0.
 0. 0. 0. 0.
 0. 0. 0. 0.
 0. 0. 0. 0.
 0. 0. 0. 0.
 0. 0. 0. 0.
 0. 0. 0. 0.
 0. 0. 0. 0.
 0. 0. 0. 0.
 0. 0. 0. 0.
 0. 0. 0. 0.
 0. 0. 0. 0.
 0. 0. 0. 0.
 0. 0. 0. 0.
 0. 0. 0. 0.
 0. 0. 0. 0.
 0. 0. 0. 0.
 0. 0. 0. 0.
 0. 0. 0. 0.
 0. 0. 0. 0.
 0. 0. 0. 0.
 0. 0. 0. 0.
 0. 0. 0. 0.
 0. 0. 0. 0.
 0. 0. 0. 0.
 0. 0. 0. 0.
 0. 0. 0. 0.
 0. 0. 0. 0.
 0. 0. 0. 0.
 0. 0. 0. 0.
 0. 0. 0. 0.
 0. 0. 0. 0.
 0. 0. 0. 0.
 0. 0. 0. 0.
 0. 0. 0. 0.
 0. 0. 0. 0.
 0. 0. 0. 0.
 0. 0. 0. 0.
 0. 0. 0. 0.
 0. 0. 0. 0.
 0. 0. 0. 0.
 0. 0. 0. 0.
 0. 0. 0. 0.
 0. 0. 0. 0.
 0. 0. 0. 0.
 0. 0. 0. 0.
 0. 0. 0. 0.
 0. 0. 0. 0.
 0. 0. 0. 0.
 0. 0. 0. 0.
 0. 0. 0. 0.
 0. 0. 0. 0.
 0. 0. 0. 0.
 0. 0. 0. 0.
 0. 0. 0. 0.
 0. 0. 0. 0.
 0. 0. 0. 0.
 0. 0. 0. 0.
 0. 0. 0. 0.
 0. 0. 0. 0.
 0. 0. 0. 0.
 0. 0. 0. 0.
 0. 0. 0. 0.
 0. 0. 0. 0.
 0. 0. 0. 0.
 0. 0. 0. 0.
 0. 0. 0. 0.
 0. 0. 0. 0.
 0. 0. 0. 0.
 0. 0. 0. 0.
 0. 0. 0. 0.
 0. 0. 0. 0.
 0. 0. 0. 0.
 0. 0. 0. 0.
 0. 0. 0. 0.
 0. 0. 0. 0.
 0. 0. 0. 0.
 0. 0. 0. 0.
 0. 0. 0. 0.
 0. 0. 0. 0.
 0. 0. 0. 0.
 0. 0. 0. 0.
 0. 0. 0. 0.
 0. 0. 0. 0.
 0. 0. 0. 0.
 0. 0. 0. 0.
 0. 0. 0. 0.
 0. 0. 0. 0.
 0. 0. 0. 0.
 0. 0. 0. 0.
 0. 0. 0. 0.
 0. 0. 0. 0.
 0. 0. 0. 0.
 0. 0. 0. 0.
 0. 0. 0. 0.
 0. 0. 0. 0.
 0. 0. 0. 0.
 0. 0. 0. 0.
 0. 0. 0. 0.
 0. 0. 0. 0.
 0. 0. 0. 0.
 0. 0. 0. 0.
 0. 0. 0. 0.
 0. 0. 0. 0.
 0. 0. 0. 0.
 0. 0. 0. 0.
 0. 0. 0. 0.
 0. 0. 0. 0.
 0. 0. 0. 0.
 0. 0. 0. 0.
 0. 0. 0. 0.
 0. 0. 0. 0.
 0. 0. 0. 0.
 0. 0. 0. 0.
 0. 0. 0. 0.
 0. 0. 0. 0.
 0. 0. 0. 0.
 0. 0. 0. 0.
 0. 0. 0. 0.
 0. 0. 0. 0.
 0. 0. 0. 0.
 0. 0. 0. 0.
 0. 0. 0. 0.
 0. 0. 0. 0.
 0. 0. 0. 0.
 0. 0. 0. 0.
 0. 0. 0. 0.
 0. 0. 0. 0.
 0. 0. 0. 0.
 0. 0. 0. 0.
 0. 0. 0. 0.
 0. 0. 0. 0.
 0. 0. 0. 0.
 0. 0. 0. 0.
 0. 0. 0. 0.
 0. 0. 0. 0.
 0. 0. 0. 0.
 0. 0. 0. 0.
 0. 0. 0. 0.
 0. 0. 0. 0.
 0. 0. 0. 0.
 0. 0. 0. 0.
 0. 0. 0. 0.
 0. 0. 0. 0.
 0. 0. 0. 0.
 0. 0. 0. 0.
 0. 0. 0. 0.
 0. 0. 0. 0.
 0. 0. 0. 0.
 0. 0. 0. 0.
 0. 0. 0. 0.
 0. 0. 0. 0.
 0. 0. 0. 0.
 0. 0. 0. 0.
 0. 0. 0. 0.
 0. 0. 0. 0.
 0. 0. 0. 0.
 0. 0. 0. 0.
 0. 0. 0. 0.
 0. 0. 0. 0.
 0. 0. 0. 0.
 0. 0. 0. 0.
 0. 0. 0. 0.
 0. 0. 0. 0.
 0. 0. 0. 0.
 0. 0. 0. 0.
 0. 0. 0. 0.
 0. 0. 0. 0.
 0. 0. 0. 0.
 0. 0. 0. 0.
 0. 0. 0. 0.
   </PP_BETA.13>
   <PP_BETA.14
       type="real"
       size="1408"
       columns="4"
       index="14"
       angular_momentum="3"
       cutoff_radius_index=" 260"
       cutoff_radius="    2.5900000000E+00" >
    1.6687656834E-10   -1.0122425785E-07   -1.6181719137E-06   -8.1800606766E-06
   -2.5800321261E-05   -6.2824016703E-05   -1.2985486099E-04   -2.3966246062E-04
   -4.0707056958E-04   -6.4882730677E-04   -9.8345843373E-04   -1.4311049276E-03
   -2.0133462085E-03   -2.7530104919E-03   -3.6739738303E-03   -4.8009494887E-03
   -6.1592693622E-03   -7.7746591874E-03   -9.6730093286E-03   -1.1880142932E-02
   -1.4421583231E-02   -1.7322321766E-02   -2.0606589238E-02   -2.4297630665E-02
   -2.8417486432E-02   -3.2986780750E-02   -3.8024518930E-02   -4.3547894787E-02
   -4.9572109357E-02   -5.6110201983E-02   -6.3172894709E-02   -7.0768450769E-02
   -7.8902547821E-02   -8.7578166441E-02   -9.6795494242E-02   -1.0655184585E-01
   -1.1684159882E-01   -1.2765614552E-01   -1.3898386067E-01   -1.5081008452E-01
   -1.6311712101E-01   -1.7588425060E-01   -1.8908775729E-01   -2.0270096894E-01
   -2.1669431049E-01   -2.3103536921E-01   -2.4568897116E-01   -2.6061726828E-01
   -2.7577983510E-01   -2.9113377445E-01   -3.0663383132E-01   -3.2223251415E-01
   -3.3788022294E-01   -3.5352538338E-01   -3.6911458651E-01   -3.8459273343E-01
   -3.9990318443E-01   -4.1498791234E-01   -4.2978765961E-01   -4.4424209904E-01
   -4.5828999783E-01   -4.7186938493E-01   -4.8491772165E-01   -4.9737207553E-01
   -5.0916929745E-01   -5.2024620228E-01   -5.3053975300E-01   -5.3998724859E-01
   -5.4852651580E-01   -5.5609610496E-01   -5.6263549005E-01   -5.6808527303E-01
   -5.7238739263E-01   -5.7548533758E-01   -5.7732436418E-01   -5.7785171824E-01
   -5.7701686099E-01   -5.7477169880E-01   -5.7107081622E-01   -5.6587171182E-01
   -5.5913503616E-01   -5.5082483113E-01   -5.4090876968E-01   -5.2935839501E-01
   -5.1614935792E-01   -5.0126165107E-01   -4.8467983874E-01   -4.6639328059E-01
   -4.4639634765E-01   -4.2468862898E-01   -4.0127512709E-01   -3.7616644030E-01
   -3.4937893004E-01   -3.2093487136E-01   -2.9086258438E-01   -2.5919654514E-01
   -2.2597747354E-01   -1.9125239693E-01   -1.5507468728E-01   -1.1750407041E-01
   -7.8606605855E-02   -3.8454635730E-02    2.8732983510E-03    4.5292571477E-02
    8.8712625509E-02    1.3303715360E-01    1.7816431952E-01    2.2398701180E-01
    2.7039313265E-01    3.1726592092E-01    3.6448430869E-01    4.1192331013E-01
    4.5945444150E-01    5.0694617057E-01    5.5426439365E-01    6.0127293793E-01
    6.4783408686E-01    6.9380912570E-01    7.3905890455E-01    7.8344441547E-01
    8.2682738068E-01    8.6907084808E-01    9.1003979074E-01    9.4960170640E-01
    9.8762721338E-01    1.0239906390E+00    1.0585705965E+00    1.0912505472E+00
    1.1219193431E+00    1.1504717474E+00    1.1768089284E+00    1.2008389245E+00
    1.2224770753E+00    1.2416464184E+00    1.2582780462E+00    1.2723114226E+00
    1.2836946568E+00    1.2923847310E+00    1.2983476826E+00    1.3015587387E+00
    1.3020024011E+00    1.2996724843E+00    1.2945721024E+00    1.2867136096E+00
    1.2761184914E+00    1.2628172095E+00    1.2468490019E+00    1.2282616391E+00
    1.2071111391E+00    1.1834614433E+00    1.1573840572E+00    1.1289576565E+00
    1.0982676647E+00    1.0654058037E+00    1.0304696210E+00    9.9356199844E-01
    9.5479064555E-01    9.1426758085E-01    8.7210860608E-01    8.2843277641E-01
    7.8336187078E-01    7.3701986608E-01    6.8953241851E-01    6.4102635587E-01
    5.9162918376E-01    5.4146860871E-01    4.9067208115E-01    4.3936636042E-01
    3.8767710422E-01    3.3572848417E-01    2.8364282914E-01    2.3154029740E-01
    1.7953857850E-01    1.2775262531E-01    7.6294416447E-02    2.5272748683E-02
   -2.5206940962E-02   -7.5042724482E-02   -1.2413630459E-01   -1.7239311030E-01
   -2.1972236814E-01   -2.6603715085E-01   -3.1125440572E-01   -3.5529496494E-01
   -3.9808354024E-01   -4.3954870452E-01   -4.7962286298E-01   -5.1824221634E-01
   -5.5534671889E-01   -5.9088003387E-01   -6.2478948862E-01   -6.5702603202E-01
   -6.8754419628E-01   -7.1630206529E-01   -7.4326125122E-01   -7.6838688106E-01
   -7.9164759439E-01   -8.1301555352E-01   -8.3246646663E-01   -8.4997962447E-01
   -8.6553795069E-01   -8.7912806566E-01   -8.9074036323E-01   -9.0036909955E-01
   -9.0801249294E-01   -9.1367283316E-01   -9.1735659850E-01   -9.1907457862E-01
   -9.1884200087E-01   -9.1667865765E-01   -9.1260903214E-01   -9.0666241958E-01
   -8.9887304118E-01   -8.8928014758E-01   -8.7792810889E-01   -8.6486648808E-01
   -8.5015009483E-01   -8.3383901672E-01   -8.1599862497E-01   -7.9669955194E-01
   -7.7601763792E-01   -7.5403384483E-01   -7.3083413482E-01   -7.0650931186E-01
   -6.8115482505E-01   -6.5487053237E-01   -6.2776042418E-01   -5.9993230598E-01
   -5.7149744059E-01   -5.4257014999E-01   -5.1326737775E-01   -4.8370821304E-01
   -4.5401337830E-01   -4.2430467881E-01   -3.9470445360E-01   -3.6533487258E-01
   -3.3631747449E-01   -3.0777326628E-01   -2.7982286160E-01   -2.5258622549E-01
   -2.2618208032E-01   -2.0072687206E-01   -1.7633481419E-01   -1.5311864030E-01
   -1.3120050007E-01   -1.1069338050E-01   -9.1687715767E-02   -7.4270241795E-02
   -5.8522596446E-02   -4.4520136126E-02   -3.2331786574E-02   -2.2019652322E-02
   -1.3644351197E-02   -7.2116772460E-03   -2.8425607427E-03   -6.4693656317E-04
    1.9395634900E-05    1.6420249369E-05   -2.3926199631E-05    2.3561926083E-06
 0. 0. 0. 0.
 0. 0. 0. 0.
 0. 0. 0. 0.
 0. 0. 0. 0.
 0. 0. 0. 0.
 0. 0. 0. 0.
 0. 0. 0. 0.
 0. 0. 0. 0.
 0. 0. 0. 0.
 0. 0. 0. 0.
 0. 0. 0. 0.
 0. 0. 0. 0.
 0. 0. 0. 0.
 0. 0. 0. 0.
 0. 0. 0. 0.
 0. 0. 0. 0.
 0. 0. 0. 0.
 0. 0. 0. 0.
 0. 0. 0. 0.
 0. 0. 0. 0.
 0. 0. 0. 0.
 0. 0. 0. 0.
 0. 0. 0. 0.
 0. 0. 0. 0.
 0. 0. 0. 0.
 0. 0. 0. 0.
 0. 0. 0. 0.
 0. 0. 0. 0.
 0. 0. 0. 0.
 0. 0. 0. 0.
 0. 0. 0. 0.
 0. 0. 0. 0.
 0. 0. 0. 0.
 0. 0. 0. 0.
 0. 0. 0. 0.
 0. 0. 0. 0.
 0. 0. 0. 0.
 0. 0. 0. 0.
 0. 0. 0. 0.
 0. 0. 0. 0.
 0. 0. 0. 0.
 0. 0. 0. 0.
 0. 0. 0. 0.
 0. 0. 0. 0.
 0. 0. 0. 0.
 0. 0. 0. 0.
 0. 0. 0. 0.
 0. 0. 0. 0.
 0. 0. 0. 0.
 0. 0. 0. 0.
 0. 0. 0. 0.
 0. 0. 0. 0.
 0. 0. 0. 0.
 0. 0. 0. 0.
 0. 0. 0. 0.
 0. 0. 0. 0.
 0. 0. 0. 0.
 0. 0. 0. 0.
 0. 0. 0. 0.
 0. 0. 0. 0.
 0. 0. 0. 0.
 0. 0. 0. 0.
 0. 0. 0. 0.
 0. 0. 0. 0.
 0. 0. 0. 0.
 0. 0. 0. 0.
 0. 0. 0. 0.
 0. 0. 0. 0.
 0. 0. 0. 0.
 0. 0. 0. 0.
 0. 0. 0. 0.
 0. 0. 0. 0.
 0. 0. 0. 0.
 0. 0. 0. 0.
 0. 0. 0. 0.
 0. 0. 0. 0.
 0. 0. 0. 0.
 0. 0. 0. 0.
 0. 0. 0. 0.
 0. 0. 0. 0.
 0. 0. 0. 0.
 0. 0. 0. 0.
 0. 0. 0. 0.
 0. 0. 0. 0.
 0. 0. 0. 0.
 0. 0. 0. 0.
 0. 0. 0. 0.
 0. 0. 0. 0.
 0. 0. 0. 0.
 0. 0. 0. 0.
 0. 0. 0. 0.
 0. 0. 0. 0.
 0. 0. 0. 0.
 0. 0. 0. 0.
 0. 0. 0. 0.
 0. 0. 0. 0.
 0. 0. 0. 0.
 0. 0. 0. 0.
 0. 0. 0. 0.
 0. 0. 0. 0.
 0. 0. 0. 0.
 0. 0. 0. 0.
 0. 0. 0. 0.
 0. 0. 0. 0.
 0. 0. 0. 0.
 0. 0. 0. 0.
 0. 0. 0. 0.
 0. 0. 0. 0.
 0. 0. 0. 0.
 0. 0. 0. 0.
 0. 0. 0. 0.
 0. 0. 0. 0.
 0. 0. 0. 0.
 0. 0. 0. 0.
 0. 0. 0. 0.
 0. 0. 0. 0.
 0. 0. 0. 0.
 0. 0. 0. 0.
 0. 0. 0. 0.
 0. 0. 0. 0.
 0. 0. 0. 0.
 0. 0. 0. 0.
 0. 0. 0. 0.
 0. 0. 0. 0.
 0. 0. 0. 0.
 0. 0. 0. 0.
 0. 0. 0. 0.
 0. 0. 0. 0.
 0. 0. 0. 0.
 0. 0. 0. 0.
 0. 0. 0. 0.
 0. 0. 0. 0.
 0. 0. 0. 0.
 0. 0. 0. 0.
 0. 0. 0. 0.
 0. 0. 0. 0.
 0. 0. 0. 0.
 0. 0. 0. 0.
 0. 0. 0. 0.
 0. 0. 0. 0.
 0. 0. 0. 0.
 0. 0. 0. 0.
 0. 0. 0. 0.
 0. 0. 0. 0.
 0. 0. 0. 0.
 0. 0. 0. 0.
 0. 0. 0. 0.
 0. 0. 0. 0.
 0. 0. 0. 0.
 0. 0. 0. 0.
 0. 0. 0. 0.
 0. 0. 0. 0.
 0. 0. 0. 0.
 0. 0. 0. 0.
 0. 0. 0. 0.
 0. 0. 0. 0.
 0. 0. 0. 0.
 0. 0. 0. 0.
 0. 0. 0. 0.
 0. 0. 0. 0.
 0. 0. 0. 0.
 0. 0. 0. 0.
 0. 0. 0. 0.
 0. 0. 0. 0.
 0. 0. 0. 0.
 0. 0. 0. 0.
 0. 0. 0. 0.
 0. 0. 0. 0.
 0. 0. 0. 0.
 0. 0. 0. 0.
 0. 0. 0. 0.
 0. 0. 0. 0.
 0. 0. 0. 0.
 0. 0. 0. 0.
 0. 0. 0. 0.
 0. 0. 0. 0.
 0. 0. 0. 0.
 0. 0. 0. 0.
 0. 0. 0. 0.
 0. 0. 0. 0.
 0. 0. 0. 0.
 0. 0. 0. 0.
 0. 0. 0. 0.
 0. 0. 0. 0.
 0. 0. 0. 0.
 0. 0. 0. 0.
 0. 0. 0. 0.
 0. 0. 0. 0.
 0. 0. 0. 0.
 0. 0. 0. 0.
 0. 0. 0. 0.
 0. 0. 0. 0.
 0. 0. 0. 0.
 0. 0. 0. 0.
 0. 0. 0. 0.
 0. 0. 0. 0.
 0. 0. 0. 0.
 0. 0. 0. 0.
 0. 0. 0. 0.
 0. 0. 0. 0.
 0. 0. 0. 0.
 0. 0. 0. 0.
 0. 0. 0. 0.
 0. 0. 0. 0.
 0. 0. 0. 0.
 0. 0. 0. 0.
 0. 0. 0. 0.
 0. 0. 0. 0.
 0. 0. 0. 0.
 0. 0. 0. 0.
 0. 0. 0. 0.
 0. 0. 0. 0.
 0. 0. 0. 0.
 0. 0. 0. 0.
 0. 0. 0. 0.
 0. 0. 0. 0.
 0. 0. 0. 0.
 0. 0. 0. 0.
 0. 0. 0. 0.
 0. 0. 0. 0.
 0. 0. 0. 0.
 0. 0. 0. 0.
 0. 0. 0. 0.
 0. 0. 0. 0.
 0. 0. 0. 0.
 0. 0. 0. 0.
 0. 0. 0. 0.
 0. 0. 0. 0.
 0. 0. 0. 0.
 0. 0. 0. 0.
 0. 0. 0. 0.
 0. 0. 0. 0.
 0. 0. 0. 0.
 0. 0. 0. 0.
 0. 0. 0. 0.
 0. 0. 0. 0.
 0. 0. 0. 0.
 0. 0. 0. 0.
 0. 0. 0. 0.
 0. 0. 0. 0.
 0. 0. 0. 0.
 0. 0. 0. 0.
 0. 0. 0. 0.
 0. 0. 0. 0.
 0. 0. 0. 0.
 0. 0. 0. 0.
 0. 0. 0. 0.
 0. 0. 0. 0.
 0. 0. 0. 0.
 0. 0. 0. 0.
 0. 0. 0. 0.
 0. 0. 0. 0.
 0. 0. 0. 0.
 0. 0. 0. 0.
 0. 0. 0. 0.
 0. 0. 0. 0.
 0. 0. 0. 0.
 0. 0. 0. 0.
 0. 0. 0. 0.
 0. 0. 0. 0.
 0. 0. 0. 0.
 0. 0. 0. 0.
 0. 0. 0. 0.
 0. 0. 0. 0.
 0. 0. 0. 0.
 0. 0. 0. 0.
 0. 0. 0. 0.
 0. 0. 0. 0.
 0. 0. 0. 0.
 0. 0. 0. 0.
 0. 0. 0. 0.
 0. 0. 0. 0.
 0. 0. 0. 0.
 0. 0. 0. 0.
 0. 0. 0. 0.
 0. 0. 0. 0.
 0. 0. 0. 0.
 0. 0. 0. 0.
 0. 0. 0. 0.
 0. 0. 0. 0.
 0. 0. 0. 0.
 0. 0. 0. 0.
 0. 0. 0. 0.
 0. 0. 0. 0.
 0. 0. 0. 0.
 0. 0. 0. 0.
 0. 0. 0. 0.
   </PP_BETA.14>
   <PP_DIJ type="real"  size=" 196" columns="4">
    3.4577770767E+00    0.0000000000E+00    0.0000000000E+00    0.0000000000E+00
    0.0000000000E+00    0.0000000000E+00    0.0000000000E+00    0.0000000000E+00
    0.0000000000E+00    0.0000000000E+00    0.0000000000E+00    0.0000000000E+00
    0.0000000000E+00    0.0000000000E+00    0.0000000000E+00   -2.5537572692E+00
    0.0000000000E+00    0.0000000000E+00    0.0000000000E+00    0.0000000000E+00
    0.0000000000E+00    0.0000000000E+00    0.0000000000E+00    0.0000000000E+00
    0.0000000000E+00    0.0000000000E+00    0.0000000000E+00    0.0000000000E+00
    0.0000000000E+00    0.0000000000E+00   -3.9696777262E+00    0.0000000000E+00
    0.0000000000E+00    0.0000000000E+00    0.0000000000E+00    0.0000000000E+00
    0.0000000000E+00    0.0000000000E+00    0.0000000000E+00    0.0000000000E+00
    0.0000000000E+00    0.0000000000E+00    0.0000000000E+00    0.0000000000E+00
    0.0000000000E+00   -2.7128462669E+00    0.0000000000E+00    0.0000000000E+00
    0.0000000000E+00    0.0000000000E+00    0.0000000000E+00    0.0000000000E+00
    0.0000000000E+00    0.0000000000E+00    0.0000000000E+00    0.0000000000E+00
    0.0000000000E+00    0.0000000000E+00    0.0000000000E+00    0.0000000000E+00
   -4.5102876387E-01    0.0000000000E+00    0.0000000000E+00    0.0000000000E+00
    0.0000000000E+00    0.0000000000E+00    0.0000000000E+00    0.0000000000E+00
    0.0000000000E+00    0.0000000000E+00    0.0000000000E+00    0.0000000000E+00
    0.0000000000E+00    0.0000000000E+00    0.0000000000E+00   -5.6780898721E-02
    0.0000000000E+00    0.0000000000E+00    0.0000000000E+00    0.0000000000E+00
    0.0000000000E+00    0.0000000000E+00    0.0000000000E+00    0.0000000000E+00
    0.0000000000E+00    0.0000000000E+00    0.0000000000E+00    0.0000000000E+00
    0.0000000000E+00    0.0000000000E+00   -2.8761383046E+00    0.0000000000E+00
    0.0000000000E+00    0.0000000000E+00    0.0000000000E+00    0.0000000000E+00
    0.0000000000E+00    0.0000000000E+00    0.0000000000E+00    0.0000000000E+00
    0.0000000000E+00    0.0000000000E+00    0.0000000000E+00    0.0000000000E+00
    0.0000000000E+00   -2.6098884725E+00    0.0000000000E+00    0.0000000000E+00
    0.0000000000E+00    0.0000000000E+00    0.0000000000E+00    0.0000000000E+00
    0.0000000000E+00    0.0000000000E+00    0.0000000000E+00    0.0000000000E+00
    0.0000000000E+00    0.0000000000E+00    0.0000000000E+00    0.0000000000E+00
   -6.7312783226E-01    0.0000000000E+00    0.0000000000E+00    0.0000000000E+00
    0.0000000000E+00    0.0000000000E+00    0.0000000000E+00    0.0000000000E+00
    0.0000000000E+00    0.0000000000E+00    0.0000000000E+00    0.0000000000E+00
    0.0000000000E+00    0.0000000000E+00    0.0000000000E+00   -5.7604249428E-01
    0.0000000000E+00    0.0000000000E+00    0.0000000000E+00    0.0000000000E+00
    0.0000000000E+00    0.0000000000E+00    0.0000000000E+00    0.0000000000E+00
    0.0000000000E+00    0.0000000000E+00    0.0000000000E+00    0.0000000000E+00
    0.0000000000E+00    0.0000000000E+00   -3.8539739664E+00    0.0000000000E+00
    0.0000000000E+00    0.0000000000E+00    0.0000000000E+00    0.0000000000E+00
    0.0000000000E+00    0.0000000000E+00    0.0000000000E+00    0.0000000000E+00
    0.0000000000E+00    0.0000000000E+00    0.0000000000E+00    0.0000000000E+00
    0.0000000000E+00   -4.2773580776E+00    0.0000000000E+00    0.0000000000E+00
    0.0000000000E+00    0.0000000000E+00    0.0000000000E+00    0.0000000000E+00
    0.0000000000E+00    0.0000000000E+00    0.0000000000E+00    0.0000000000E+00
    0.0000000000E+00    0.0000000000E+00    0.0000000000E+00    0.0000000000E+00
    7.8419548992E-01    0.0000000000E+00    0.0000000000E+00    0.0000000000E+00
    0.0000000000E+00    0.0000000000E+00    0.0000000000E+00    0.0000000000E+00
    0.0000000000E+00    0.0000000000E+00    0.0000000000E+00    0.0000000000E+00
    0.0000000000E+00    0.0000000000E+00    0.0000000000E+00    8.4346930206E-01
   </PP_DIJ>
 </PP_NONLOCAL>
 <PP_PSWFC>
   <PP_CHI.1
       type="real"
       size="1408"
       columns="4"
       index="1"
       occupation=" 2.000"
       pseudo_energy="   -0.5798296968E+01"
       label="5S"
       l="0" >
   -3.0800362261E-13    1.9152453040E-02    3.8297016504E-02    5.7425806006E-02
    7.6530947532E-02    9.5604582620E-02    1.1463887352E-01    1.3362600835E-01
    1.5255820621E-01    1.7142772227E-01    1.9022685286E-01    2.0894794052E-01
    2.2758337892E-01    2.4612561792E-01    2.6456716839E-01    2.8290060709E-01
    3.0111858150E-01    3.1921381452E-01    3.3717910917E-01    3.5500735321E-01
    3.7269152365E-01    3.9022469125E-01    4.0760002490E-01    4.2481079591E-01
    4.4185038225E-01    4.5871227270E-01    4.7539007084E-01    4.9187749907E-01
    5.0816840239E-01    5.2425675218E-01    5.4013664986E-01    5.5580233038E-01
    5.7124816569E-01    5.8646866802E-01    6.0145849310E-01    6.1621244323E-01
    6.3072547023E-01    6.4499267829E-01    6.5900932666E-01    6.7277083226E-01
    6.8627277212E-01    6.9951088571E-01    7.1248107712E-01    7.2517941713E-01
    7.3760214513E-01    7.4974567089E-01    7.6160657623E-01    7.7318161653E-01
    7.8446772205E-01    7.9546199924E-01    8.0616173173E-01    8.1656438136E-01
    8.2666758892E-01    8.3646917485E-01    8.4596713971E-01    8.5515966460E-01
    8.6404511136E-01    8.7262202265E-01    8.8088912193E-01    8.8884531323E-01
    8.9648968081E-01    9.0382148870E-01    9.1084018007E-01    9.1754537649E-01
    9.2393687699E-01    9.3001465708E-01    9.3577886757E-01    9.4122983324E-01
    9.4636805148E-01    9.5119419063E-01    9.5570908840E-01    9.5991374998E-01
    9.6380934614E-01    9.6739721116E-01    9.7067884066E-01    9.7365588930E-01
    9.7633016838E-01    9.7870364332E-01    9.8077843103E-01    9.8255679718E-01
    9.8404115336E-01    9.8523405417E-01    9.8613819416E-01    9.8675640473E-01
    9.8709165088E-01    9.8714702797E-01    9.8692575828E-01    9.8643118760E-01
    9.8566678165E-01    9.8463612249E-01    9.8334290487E-01    9.8179093243E-01
    9.7998411395E-01    9.7792645949E-01    9.7562207643E-01    9.7307516559E-01
    9.7029001716E-01    9.6727100668E-01    9.6402259098E-01    9.6054930405E-01
    9.5685575288E-01    9.5294661336E-01    9.4882662601E-01    9.4450059188E-01
    9.3997336826E-01    9.3524986449E-01    9.3033503775E-01    9.2523388884E-01
    9.1995145796E-01    9.1449282051E-01    9.0886308289E-01    9.0306737833E-01
    8.9711086277E-01    8.9099871067E-01    8.8473611097E-01    8.7832826302E-01
    8.7178037250E-01    8.6509764751E-01    8.5828529457E-01    8.5134851476E-01
    8.4429249985E-01    8.3712242855E-01    8.2984346274E-01    8.2246074382E-01
    8.1497938913E-01    8.0740448837E-01    7.9974110018E-01    7.9199424870E-01
    7.8416892033E-01    7.7627006042E-01    7.6830257015E-01    7.6027130349E-01
    7.5218106415E-01    7.4403660278E-01    7.3584261407E-01    7.2760373412E-01
    7.1932453780E-01    7.1100953621E-01    7.0266317431E-01    6.9428982855E-01
    6.8589380470E-01    6.7747933572E-01    6.6905057973E-01    6.6061161811E-01
    6.5216645375E-01    6.4371900927E-01    6.3527312550E-01    6.2683255997E-01
    6.1840098553E-01    6.0998198910E-01    6.0157907050E-01    5.9319564141E-01
    5.8483502441E-01    5.7650045213E-01    5.6819506657E-01    5.5992191839E-01
    5.5168396647E-01    5.4348407742E-01    5.3532502532E-01    5.2720949145E-01
    5.1914006421E-01    5.1111923911E-01    5.0314941879E-01    4.9523291326E-01
    4.8737194013E-01    4.7956862499E-01    4.7182500181E-01    4.6414301356E-01
    4.5652451272E-01    4.4897126209E-01    4.4148493549E-01    4.3406711869E-01
    4.2671931026E-01    4.1944292268E-01    4.1223928334E-01    4.0510963570E-01
    3.9805514054E-01    3.9107687718E-01    3.8417584484E-01    3.7735296400E-01
    3.7060907788E-01    3.6394495385E-01    3.5736128504E-01    3.5085869187E-01
    3.4443772364E-01    3.3809886025E-01    3.3184251381E-01    3.2566903039E-01
    3.1957869173E-01    3.1357171701E-01    3.0764826466E-01    3.0180843409E-01
    2.9605226755E-01    2.9037975193E-01    2.8479082057E-01    2.7928535512E-01
    2.7386318732E-01    2.6852410086E-01    2.6326783320E-01    2.5809407733E-01
    2.5300248365E-01    2.4799266165E-01    2.4306418175E-01    2.3821657701E-01
    2.3344934485E-01    2.2876194875E-01    2.2415381990E-01    2.1962435885E-01
    2.1517293708E-01    2.1079889861E-01    2.0650156146E-01    2.0228021919E-01
    1.9813414232E-01    1.9406257972E-01    1.9006475997E-01    1.8613989267E-01
    1.8228716967E-01    1.7850576630E-01    1.7479484252E-01    1.7115354400E-01
    1.6758100317E-01    1.6407634023E-01    1.6063866404E-01    1.5726707305E-01
    1.5396065606E-01    1.5071849308E-01    1.4753965603E-01    1.4442320941E-01
    1.4136821090E-01    1.3837371174E-01    1.3543875725E-01    1.3256238719E-01
    1.2974363607E-01    1.2698153349E-01    1.2427510432E-01    1.2162336876E-01
    1.1902534435E-01    1.1648005057E-01    1.1398651858E-01    1.1154379520E-01
    1.0915093997E-01    1.0680702611E-01    1.0451114044E-01    1.0226238328E-01
    1.0005986845E-01    9.7902723208E-02    9.5790088188E-02    9.3721117334E-02
    9.1694977824E-02    8.9710849993E-02    8.7767927240E-02    8.5865415938E-02
    8.4002535332E-02    8.2178517438E-02    8.0392606930E-02    7.8644061030E-02
    7.6932149390E-02    7.5256153971E-02    7.3615368920E-02    7.2009100441E-02
    7.0436666668E-02    6.8897397529E-02    6.7390634617E-02    6.5915731051E-02
    6.4472051336E-02    6.3058971230E-02    6.1675877596E-02    6.0322168267E-02
    5.8997251899E-02    5.7700547831E-02    5.6431485940E-02    5.5189506496E-02
    5.3974060020E-02    5.2784607139E-02    5.1620618440E-02    5.0481574329E-02
    4.9366964885E-02    4.8276289717E-02    4.7209057821E-02    4.6164787438E-02
    4.5143005913E-02    4.4143249552E-02    4.3165063485E-02    4.2208001522E-02
    4.1271626021E-02    4.0355507745E-02    3.9459225728E-02    3.8582367143E-02
    3.7724527162E-02    3.6885308828E-02    3.6064322923E-02    3.5261187834E-02
    3.4475529431E-02    3.3706980933E-02    3.2955182786E-02    3.2219782537E-02
    3.1500434708E-02    3.0796800682E-02    3.0108548572E-02    2.9435353112E-02
    2.8776895533E-02    2.8132863450E-02    2.7502950747E-02    2.6886857463E-02
    2.6284289685E-02    2.5694959430E-02    2.5118584546E-02    2.4554888598E-02
    2.4003600768E-02    2.3464455745E-02    2.2937193630E-02    2.2421559831E-02
    2.1917304962E-02    2.1424184752E-02    2.0941959940E-02    2.0470396189E-02
    2.0009263985E-02    1.9558338551E-02    1.9117399754E-02    1.8686232015E-02
    1.8264624224E-02    1.7852369652E-02    1.7449265870E-02    1.7055114660E-02
    1.6669721937E-02    1.6292897667E-02    1.5924455790E-02    1.5564214139E-02
    1.5211994367E-02    1.4867621868E-02    1.4530925707E-02    1.4201738544E-02
    1.3879896566E-02    1.3565239414E-02    1.3257610115E-02    1.2956855016E-02
    1.2662823716E-02    1.2375369001E-02    1.2094346781E-02    1.1819616024E-02
    1.1551038700E-02    1.1288479715E-02    1.1031806853E-02    1.0780890720E-02
    1.0535604682E-02    1.0295824814E-02    1.0061429842E-02    9.8323010884E-03
    9.6083224195E-03    9.3893801939E-03    9.1753632108E-03    8.9661626598E-03
    8.7616720715E-03    8.5617872698E-03    8.3664063236E-03    8.1754295013E-03
    7.9887592245E-03    7.8063000234E-03    7.6279584935E-03    7.4536432518E-03
    7.2832648953E-03    7.1167359594E-03    6.9539708774E-03    6.7948859407E-03
    6.6393992600E-03    6.4874307272E-03    6.3389019776E-03    6.1937363539E-03
    6.0518588692E-03    5.9131961730E-03    5.7776765156E-03    5.6452297149E-03
    5.5157871231E-03    5.3892815941E-03    5.2656474515E-03    5.1448204579E-03
    5.0267377839E-03    4.9113379781E-03    4.7985609381E-03    4.6883478816E-03
    4.5806413180E-03    4.4753850211E-03    4.3725240020E-03    4.2720044826E-03
    4.1737738695E-03    4.0777807290E-03    3.9839747616E-03    3.8923067784E-03
    3.8027286765E-03    3.7151934163E-03    3.6296549978E-03    3.5460684390E-03
    3.4643897535E-03    3.3845759290E-03    3.3065849066E-03    3.2303755595E-03
    3.1559076736E-03    3.0831419273E-03    3.0120398721E-03    2.9425639140E-03
    2.8746772945E-03    2.8083440730E-03    2.7435291084E-03    2.6801980423E-03
    2.6183172813E-03    2.5578539811E-03    2.4987760294E-03    2.4410520307E-03
    2.3846512898E-03    2.3295437973E-03    2.2757002141E-03    2.2230918568E-03
    2.1716906835E-03    2.1214692797E-03    2.0724008446E-03    2.0244591772E-03
    1.9776186640E-03    1.9318542652E-03    1.8871415025E-03    1.8434564469E-03
    1.8007757064E-03    1.7590764142E-03    1.7183362170E-03    1.6785332639E-03
    1.6396461955E-03    1.6016541325E-03    1.5645366654E-03    1.5282738443E-03
    1.4928461684E-03    1.4582345763E-03    1.4244204362E-03    1.3913855363E-03
    1.3591120756E-03    1.3275826549E-03    1.2967802676E-03    1.2666882912E-03
    1.2372904788E-03    1.2085709504E-03    1.1805141854E-03    1.1531050140E-03
    1.1263286095E-03    1.1001704811E-03    1.0746164659E-03    1.0496527217E-03
    1.0252657203E-03    1.0014422396E-03    9.7816935789E-04    9.5543444613E-04
    9.3322516201E-04    9.1152944338E-04    8.9033550193E-04    8.6963181716E-04
    8.4940713030E-04    8.2965043852E-04    8.1035098914E-04    7.9149827407E-04
    7.7308202428E-04    7.5509220450E-04    7.3751900790E-04    7.2035285101E-04
    7.0358436869E-04    6.8720440923E-04    6.7120402954E-04    6.5557449045E-04
    6.4030725215E-04    6.2539396968E-04    6.1082648855E-04    5.9659684046E-04
    5.8269723907E-04    5.6912007592E-04    5.5585791643E-04    5.4290349594E-04
    5.3024971592E-04    5.1788964017E-04    5.0581649119E-04    4.9402364657E-04
    4.8250463550E-04    4.7125313532E-04    4.6026296818E-04    4.4952809777E-04
    4.3904262611E-04    4.2880079039E-04    4.1879695995E-04    4.0902563325E-04
    3.9948143495E-04    3.9015911308E-04    3.8105353616E-04    3.7215969056E-04
    3.6347267776E-04    3.5498771174E-04    3.4670011645E-04    3.3860532330E-04
    3.3069886870E-04    3.2297639168E-04    3.1543363155E-04    3.0806642566E-04
    3.0087070708E-04    2.9384250249E-04    2.8697793005E-04    2.8027319724E-04
    2.7372459892E-04    2.6732851525E-04    2.6108140983E-04    2.5497982770E-04
    2.4902039355E-04    2.4319980990E-04    2.3751485526E-04    2.3196238247E-04
    2.2653931694E-04    2.2124265503E-04    2.1606946242E-04    2.1101687250E-04
    2.0608208484E-04    2.0126236368E-04    1.9655503643E-04    1.9195749224E-04
    1.8746718058E-04    1.8308160986E-04    1.7879834606E-04    1.7461501143E-04
    1.7052928321E-04    1.6653889234E-04    1.6264162222E-04    1.5883530757E-04
    1.5511783316E-04    1.5148713275E-04    1.4794118788E-04    1.4447802685E-04
    1.4109572359E-04    1.3779239663E-04    1.3456620808E-04    1.3141536262E-04
    1.2833810652E-04    1.2533272669E-04    1.2239754975E-04    1.1953094107E-04
    1.1673130394E-04    1.1399707868E-04    1.1132674175E-04    1.0871880497E-04
    1.0617181464E-04    1.0368435083E-04    1.0125502653E-04    9.8882486913E-05
    9.6565408603E-05    9.4302498942E-05    9.2092495279E-05    8.9934164278E-05
    8.7826301246E-05    8.5767729463E-05    8.3757299546E-05    8.1793888808E-05
    7.9876400647E-05    7.8003763943E-05    7.6174932466E-05    7.4388884303E-05
    7.2644621295E-05    7.0941168488E-05    6.9277573594E-05    6.7652906472E-05
    6.6066258609E-05    6.4516742624E-05    6.3003491778E-05    6.1525659493E-05
    6.0082418891E-05    5.8672962332E-05    5.7296500973E-05    5.5952264329E-05
    5.4639499849E-05    5.3357472502E-05    5.2105464369E-05    5.0882774246E-05
    4.9688717258E-05    4.8522624480E-05    4.7383842566E-05    4.6271733389E-05
    4.5185673688E-05    4.4125054723E-05    4.3089281934E-05    4.2077774620E-05
    4.1089965612E-05    4.0125300957E-05    3.9183239616E-05    3.8263253163E-05
    3.7364825490E-05    3.6487452521E-05    3.5630641935E-05    3.4793912892E-05
    3.3976795764E-05    3.3178831877E-05    3.2399573257E-05    3.1638582378E-05
    3.0895431922E-05    3.0169704539E-05    2.9460992621E-05    2.8768898067E-05
    2.8093032069E-05    2.7433014892E-05    2.6788475664E-05    2.6159052172E-05
    2.5544390656E-05    2.4944145615E-05    2.4357979617E-05    2.3785563106E-05
    2.3226574222E-05    2.2680698622E-05    2.2147629305E-05    2.1627066438E-05
    2.1118717194E-05    2.0622295584E-05    2.0137522302E-05    1.9664124565E-05
    1.9201835966E-05    1.8750396320E-05    1.8309551525E-05    1.7879053415E-05
    1.7458659623E-05    1.7048133449E-05    1.6647243725E-05    1.6255764685E-05
    1.5873475841E-05    1.5500161862E-05    1.5135612449E-05    1.4779622220E-05
    1.4431990597E-05    1.4092521690E-05    1.3761024193E-05    1.3437311271E-05
    1.3121200461E-05    1.2812513567E-05    1.2511076560E-05    1.2216719485E-05
    1.1929276359E-05    1.1648585086E-05    1.1374487360E-05    1.1106828580E-05
    1.0845457762E-05    1.0590227456E-05    1.0340993662E-05    1.0097615750E-05
    9.8599563821E-06    9.6278814344E-06    9.4012599226E-06    9.1799639285E-06
    8.9638685284E-06    8.7528517233E-06    8.5467943707E-06    8.3455801173E-06
    8.1490953343E-06    7.9572290538E-06    7.7698729065E-06    7.5869210607E-06
    7.4082701636E-06    7.2338192828E-06    7.0634698502E-06    6.8971256061E-06
    6.7346925461E-06    6.5760788679E-06    6.4211949196E-06    6.2699531499E-06
    6.1222680588E-06    5.9780561496E-06    5.8372358820E-06    5.6997276264E-06
    5.5654536196E-06    5.4343379204E-06    5.3063063677E-06    5.1812865385E-06
    5.0592077071E-06    4.9400008060E-06    4.8235983863E-06    4.7099345806E-06
    4.5989450656E-06    4.4905670258E-06    4.3847391187E-06    4.2814014400E-06
    4.1804954900E-06    4.0819641410E-06    3.9857516047E-06    3.8918034011E-06
    3.8000663281E-06    3.7104884310E-06    3.6230189739E-06    3.5376084108E-06
    3.4542083583E-06    3.3727715680E-06    3.2932518995E-06    3.2156042954E-06
    3.1397847546E-06    3.0657503088E-06    2.9934589975E-06    2.9228698451E-06
    2.8539428375E-06    2.7866388998E-06    2.7209198741E-06    2.6567484979E-06
    2.5940883832E-06    2.5329039960E-06    2.4731606362E-06    2.4148244184E-06
    2.3578622526E-06    2.3022418256E-06    2.2479315826E-06    2.1949007099E-06
    2.1431191172E-06    2.0925574205E-06    2.0431869262E-06    1.9949796140E-06
    1.9479081219E-06    1.9019457303E-06    1.8570663471E-06    1.8132444930E-06
    1.7704552870E-06    1.7286744327E-06    1.6878782043E-06    1.6480434334E-06
    1.6091474955E-06    1.5711682980E-06    1.5340842671E-06    1.4978743360E-06
    1.4625179326E-06    1.4279949683E-06    1.3942858267E-06    1.3613713520E-06
    1.3292328388E-06    1.2978520212E-06    1.2672110625E-06    1.2372925453E-06
    1.2080794614E-06    1.1795552026E-06    1.1517035508E-06    1.1245086693E-06
    1.0979550936E-06    1.0720277229E-06    1.0467118111E-06    1.0219929591E-06
    9.9785710600E-07    9.7429052183E-07    9.5127979923E-07    9.2881184619E-07
    9.0687387853E-07    8.8545341272E-07    8.6453825877E-07    8.4411651340E-07
    8.2417655327E-07    8.0470702844E-07    7.8569685588E-07    7.6713521329E-07
    7.4901153294E-07    7.3131549569E-07    7.1403702514E-07    6.9716628194E-07
    6.8069365826E-07    6.6460977228E-07    6.4890546296E-07    6.3357178478E-07
    6.1860000272E-07    6.0398158733E-07    5.8970820985E-07    5.7577173756E-07
    5.6216422908E-07    5.4887792998E-07    5.3590526834E-07    5.2323885045E-07
    5.1087145662E-07    4.9879603712E-07    4.8700570818E-07    4.7549374808E-07
    4.6425359332E-07    4.5327883494E-07    4.4256321486E-07    4.3210062237E-07
    4.2188509063E-07    4.1191079329E-07    4.0217204118E-07    3.9266327915E-07
    3.8337908284E-07    3.7431415565E-07    3.6546332569E-07    3.5682154290E-07
    3.4838387619E-07    3.4014551059E-07    3.3210174454E-07    3.2424798725E-07
    3.1657975605E-07    3.0909267391E-07    3.0178246689E-07    2.9464496174E-07
    2.8767608354E-07    2.8087185338E-07    2.7422838612E-07    2.6774188814E-07
    2.6140865524E-07    2.5522507046E-07    2.4918760214E-07    2.4329280182E-07
    2.3753730231E-07    2.3191781577E-07    2.2643113189E-07    2.2107411599E-07
    2.1584370730E-07    2.1073691719E-07    2.0575082749E-07    2.0088258881E-07
    1.9612941894E-07    1.9148860127E-07    1.8695748323E-07    1.8253347478E-07
    1.7821404697E-07    1.7399673048E-07    1.6987911421E-07    1.6585884390E-07
    1.6193362083E-07    1.5810120047E-07    1.5435939126E-07    1.5070605328E-07
    1.4713909712E-07    1.4365648262E-07    1.4025621776E-07    1.3693635751E-07
    1.3369500270E-07    1.3053029898E-07    1.2744043573E-07    1.2442364506E-07
    1.2147820078E-07    1.1860241742E-07    1.1579464929E-07    1.1305328951E-07
    1.1037676914E-07    1.0776355624E-07    1.0521215502E-07    1.0272110500E-07
    1.0028898015E-07    9.7914388114E-08    9.5595969375E-08    9.3332396513E-08
    9.1122373432E-08    8.8964634629E-08    8.6857944475E-08    8.4801096505E-08
    8.2792912731E-08    8.0832242970E-08    7.8917964193E-08    7.7048979887E-08
    7.5224219423E-08    7.3442637446E-08    7.1703213282E-08    7.0004950354E-08
    6.8346875622E-08    6.6728039019E-08    6.5147512908E-08    6.3604391559E-08
    6.2097790627E-08    6.0626846659E-08    5.9190716588E-08    5.7788577257E-08
    5.6419624951E-08    5.5083074933E-08    5.3778161009E-08    5.2504135077E-08
    5.1260266707E-08    5.0045842720E-08    4.8860166784E-08    4.7702559019E-08
    4.6572355607E-08    4.5468908408E-08    4.4391584597E-08    4.3339766295E-08
    4.2312850227E-08    4.1310247372E-08    4.0331382623E-08    3.9375694462E-08
    3.8442634638E-08    3.7531667859E-08    3.6642271480E-08    3.5773935208E-08
    3.4926160808E-08    3.4098461819E-08    3.3290363277E-08    3.2501401447E-08
    3.1731123549E-08    3.0979087510E-08    3.0244861700E-08    2.9528024695E-08
    2.8828165032E-08    2.8144880975E-08    2.7477780285E-08    2.6826479993E-08
    2.6190606182E-08    2.5569793780E-08    2.4963686345E-08    2.4371935858E-08
    2.3794202533E-08    2.3230154613E-08    2.2679468189E-08    2.2141827009E-08
    2.1616922302E-08    2.1104452593E-08    2.0604123541E-08    2.0115647760E-08
    1.9638744666E-08    1.9173140308E-08    1.8718567214E-08    1.8274764238E-08
    1.7841476407E-08    1.7418454784E-08    1.7005456316E-08    1.6602243702E-08
    1.6208585252E-08    1.5824254754E-08    1.5449031351E-08    1.5082699409E-08
    1.4725048395E-08    1.4375872757E-08    1.4034971805E-08    1.3702149595E-08
    1.3377214822E-08    1.3059980707E-08    1.2750264888E-08    1.2447889320E-08
    1.2152680166E-08    1.1864467708E-08    1.1583086241E-08    1.1308373982E-08
    1.1040172976E-08    1.0778329004E-08    1.0522691497E-08    1.0273113452E-08
    1.0029451343E-08    9.7915650415E-09    9.5593177335E-09    9.3325758440E-09
    9.1112089591E-09    8.8950897530E-09    8.6840939126E-09    8.4781000673E-09
    8.2769897190E-09    8.0806471740E-09    7.8889594786E-09    7.7018163525E-09
    7.5191101260E-09    7.3407356778E-09    7.1665903753E-09    6.9965740148E-09
    6.8305887669E-09    6.6685391171E-09    6.5103318124E-09    6.3558758075E-09
    6.2050822124E-09    6.0578642421E-09    5.9141371672E-09    5.7738182639E-09
    5.6368267672E-09    5.5030838246E-09    5.3725124498E-09    5.2450374814E-09
    5.1205855369E-09    4.9990849720E-09    4.8804658386E-09    4.7646598452E-09
    4.6516003171E-09    4.5412221601E-09    4.4334618209E-09    4.3282572515E-09
    4.2255478734E-09    4.1252745426E-09    4.0273795162E-09    3.9318064195E-09
    3.8385002129E-09    3.7474071605E-09    3.6584747991E-09    3.5716519080E-09
    3.4868884803E-09    3.4041356940E-09    3.3233458834E-09    3.2444725119E-09
    3.1674701454E-09    3.0922944259E-09    3.0189020468E-09    2.9472507275E-09
    2.8772991892E-09    2.8090071309E-09    2.7423352063E-09    2.6772450012E-09
    2.6136990124E-09    2.5516606249E-09    2.4910940915E-09    2.4319645117E-09
    2.3742378122E-09    2.3178807266E-09    2.2628607779E-09    2.2091462580E-09
    2.1567062106E-09    2.1055104126E-09    2.0555293573E-09    2.0067342371E-09
    1.9590969276E-09    1.9125899709E-09    1.8671865595E-09    1.8228605217E-09
    1.7795863056E-09    1.7373389649E-09    1.6960941453E-09    1.6558280694E-09
    1.6165175232E-09    1.5781398432E-09    1.5406729030E-09    1.5040951003E-09
    1.4683853458E-09    1.4335230494E-09    1.3994881095E-09    1.3662609007E-09
    1.3338222631E-09    1.3021534906E-09    1.2712363212E-09    1.2410529255E-09
    1.2115858968E-09    1.1828182413E-09    1.1547333678E-09    1.1273150783E-09
    1.1005475595E-09    1.0744153726E-09    1.0489034450E-09    1.0239970614E-09
    9.9968185554E-10    9.7594380132E-10    9.5276920589E-10    9.3014470083E-10
    9.0805723474E-10    8.8649406567E-10    8.6544275380E-10    8.4489115416E-10
    8.2482741009E-10    8.0523994604E-10    7.8611746093E-10    7.6744892168E-10
    7.4922355684E-10    7.3143085029E-10    7.1406053552E-10    6.9710258953E-10
    6.8054722697E-10    6.6438489455E-10    6.4860626558E-10    6.3320223448E-10
    6.1816391169E-10    6.0348261866E-10    5.8914988260E-10    5.7515743165E-10
    5.6149719017E-10    5.4816127406E-10    5.3514198610E-10    5.2243181197E-10
    5.1002341545E-10    4.9790963433E-10    4.8608347632E-10    4.7453811496E-10
    4.6326688563E-10    4.5226328206E-10    4.4152095223E-10    4.3103369480E-10
    4.2079545557E-10    4.1080032392E-10    4.0104252941E-10    3.9151643858E-10
    3.8221655170E-10    3.7313749944E-10    3.6427403989E-10    3.5562105546E-10
    3.4717354999E-10    3.3892664581E-10    3.3087558114E-10    3.2301570712E-10
    3.1534248517E-10    3.0785148441E-10    3.0053837910E-10    2.9339894604E-10
    2.8642906239E-10    2.7962470313E-10    2.7298193873E-10    2.6649693287E-10
    2.6016594031E-10    2.5398530460E-10    2.4795145610E-10    2.4206090997E-10
    2.3631026401E-10    2.3069619675E-10    2.2521546554E-10    2.1986490471E-10
    2.1464142361E-10    2.0954200509E-10    2.0456370357E-10    1.9970364335E-10
    1.9495901700E-10    1.9032708369E-10    1.8580516763E-10    1.8139065655E-10
    1.7708100023E-10    1.7287370897E-10    1.6876635212E-10    1.6475655677E-10
    1.6084200628E-10    1.5702043898E-10    1.5328964695E-10    1.4964747468E-10
    1.4609181780E-10    1.4262062190E-10    1.3923188132E-10    1.3592363800E-10
    1.3269398034E-10    1.2954104221E-10    1.2646300171E-10    1.2345808022E-10
    1.2052454132E-10    1.1766068982E-10    1.1486487073E-10    1.1213546839E-10
    1.0947090552E-10    1.0686964227E-10    1.0433017533E-10    1.0185103708E-10
    9.9430794746E-11    9.7068049536E-11    9.4761435925E-11    9.2509620798E-11
    9.0311302679E-11    8.8165210989E-11    8.6070105317E-11    8.4024774695E-11
    8.2028036874E-11    8.0078737757E-11    7.8175750608E-11    7.6317975444E-11
    7.4504338397E-11    7.2733791096E-11    7.1005310053E-11    6.9317896076E-11
    6.7670573743E-11    6.6062390769E-11    6.4492417479E-11    6.2959746272E-11
    6.1463491098E-11    6.0002786931E-11    5.8576789299E-11    5.7184673808E-11
    5.5825635619E-11    5.4498889007E-11    5.3203666904E-11    5.1939220455E-11
    5.0704818571E-11    4.9499747552E-11    4.8323310652E-11    4.7174827659E-11
    4.6053634514E-11    4.4959082929E-11    4.3890540009E-11    4.2847387871E-11
    4.1829023340E-11    4.0834857561E-11    3.9864315656E-11    3.8916836401E-11
    3.7991871897E-11    3.7088887261E-11    3.6207360292E-11    3.5346781227E-11
    3.4506652401E-11    3.3686487965E-11    3.2885813606E-11    3.2104166279E-11
    3.1341093936E-11    3.0596155245E-11    2.9868919394E-11    2.9158965790E-11
    2.8465883829E-11    2.7789272657E-11    2.7128740941E-11    2.6483906645E-11
    2.5854396789E-11    2.5239847283E-11    2.4639902677E-11    2.4054215960E-11
    2.3482448363E-11    2.2924269165E-11    2.2379355498E-11    2.1847392154E-11
    2.1328071433E-11    2.0821092941E-11    2.0326163413E-11    1.9842996553E-11
    1.9371312865E-11    1.8910839492E-11    1.8461310047E-11    1.8022464490E-11
    1.7594048958E-11    1.7175815611E-11    1.6767522500E-11    1.6368933421E-11
    1.5979817783E-11    1.5599950464E-11    1.5229111700E-11    1.4867086954E-11
    1.4513666778E-11    1.4168646700E-11    1.3831827107E-11    1.3503013126E-11
    1.3182014511E-11    1.2868645538E-11    1.2562724904E-11    1.2264075607E-11
    1.1972524851E-11    1.1687903945E-11    1.1410048204E-11    1.1138796855E-11
    1.0873992942E-11    1.0615483251E-11    1.0363118200E-11    1.0116751762E-11
    9.8762413798E-12    9.6414478818E-12    9.4122354037E-12    9.1884713015E-12
    8.9700260980E-12    8.7567733864E-12    8.5485897627E-12    8.3453547549E-12
    8.1469507532E-12    7.9532629421E-12    7.7641792301E-12    7.5795901950E-12
    7.3993890167E-12    7.2234714102E-12    7.0517355683E-12    6.8840821030E-12
    6.7204139876E-12    6.5606364993E-12    6.4046571649E-12    6.2523857166E-12
    6.1037340271E-12    5.9586160631E-12    5.8169478356E-12    5.6786473512E-12
    5.5436345649E-12    5.4118313290E-12    5.2831613620E-12    5.1575501920E-12
    5.0349251161E-12    4.9152151589E-12    4.7983510316E-12    4.6842650919E-12
    4.5728913028E-12    4.4641651980E-12    4.3580238472E-12    4.2544058127E-12
    4.1532511169E-12    4.0545012073E-12    3.9580989230E-12    3.8639884613E-12
    3.7721153418E-12    3.6824263866E-12    3.5948696784E-12    3.5093945336E-12
    3.4259514729E-12    3.3444921927E-12    3.2649695375E-12    3.1873374709E-12
    3.1115510516E-12    3.0375664093E-12    2.9653407143E-12    2.8948321548E-12
    2.8259999126E-12    2.7588041395E-12    2.6932059343E-12    2.6291673180E-12
    2.5666512187E-12    2.5056214446E-12    2.4460426632E-12    2.3878803819E-12
    2.3311009278E-12    2.2756714282E-12    2.2215597912E-12    2.1687346866E-12
    2.1171655329E-12    2.0668224732E-12    2.0176763603E-12    1.9696987398E-12
    1.9228618335E-12    1.8771385233E-12    1.8325023345E-12    1.7889274231E-12
    1.7463885607E-12    1.7048611171E-12    1.6643210477E-12    1.6247448794E-12
    1.5861096970E-12    1.5483931298E-12    1.5115733373E-12    1.4756290012E-12
    1.4405393090E-12    1.4062839428E-12    1.3728430672E-12    1.3401973186E-12
    1.3083277935E-12    1.2772160377E-12    1.2468440340E-12    1.2171941971E-12
    1.1882493579E-12    1.1599927554E-12    1.1324080272E-12    1.1054791996E-12
    1.0791906787E-12    1.0535272407E-12    1.0284740236E-12    1.0040165205E-12
    9.8014056838E-13    9.5683234073E-13    9.3407833977E-13    9.1186538854E-13
    8.9018062329E-13    8.6901148552E-13    8.4834571561E-13    8.2817134647E-13
    8.0847669472E-13    7.8925035472E-13    7.7048119193E-13    7.5215833650E-13
    7.3427117693E-13    7.1680935341E-13    6.9976275307E-13    6.8312150403E-13
    6.6687596855E-13    6.5101673800E-13    6.3553462737E-13    6.2042067003E-13
    6.0566611247E-13    5.9126240872E-13    5.7720121670E-13    5.6347439302E-13
    5.5007398743E-13    5.3699223871E-13    5.2422157010E-13    5.1175458499E-13
    4.9958406256E-13    4.8770295321E-13    4.7610437554E-13    4.6478161206E-13
    4.5372810462E-13    4.4293745095E-13    4.3240340101E-13    4.2211985333E-13
    4.1208085146E-13    4.0228058021E-13    3.9271336306E-13    3.8337365883E-13
    3.7425605771E-13    3.6535527851E-13    3.5666616559E-13    3.4818368586E-13
    3.3990292591E-13    3.3181908885E-13    3.2392749204E-13    3.1622356467E-13
    3.0870284423E-13    3.0136097432E-13    2.9419370208E-13    2.8719687578E-13
    2.8036644239E-13    2.7369844506E-13    2.6718902100E-13    2.6083439985E-13
    2.5463090057E-13    2.4857492960E-13    2.4266297883E-13    2.3689162355E-13
    2.3125752047E-13    2.2575740573E-13    2.2038809276E-13    2.1514647159E-13
    2.1002950575E-13    2.0503423099E-13    2.0015775354E-13    1.9539724840E-13
    1.9074995776E-13    1.8621318936E-13    1.8178431462E-13    1.7746076812E-13
    1.7324004519E-13    1.6911970070E-13    1.6509734762E-13    1.6117065569E-13
    1.5733735003E-13    1.5359520988E-13    1.4994206705E-13    1.4637580520E-13
    1.4289435839E-13    1.3949570969E-13    1.3617789009E-13    1.3293897743E-13
    1.2977709522E-13    1.2669041161E-13    1.2367713821E-13    1.2073552911E-13
    1.1786388028E-13    1.1506052799E-13    1.1232384809E-13    1.0965225502E-13
    1.0704420093E-13    1.0449817479E-13    1.0201270147E-13    9.9586340707E-14
   </PP_CHI.1>
   <PP_CHI.2
       type="real"
       size="1408"
       columns="4"
       index="2"
       occupation=" 4.000"
       pseudo_energy="   -0.2973508320E+01"
       label="5P"
       l="1" >
    9.5153572521E-13    2.1541401174E-04    8.6143843770E-04    1.9374207318E-03
    3.4422742605E-03    5.3744797167E-03    7.7320870963E-03    1.0512718233E-02
    1.3713569891E-02    1.7331417402E-02    2.1362618856E-02    2.5803119818E-02
    3.0648458587E-02    3.5893771968E-02    4.1533801560E-02    4.7562900547E-02
    5.3975040980E-02    6.0763821537E-02    6.7922475759E-02    7.5443880728E-02
    8.3320566198E-02    9.1544724149E-02    1.0010821875E-01    1.0900259671E-01
    1.1821909804E-01    1.2774866714E-01    1.3758196426E-01    1.4770937724E-01
    1.5812103367E-01    1.6880681318E-01    1.7975636014E-01    1.9095909657E-01
    2.0240423522E-01    2.1408079294E-01    2.2597760425E-01    2.3808333498E-01
    2.5038649616E-01    2.6287545801E-01    2.7553846401E-01    2.8836364509E-01
    3.0133903387E-01    3.1445257896E-01    3.2769215923E-01    3.4104559818E-01
    3.5450067818E-01    3.6804515476E-01    3.8166677077E-01    3.9535327053E-01
    4.0909241378E-01    4.2287198964E-01    4.3667983032E-01    4.5050382468E-01
    4.6433193169E-01    4.7815219364E-01    4.9195274907E-01    5.0572184561E-01
    5.1944785247E-01    5.3311927265E-01    5.4672475497E-01    5.6025310568E-01
    5.7369329986E-01    5.8703449242E-01    6.0026602880E-01    6.1337745532E-01
    6.2635852913E-01    6.3919922782E-01    6.5188975864E-01    6.6442056730E-01
    6.7678234637E-01    6.8896604332E-01    7.0096286802E-01    7.1276429994E-01
    7.2436209486E-01    7.3574829108E-01    7.4691521532E-01    7.5785548803E-01
    7.6856202835E-01    7.7902805857E-01    7.8924710814E-01    7.9921301722E-01
    8.0891993978E-01    8.1836234628E-01    8.2753502581E-01    8.3643308787E-01
    8.4505196361E-01    8.5338740676E-01    8.6143549394E-01    8.6919262472E-01
    8.7665552110E-01    8.8382122664E-01    8.9068710520E-01    8.9725083918E-01
    9.0351042745E-01    9.0946418287E-01    9.1511072936E-01    9.2044899870E-01
    9.2547822689E-01    9.3019795022E-01    9.3460800092E-01    9.3870850259E-01
    9.4249986521E-01    9.4598277994E-01    9.4915821353E-01    9.5202740257E-01
    9.5459184735E-01    9.5685330559E-01    9.5881378585E-01    9.6047554074E-01
    9.6184105994E-01    9.6291306303E-01    9.6369449210E-01    9.6418850422E-01
    9.6439846378E-01    9.6432793469E-01    9.6398067238E-01    9.6336061583E-01
    9.6247187941E-01    9.6131874465E-01    9.5990565199E-01    9.5823719245E-01
    9.5631809927E-01    9.5415323951E-01    9.5174760570E-01    9.4910630743E-01
    9.4623456298E-01    9.4313769099E-01    9.3982110218E-01    9.3629029109E-01
    9.3255082795E-01    9.2860835053E-01    9.2446855619E-01    9.2013719395E-01
    9.1562005672E-01    9.1092297361E-01    9.0605180239E-01    9.0101242211E-01
    8.9581072581E-01    8.9045261346E-01    8.8494398500E-01    8.7929073356E-01
    8.7349873892E-01    8.6757386107E-01    8.6152193397E-01    8.5534875959E-01
    8.4906010204E-01    8.4266168198E-01    8.3615917118E-01    8.2955818736E-01
    8.2286428917E-01    8.1608297144E-01    8.0921966061E-01    8.0227971045E-01
    7.9526839788E-01    7.8819091915E-01    7.8105238614E-01    7.7385782296E-01
    7.6661216266E-01    7.5932024431E-01    7.5198681020E-01    7.4461650325E-01
    7.3721386472E-01    7.2978333205E-01    7.2232923696E-01    7.1485580373E-01
    7.0736714772E-01    6.9986727406E-01    6.9236007654E-01    6.8484933673E-01
    6.7733872324E-01    6.6983179119E-01    6.6233198186E-01    6.5484262255E-01
    6.4736692650E-01    6.3990799314E-01    6.3246880833E-01    6.2505224489E-01
    6.1766106320E-01    6.1029791195E-01    6.0296532909E-01    5.9566574280E-01
    5.8840147271E-01    5.8117473114E-01    5.7398762449E-01    5.6684215476E-01
    5.5974022113E-01    5.5268362164E-01    5.4567405503E-01    5.3871312251E-01
    5.3180232978E-01    5.2494308899E-01    5.1813672087E-01    5.1138445679E-01
    5.0468744101E-01    4.9804673287E-01    4.9146330910E-01    4.8493806612E-01
    4.7847182237E-01    4.7206532068E-01    4.6571923071E-01    4.5943415129E-01
    4.5321061285E-01    4.4704907990E-01    4.4094995338E-01    4.3491357312E-01
    4.2894022027E-01    4.2303011967E-01    4.1718344225E-01    4.1140030743E-01
    4.0568078544E-01    4.0002489964E-01    3.9443262882E-01    3.8890390950E-01
    3.8343863809E-01    3.7803667311E-01    3.7269783736E-01    3.6742191999E-01
    3.6220867858E-01    3.5705784112E-01    3.5196910801E-01    3.4694215395E-01
    3.4197662979E-01    3.3707216433E-01    3.3222836607E-01    3.2744482487E-01
    3.2272111361E-01    3.1805678972E-01    3.1345139669E-01    3.0890446551E-01
    3.0441551605E-01    2.9998405835E-01    2.9560959386E-01    2.9129161665E-01
    2.8702961450E-01    2.8282306992E-01    2.7867146118E-01    2.7457426320E-01
    2.7053094836E-01    2.6654098733E-01    2.6260384975E-01    2.5871900489E-01
    2.5488592222E-01    2.5110407190E-01    2.4737292528E-01    2.4369195521E-01
    2.4006063641E-01    2.3647844568E-01    2.3294486210E-01    2.2945936712E-01
    2.2602144465E-01    2.2263058102E-01    2.1928626490E-01    2.1598798694E-01
    2.1273523936E-01    2.0952751543E-01    2.0636430985E-01    2.0324511901E-01
    2.0016944109E-01    1.9713677621E-01    1.9414662659E-01    1.9119849673E-01
    1.8829189352E-01    1.8542632637E-01    1.8260130736E-01    1.7981635133E-01
    1.7707097600E-01    1.7436470209E-01    1.7169705338E-01    1.6906755682E-01
    1.6647574263E-01    1.6392114435E-01    1.6140329894E-01    1.5892174682E-01
    1.5647603195E-01    1.5406570190E-01    1.5169030788E-01    1.4934940480E-01
    1.4704255130E-01    1.4476930984E-01    1.4252924667E-01    1.4032193190E-01
    1.3814693955E-01    1.3600384753E-01    1.3389223770E-01    1.3181169587E-01
    1.2976181182E-01    1.2774217935E-01    1.2575239622E-01    1.2379206424E-01
    1.2186078920E-01    1.1995818096E-01    1.1808385338E-01    1.1623742434E-01
    1.1441851577E-01    1.1262675360E-01    1.1086176781E-01    1.0912319235E-01
    1.0741066521E-01    1.0572382836E-01    1.0406232774E-01    1.0242581329E-01
    1.0081393887E-01    9.9226362302E-02    9.7662745329E-02    9.6122753595E-02
    9.4606056634E-02    9.3112327850E-02    9.1641244489E-02    9.0192487627E-02
    8.8765742142E-02    8.7360696690E-02    8.5977043686E-02    8.4614479275E-02
    8.3272703310E-02    8.1951419322E-02    8.0650334499E-02    7.9369159653E-02
    7.8107609199E-02    7.6865401122E-02    7.5642256952E-02    7.4437901731E-02
    7.3252063990E-02    7.2084475715E-02    7.0934872319E-02    6.9802992612E-02
    6.8688578770E-02    6.7591376306E-02    6.6511134037E-02    6.5447604057E-02
    6.4400541703E-02    6.3369705524E-02    6.2354857252E-02    6.1355761767E-02
    6.0372187072E-02    5.9403904254E-02    5.8450687459E-02    5.7512313855E-02
    5.6588563607E-02    5.5679219839E-02    5.4784068608E-02    5.3902898868E-02
    5.3035502443E-02    5.2181673994E-02    5.1341210985E-02    5.0513913659E-02
    4.9699584998E-02    4.8898030700E-02    4.8109059144E-02    4.7332481361E-02
    4.6568111003E-02    4.5815764312E-02    4.5075260092E-02    4.4346419677E-02
    4.3629066900E-02    4.2923028069E-02    4.2228131930E-02    4.1544209642E-02
    4.0871094750E-02    4.0208623150E-02    3.9556633065E-02    3.8914965015E-02
    3.8283461789E-02    3.7661968417E-02    3.7050332142E-02    3.6448402390E-02
    3.5856030747E-02    3.5273070931E-02    3.4699378760E-02    3.4134812132E-02
    3.3579230994E-02    3.3032497317E-02    3.2494475071E-02    3.1965030197E-02
    3.1444030585E-02    3.0931346044E-02    3.0426848282E-02    2.9930410875E-02
    2.9441909251E-02    2.8961220655E-02    2.8488224136E-02    2.8022800513E-02
    2.7564832359E-02    2.7114203975E-02    2.6670801364E-02    2.6234512213E-02
    2.5805225869E-02    2.5382833312E-02    2.4967227140E-02    2.4558301543E-02
    2.4155952281E-02    2.3760076665E-02    2.3370573534E-02    2.2987343234E-02
    2.2610287598E-02    2.2239309927E-02    2.1874314966E-02    2.1515208886E-02
    2.1161899268E-02    2.0814295075E-02    2.0472306642E-02    2.0135845650E-02
    1.9804825109E-02    1.9479159343E-02    1.9158763967E-02    1.8843555871E-02
    1.8533453200E-02    1.8228375341E-02    1.7928242901E-02    1.7632977689E-02
    1.7342502705E-02    1.7056742117E-02    1.6775621245E-02    1.6499066551E-02
    1.6227005612E-02    1.5959367114E-02    1.5696080832E-02    1.5437077611E-02
    1.5182289359E-02    1.4931649022E-02    1.4685090577E-02    1.4442549012E-02
    1.4203960316E-02    1.3969261459E-02    1.3738390383E-02    1.3511285983E-02
    1.3287888097E-02    1.3068137492E-02    1.2851975849E-02    1.2639345748E-02
    1.2430190660E-02    1.2224454929E-02    1.2022083761E-02    1.1823023213E-02
    1.1627220178E-02    1.1434622374E-02    1.1245178330E-02    1.1058837379E-02
    1.0875549640E-02    1.0695266009E-02    1.0517938149E-02    1.0343518476E-02
    1.0171960152E-02    1.0003217066E-02    9.8372438317E-03    9.6739957729E-03
    9.5134289123E-03    9.3554999623E-03    9.2001663145E-03    9.0473860292E-03
    8.8971178257E-03    8.7493210722E-03    8.6039557764E-03    8.4609825754E-03
    8.3203627266E-03    8.1820580983E-03    8.0460311604E-03    7.9122449754E-03
    7.7806631893E-03    7.6512500229E-03    7.5239702632E-03    7.3987892546E-03
    7.2756728906E-03    7.1545876053E-03    7.0355003654E-03    6.9183786619E-03
    6.8031905022E-03    6.6899044022E-03    6.5784893786E-03    6.4689149412E-03
    6.3611510852E-03    6.2551682840E-03    6.1509374820E-03    6.0484300868E-03
    5.9476179626E-03    5.8484734232E-03    5.7509692248E-03    5.6550785590E-03
    5.5607750469E-03    5.4680327316E-03    5.3768260722E-03    5.2871299371E-03
    5.1989195978E-03    5.1121707227E-03    5.0268593708E-03    4.9429619859E-03
    4.8604553901E-03    4.7793167786E-03    4.6995237134E-03    4.6210541178E-03
    4.5438862705E-03    4.4679988007E-03    4.3933706818E-03    4.3199812266E-03
    4.2478100818E-03    4.1768372229E-03    4.1070429486E-03    4.0384078764E-03
    3.9709129373E-03    3.9045393705E-03    3.8392687192E-03    3.7750828254E-03
    3.7119638255E-03    3.6498941452E-03    3.5888564954E-03    3.5288338675E-03
    3.4698095290E-03    3.4117670191E-03    3.3546901444E-03    3.2985629748E-03
    3.2433698393E-03    3.1890953215E-03    3.1357242563E-03    3.0832417252E-03
    3.0316330529E-03    2.9808838030E-03    2.9309797746E-03    2.8819069984E-03
    2.8336517328E-03    2.7862004606E-03    2.7395398852E-03    2.6936569273E-03
    2.6485387212E-03    2.6041726114E-03    2.5605461494E-03    2.5176470902E-03
    2.4754633895E-03    2.4339831996E-03    2.3931948672E-03    2.3530869296E-03
    2.3136481122E-03    2.2748673248E-03    2.2367336594E-03    2.1992363866E-03
    2.1623649531E-03    2.1261089789E-03    2.0904582543E-03    2.0554027373E-03
    2.0209325507E-03    1.9870379798E-03    1.9537094693E-03    1.9209376213E-03
    1.8887131923E-03    1.8570270908E-03    1.8258703749E-03    1.7952342500E-03
    1.7651100662E-03    1.7354893160E-03    1.7063636321E-03    1.6777247851E-03
    1.6495646811E-03    1.6218753598E-03    1.5946489919E-03    1.5678778776E-03
    1.5415544437E-03    1.5156712424E-03    1.4902209485E-03    1.4651963578E-03
    1.4405903853E-03    1.4163960626E-03    1.3926065367E-03    1.3692150679E-03
    1.3462150277E-03    1.3235998973E-03    1.3013632656E-03    1.2794988276E-03
    1.2580003826E-03    1.2368618324E-03    1.2160771798E-03    1.1956405268E-03
    1.1755460733E-03    1.1557881147E-03    1.1363610415E-03    1.1172593366E-03
    1.0984775746E-03    1.0800104200E-03    1.0618526256E-03    1.0439990311E-03
    1.0264445621E-03    1.0091842281E-03    9.9221312129E-04    9.7552641545E-04
    9.5911936436E-04    9.4298730055E-04    9.2712563402E-04    9.1152985096E-04
    8.9619551250E-04    8.8111825344E-04    8.6629378111E-04    8.5171787412E-04
    8.3738638119E-04    8.2329522001E-04    8.0944037613E-04    7.9581790178E-04
    7.8242391481E-04    7.6925459762E-04    7.5630619606E-04    7.4357501841E-04
    7.3105743434E-04    7.1874987389E-04    7.0664882650E-04    6.9475083998E-04
    6.8305251962E-04    6.7155052717E-04    6.6024157992E-04    6.4912244984E-04
    6.3818996260E-04    6.2744099672E-04    6.1687248271E-04    6.0648140217E-04
    5.9626478697E-04    5.8621971842E-04    5.7634332646E-04    5.6663278882E-04
    5.5708533025E-04    5.4769822176E-04    5.3846877983E-04    5.2939436564E-04
    5.2047238439E-04    5.1170028451E-04    5.0307555695E-04    4.9459573454E-04
    4.8625839119E-04    4.7806114131E-04    4.7000163906E-04    4.6207757776E-04
    4.5428668918E-04    4.4662674293E-04    4.3909554584E-04    4.3169094132E-04
    4.2441080877E-04    4.1725306297E-04    4.1021565351E-04    4.0329656419E-04
    3.9649381248E-04    3.8980544893E-04    3.8322955662E-04    3.7676425067E-04
    3.7040767765E-04    3.6415801507E-04    3.5801347089E-04    3.5197228299E-04
    3.4603271868E-04    3.4019307422E-04    3.3445167432E-04    3.2880687169E-04
    3.2325704654E-04    3.1780060615E-04    3.1243598444E-04    3.0716164146E-04
    3.0197606301E-04    2.9687776022E-04    2.9186526906E-04    2.8693715001E-04
    2.8209198759E-04    2.7732839000E-04    2.7264498870E-04    2.6804043803E-04
    2.6351341483E-04    2.5906261807E-04    2.5468676848E-04    2.5038460817E-04
    2.4615490030E-04    2.4199642873E-04    2.3790799763E-04    2.3388843120E-04
    2.2993657331E-04    2.2605128716E-04    2.2223145498E-04    2.1847597769E-04
    2.1478377463E-04    2.1115378319E-04    2.0758495856E-04    2.0407627342E-04
    2.0062671765E-04    1.9723529802E-04    1.9390103794E-04    1.9062297715E-04
    1.8740017151E-04    1.8423169264E-04    1.8111662773E-04    1.7805407926E-04
    1.7504316471E-04    1.7208301637E-04    1.6917278103E-04    1.6631161981E-04
    1.6349870785E-04    1.6073323413E-04    1.5801440123E-04    1.5534142505E-04
    1.5271353465E-04    1.5012997199E-04    1.4758999172E-04    1.4509286100E-04
    1.4263785927E-04    1.4022427807E-04    1.3785142078E-04    1.3551860249E-04
    1.3322514974E-04    1.3097040035E-04    1.2875370327E-04    1.2657441835E-04
    1.2443191616E-04    1.2232557783E-04    1.2025479489E-04    1.1821896905E-04
    1.1621751206E-04    1.1424984553E-04    1.1231540079E-04    1.1041361870E-04
    1.0854394948E-04    1.0670585260E-04    1.0489879658E-04    1.0312225886E-04
    1.0137572565E-04    9.9658691780E-05    9.7970660549E-05    9.6311143600E-05
    9.4679660767E-05    9.3075739944E-05    9.1498916949E-05    8.9948735390E-05
    8.8424746535E-05    8.6926509186E-05    8.5453589552E-05    8.4005561124E-05
    8.2582004553E-05    8.1182507531E-05    7.9806664675E-05    7.8454077409E-05
    7.7124353849E-05    7.5817108693E-05    7.4531963111E-05    7.3268544635E-05
    7.2026487055E-05    7.0805430311E-05    6.9605020393E-05    6.8424909238E-05
    6.7264754631E-05    6.6124220107E-05    6.5002974854E-05    6.3900693622E-05
    6.2817056623E-05    6.1751749445E-05    6.0704462963E-05    5.9674893244E-05
    5.8662741466E-05    5.7667713830E-05    5.6689521477E-05    5.5727880402E-05
    5.4782511378E-05    5.3853139871E-05    5.2939495965E-05    5.2041314282E-05
    5.1158333907E-05    5.0290298313E-05    4.9436955289E-05    4.8598056866E-05
    4.7773359244E-05    4.6962622727E-05    4.6165611651E-05    4.5382094316E-05
    4.4611842920E-05    4.3854633498E-05    4.3110245848E-05    4.2378463479E-05
    4.1659073540E-05    4.0951866764E-05    4.0256637406E-05    3.9573183184E-05
    3.8901305222E-05    3.8240807992E-05    3.7591499255E-05    3.6953190013E-05
    3.6325694449E-05    3.5708829872E-05    3.5102416672E-05    3.4506278260E-05
    3.3920241024E-05    3.3344134274E-05    3.2777790196E-05    3.2221043804E-05
    3.1673732889E-05    3.1135697976E-05    3.0606782277E-05    3.0086831646E-05
    2.9575694533E-05    2.9073221943E-05    2.8579267392E-05    2.8093686863E-05
    2.7616338769E-05    2.7147083908E-05    2.6685785423E-05    2.6232308767E-05
    2.5786521659E-05    2.5348294048E-05    2.4917498079E-05    2.4494008048E-05
    2.4077700374E-05    2.3668453559E-05    2.3266148154E-05    2.2870666724E-05
    2.2481893816E-05    2.2099715923E-05    2.1724021454E-05    2.1354700699E-05
    2.0991645800E-05    2.0634750717E-05    2.0283911203E-05    1.9939024765E-05
    1.9599990643E-05    1.9266709777E-05    1.8939084777E-05    1.8617019898E-05
    1.8300421010E-05    1.7989195574E-05    1.7683252612E-05    1.7382502680E-05
    1.7086857846E-05    1.6796231663E-05    1.6510539141E-05    1.6229696729E-05
    1.5953622284E-05    1.5682235049E-05    1.5415455635E-05    1.5153205991E-05
    1.4895409384E-05    1.4641990378E-05    1.4392874812E-05    1.4147989776E-05
    1.3907263593E-05    1.3670625797E-05    1.3438007113E-05    1.3209339434E-05
    1.2984555807E-05    1.2763590409E-05    1.2546378529E-05    1.2332856551E-05
    1.2122961932E-05    1.1916633190E-05    1.1713809877E-05    1.1514432572E-05
    1.1318442855E-05    1.1125783295E-05    1.0936397431E-05    1.0750229760E-05
    1.0567225713E-05    1.0387331647E-05    1.0210494825E-05    1.0036663401E-05
    9.8657864069E-06    9.6978137374E-06    9.5326961334E-06    9.3703851698E-06
    9.2108332401E-06    9.0539935439E-06    8.8998200720E-06    8.7482675939E-06
    8.5992916446E-06    8.4528485111E-06    8.3088952204E-06    8.1673895267E-06
    8.0282898991E-06    7.8915555097E-06    7.7571462215E-06    7.6250225772E-06
    7.4951457869E-06    7.3674777179E-06    7.2419808827E-06    7.1186184286E-06
    6.9973541269E-06    6.8781523622E-06    6.7609781223E-06    6.6457969878E-06
    6.5325751223E-06    6.4212792623E-06    6.3118767077E-06    6.2043353123E-06
    6.0986234744E-06    5.9947101275E-06    5.8925647315E-06    5.7921572636E-06
    5.6934582095E-06    5.5964385552E-06    5.5010697782E-06    5.4073238392E-06
    5.3151731740E-06    5.2245906857E-06    5.1355497364E-06    5.0480241398E-06
    4.9619881533E-06    4.8774164705E-06    4.7942842144E-06    4.7125669291E-06
    4.6322405736E-06    4.5532815145E-06    4.4756665188E-06    4.3993727476E-06
    4.3243777492E-06    4.2506594526E-06    4.1781961609E-06    4.1069665452E-06
    4.0369496384E-06    3.9681248289E-06    3.9004718546E-06    3.8339707971E-06
    3.7686020759E-06    3.7043464425E-06    3.6411849751E-06    3.5790990726E-06
    3.5180704497E-06    3.4580811313E-06    3.3991134470E-06    3.3411500266E-06
    3.2841737943E-06    3.2281679641E-06    3.1731160351E-06    3.1190017860E-06
    3.0658092711E-06    3.0135228153E-06    2.9621270093E-06    2.9116067055E-06
    2.8619470135E-06    2.8131332955E-06    2.7651511622E-06    2.7179864686E-06
    2.6716253098E-06    2.6260540170E-06    2.5812591533E-06    2.5372275103E-06
    2.4939461036E-06    2.4514021692E-06    2.4095831600E-06    2.3684767420E-06
    2.3280707906E-06    2.2883533869E-06    2.2493128149E-06    2.2109375571E-06
    2.1732162919E-06    2.1361378899E-06    2.0996914108E-06    2.0638661000E-06
    2.0286513859E-06    1.9940368763E-06    1.9600123554E-06    1.9265677811E-06
    1.8936932822E-06    1.8613791547E-06    1.8296158598E-06    1.7983940208E-06
    1.7677044202E-06    1.7375379972E-06    1.7078858451E-06    1.6787392083E-06
    1.6500894803E-06    1.6219282006E-06    1.5942470528E-06    1.5670378616E-06
    1.5402925907E-06    1.5140033406E-06    1.4881623459E-06    1.4627619733E-06
    1.4377947192E-06    1.4132532077E-06    1.3891301880E-06    1.3654185331E-06
    1.3421112366E-06    1.3192014117E-06    1.2966822885E-06    1.2745472121E-06
    1.2527896411E-06    1.2314031450E-06    1.2103814029E-06    1.1897182013E-06
    1.1694074324E-06    1.1494430923E-06    1.1298192792E-06    1.1105301917E-06
    1.0915701271E-06    1.0729334796E-06    1.0546147389E-06    1.0366084884E-06
    1.0189094037E-06    1.0015122508E-06    9.8441188489E-07    9.6760324877E-07
    9.5108137115E-07    9.3484136539E-07    9.1887842799E-07    9.0318783718E-07
    8.8776495157E-07    8.7260520870E-07    8.5770412381E-07    8.4305728846E-07
    8.2866036921E-07    8.1450910639E-07    8.0059931284E-07    7.8692687264E-07
    7.7348773997E-07    7.6027793785E-07    7.4729355701E-07    7.3453075471E-07
    7.2198575366E-07    7.0965484084E-07    6.9753436646E-07    6.8562074288E-07
    6.7391044352E-07    6.6240000185E-07    6.5108601037E-07    6.3996511959E-07
    6.2903403707E-07    6.1828952641E-07    6.0772840636E-07    5.9734754981E-07
    5.8714388292E-07    5.7711438417E-07    5.6725608353E-07    5.5756606156E-07
    5.4804144852E-07    5.3867942355E-07    5.2947721384E-07    5.2043209381E-07
    5.1154138430E-07    5.0280245182E-07    4.9421270769E-07    4.8576960736E-07
    4.7747064962E-07    4.6931337587E-07    4.6129536939E-07    4.5341425464E-07
    4.4566769656E-07    4.3805339985E-07    4.3056910836E-07    4.2321260432E-07
    4.1598170780E-07    4.0887427601E-07    4.0188820265E-07    3.9502141732E-07
    3.8827188492E-07    3.8163760500E-07    3.7511661122E-07    3.6870697075E-07
    3.6240678371E-07    3.5621418257E-07    3.5012733166E-07    3.4414442657E-07
    3.3826369367E-07    3.3248338955E-07    3.2680180051E-07    3.2121724207E-07
    3.1572805846E-07    3.1033262214E-07    3.0502933331E-07    2.9981661943E-07
    2.9469293479E-07    2.8965676003E-07    2.8470660167E-07    2.7984099171E-07
    2.7505848717E-07    2.7035766968E-07    2.6573714506E-07    2.6119554287E-07
    2.5673151608E-07    2.5234374059E-07    2.4803091490E-07    2.4379175970E-07
    2.3962501748E-07    2.3552945220E-07    2.3150384889E-07    2.2754701327E-07
    2.2365777147E-07    2.1983496962E-07    2.1607747351E-07    2.1238416832E-07
    2.0875395820E-07    2.0518576600E-07    2.0167853297E-07    1.9823121838E-07
    1.9484279927E-07    1.9151227014E-07    1.8823864261E-07    1.8502094520E-07
    1.8185822296E-07    1.7874953725E-07    1.7569396545E-07    1.7269060067E-07
    1.6973855149E-07    1.6683694170E-07    1.6398491004E-07    1.6118160994E-07
    1.5842620926E-07    1.5571789009E-07    1.5305584845E-07    1.5043929409E-07
    1.4786745023E-07    1.4533955335E-07    1.4285485296E-07    1.4041261137E-07
    1.3801210350E-07    1.3565261660E-07    1.3333345013E-07    1.3105391547E-07
    1.2881333576E-07    1.2661104570E-07    1.2444639133E-07    1.2231872986E-07
    1.2022742947E-07    1.1817186912E-07    1.1615143836E-07    1.1416553718E-07
    1.1221357579E-07    1.1029497448E-07    1.0840916341E-07    1.0655558251E-07
    1.0473368124E-07    1.0294291844E-07    1.0118276223E-07    9.9452689774E-08
    9.7752187179E-08    9.6080749319E-08    9.4437879689E-08    9.2823090262E-08
    9.1235901339E-08    8.9675841410E-08    8.8142447017E-08    8.6635262614E-08
    8.5153840431E-08    8.3697740341E-08    8.2266529734E-08    8.0859783383E-08
    7.9477083319E-08    7.8118018714E-08    7.6782185753E-08    7.5469187515E-08
    7.4178633855E-08    7.2910141291E-08    7.1663332887E-08    7.0437838142E-08
    6.9233292886E-08    6.8049339165E-08    6.6885625136E-08    6.5741804967E-08
    6.4617538727E-08    6.3512492292E-08    6.2426337243E-08    6.1358750773E-08
    6.0309415584E-08    5.9278019797E-08    5.8264256860E-08    5.7267825455E-08
    5.6288429409E-08    5.5325777611E-08    5.4379583919E-08    5.3449567078E-08
    5.2535450639E-08    5.1636962871E-08    5.0753836685E-08    4.9885809554E-08
    4.9032623435E-08    4.8194024694E-08    4.7369764029E-08    4.6559596393E-08
    4.5763280927E-08    4.4980580887E-08    4.4211263569E-08    4.3455100249E-08
    4.2711866106E-08    4.1981340163E-08    4.1263305215E-08    4.0557547767E-08
    3.9863857974E-08    3.9182029572E-08    3.8511859822E-08    3.7853149451E-08
    3.7205702589E-08    3.6569326709E-08    3.5943832577E-08    3.5329034191E-08
    3.4724748723E-08    3.4130796473E-08    3.3547000811E-08    3.2973188124E-08
    3.2409187763E-08    3.1854831997E-08    3.1309955960E-08    3.0774397601E-08
    3.0247997642E-08    2.9730599523E-08    2.9222049361E-08    2.8722195900E-08
    2.8230890472E-08    2.7747986946E-08    2.7273341688E-08    2.6806813520E-08
    2.6348263676E-08    2.5897555761E-08    2.5454555712E-08    2.5019131754E-08
    2.4591154366E-08    2.4170496238E-08    2.3757032238E-08    2.3350639372E-08
    2.2951196748E-08    2.2558585538E-08    2.2172688947E-08    2.1793392174E-08
    2.1420582380E-08    2.1054148657E-08    2.0693981989E-08    2.0339975226E-08
    1.9992023048E-08    1.9650021935E-08    1.9313870135E-08    1.8983467636E-08
    1.8658716136E-08    1.8339519013E-08    1.8025781296E-08    1.7717409636E-08
    1.7414312283E-08    1.7116399050E-08    1.6823581296E-08    1.6535771892E-08
    1.6252885200E-08    1.5974837046E-08    1.5701544694E-08    1.5432926822E-08
    1.5168903499E-08    1.4909396159E-08    1.4654327578E-08    1.4403621855E-08
    1.4157204385E-08    1.3915001839E-08    1.3676942139E-08    1.3442954442E-08
    1.3212969114E-08    1.2986917713E-08    1.2764732965E-08    1.2546348747E-08
    1.2331700068E-08    1.2120723045E-08    1.1913354890E-08    1.1709533887E-08
    1.1509199373E-08    1.1312291726E-08    1.1118752339E-08    1.0928523612E-08
    1.0741548926E-08    1.0557772630E-08    1.0377140027E-08    1.0199597352E-08
    1.0025091762E-08    9.8535713138E-09    9.6849849566E-09    9.5192825099E-09
    9.3564146515E-09    9.1963329027E-09    9.0389896134E-09    8.8843379483E-09
    8.7323318720E-09    8.5829261378E-09    8.4360762720E-09    8.2917385609E-09
    8.1498700387E-09    8.0104284740E-09    7.8733723573E-09    7.7386608889E-09
    7.6062539666E-09    7.4761121746E-09    7.3481967705E-09    7.2224696746E-09
    7.0988934580E-09    6.9774313321E-09    6.8580471370E-09    6.7407053310E-09
    6.6253709807E-09    6.5120097500E-09    6.4005878897E-09    6.2910722278E-09
    6.1834301595E-09    6.0776296374E-09    5.9736391622E-09    5.8714277729E-09
    5.7709650387E-09    5.6722210489E-09    5.5751664041E-09    5.4797722079E-09
    5.3860100577E-09    5.2938520368E-09    5.2032707058E-09    5.1142390944E-09
    5.0267306942E-09    4.9407194496E-09    4.8561797508E-09    4.7730864256E-09
    4.6914147328E-09    4.6111403538E-09    4.5322393859E-09    4.4546883356E-09
    4.3784641111E-09    4.3035440155E-09    4.2299057399E-09    4.1575273571E-09
    4.0863873147E-09    4.0164644291E-09    3.9477378785E-09    3.8801871980E-09
    3.8137922723E-09    3.7485333302E-09    3.6843909387E-09    3.6213459970E-09
    3.5593797310E-09    3.4984736876E-09    3.4386097294E-09    3.3797700295E-09
    3.3219370657E-09    3.2650936154E-09    3.2092227507E-09    3.1543078332E-09
    3.1003325089E-09    3.0472807037E-09    2.9951366181E-09    2.9438847236E-09
    2.8935097566E-09    2.8439967150E-09    2.7953308530E-09    2.7474976772E-09
    2.7004829419E-09    2.6542726452E-09    2.6088530245E-09    2.5642105532E-09
    2.5203319355E-09    2.4772041033E-09    2.4348142118E-09    2.3931496362E-09
    2.3521979673E-09    2.3119470084E-09    2.2723847713E-09    2.2334994730E-09
    2.1952795321E-09    2.1577135652E-09    2.1207903836E-09    2.0844989900E-09
    2.0488285753E-09    2.0137685150E-09    1.9793083667E-09    1.9454378664E-09
    1.9121469261E-09    1.8794256298E-09    1.8472642314E-09    1.8156531516E-09
    1.7845829748E-09    1.7540444464E-09    1.7240284703E-09    1.6945261059E-09
    1.6655285657E-09    1.6370272125E-09    1.6090135566E-09    1.5814792538E-09
    1.5544161025E-09    1.5278160413E-09    1.5016711469E-09    1.4759736317E-09
    1.4507158409E-09    1.4258902511E-09    1.4014894672E-09    1.3775062210E-09
    1.3539333682E-09    1.3307638871E-09    1.3079908757E-09    1.2856075506E-09
    1.2636072442E-09    1.2419834030E-09    1.2207295855E-09    1.1998394606E-09
    1.1793068053E-09    1.1591255032E-09    1.1392895423E-09    1.1197930138E-09
    1.1006301100E-09    1.0817951222E-09    1.0632824397E-09    1.0450865477E-09
    1.0272020256E-09    1.0096235456E-09    9.9234587113E-10    9.7536385517E-10
    9.5867243882E-10    9.4226664969E-10    9.2614160045E-10    9.1029248737E-10
    8.9471458893E-10    8.7940326438E-10    8.6435395228E-10    8.4956216934E-10
    8.3502350902E-10    8.2073364011E-10    8.0668830552E-10    7.9288332095E-10
    7.7931457374E-10    7.6597802156E-10    7.5286969122E-10    7.3998567747E-10
    7.2732214205E-10    7.1487531227E-10    7.0264148000E-10    6.9061700054E-10
    6.7879829155E-10    6.6718183199E-10    6.5576416105E-10    6.4454187704E-10
   </PP_CHI.2>
   <PP_CHI.3
       type="real"
       size="1408"
       columns="4"
       index="3"
       occupation=" 2.000"
       pseudo_energy="   -0.3695197626E+01"
       label="5P"
       l="1" >
    1.3435468016E-12    2.4983975579E-04    9.9908285533E-04    2.2469011777E-03
    3.9919158015E-03    6.2321989233E-03    8.9652765392E-03    1.2188131885E-02
    1.5897209626E-02    2.0088420800E-02    2.4757148488E-02    2.9898254215E-02
    3.5506085078E-02    4.1574481560E-02    4.8096786054E-02    5.5065852052E-02
    6.2474054004E-02    7.0313297819E-02    7.8575031991E-02    8.7250259343E-02
    9.6329549354E-02    1.0580305106E-01    1.1566050648E-01    1.2589126464E-01
    1.3648429598E-01    1.4742820736E-01    1.5871125745E-01    1.7032137254E-01
    1.8224616283E-01    1.9447293902E-01    2.0698872924E-01    2.1978029641E-01
    2.3283415575E-01    2.4613659264E-01    2.5967368074E-01    2.7343130023E-01
    2.8739515629E-01    3.0155079771E-01    3.1588363564E-01    3.3037896236E-01
    3.4502197024E-01    3.5979777058E-01    3.7469141254E-01    3.8968790204E-01
    4.0477222056E-01    4.1992934387E-01    4.3514426070E-01    4.5040199114E-01
    4.6568760500E-01    4.8098623990E-01    4.9628311916E-01    5.1156356939E-01
    5.2681303787E-01    5.4201710960E-01    5.5716152401E-01    5.7223219132E-01
    5.8721520854E-01    6.0209687507E-01    6.1686370791E-01    6.3150245632E-01
    6.4600011622E-01    6.6034394391E-01    6.7452146944E-01    6.8852050939E-01
    7.0232917917E-01    7.1593590478E-01    7.2932943396E-01    7.4249884687E-01
    7.5543356607E-01    7.6812336607E-01    7.8055838212E-01    7.9272911851E-01
    8.0462645621E-01    8.1624165993E-01    8.2756638449E-01    8.3859268065E-01
    8.4931300023E-01    8.5972020071E-01    8.6980754904E-01    8.7956872501E-01
    8.8899782384E-01    8.9808935824E-01    9.0683825979E-01    9.1523987977E-01
    9.2328998932E-01    9.3098477906E-01    9.3832085805E-01    9.4529525223E-01
    9.5190540228E-01    9.5814916083E-01    9.6402478927E-01    9.6953095391E-01
    9.7466672162E-01    9.7943155503E-01    9.8382530718E-01    9.8784821568E-01
    9.9150089648E-01    9.9478433708E-01    9.9769988942E-01    1.0002492623E+00
    1.0024345134E+00    1.0042580410E+00    1.0057225752E+00    1.0068311690E+00
    1.0075871888E+00    1.0079943050E+00    1.0080564819E+00    1.0077779675E+00
    1.0071632834E+00    1.0062172137E+00    1.0049447947E+00    1.0033513036E+00
    1.0014422475E+00    9.9922335201E-01    9.9670055021E-01    9.9387997081E-01
    9.9076792687E-01    9.8737090416E-01    9.8369554959E-01    9.7974865959E-01
    9.7553716856E-01    9.7106813726E-01    9.6634874135E-01    9.6138625994E-01
    9.5618806422E-01    9.5076160622E-01    9.4511440769E-01    9.3925404908E-01
    9.3318815873E-01    9.2692440216E-01    9.2047047160E-01    9.1383407566E-01
    9.0702292926E-01    9.0004474376E-01    8.9290721731E-01    8.8561802544E-01
    8.7818481194E-01    8.7061518000E-01    8.6291668356E-01    8.5509681901E-01
    8.4716301719E-01    8.3912263560E-01    8.3098295101E-01    8.2275115233E-01
    8.1443433378E-01    8.0603948843E-01    7.9757350203E-01    7.8904314711E-01
    7.8045507755E-01    7.7181582332E-01    7.6313178565E-01    7.5440923249E-01
    7.4565429431E-01    7.3687296021E-01    7.2807107438E-01    7.1925433287E-01
    7.1042828068E-01    7.0159830917E-01    6.9276965376E-01    6.8394739201E-01
    6.7513644189E-01    6.6634156046E-01    6.5756734276E-01    6.4881822105E-01
    6.4009846425E-01    6.3141217774E-01    6.2276330338E-01    6.1415561976E-01
    6.0559274276E-01    5.9707812630E-01    5.8861506333E-01    5.8020668710E-01
    5.7185597252E-01    5.6356573788E-01    5.5533864664E-01    5.4717720946E-01
    5.3908378639E-01    5.3106058927E-01    5.2310968420E-01    5.1523299426E-01
    5.0743230228E-01    4.9970925379E-01    4.9206536009E-01    4.8450200138E-01
    4.7702043002E-01    4.6962177393E-01    4.6230703996E-01    4.5507711745E-01
    4.4793278174E-01    4.4087469783E-01    4.3390342403E-01    4.2701941567E-01
    4.2022302881E-01    4.1351452401E-01    4.0689407007E-01    4.0036174782E-01
    3.9391755389E-01    3.8756140442E-01    3.8129313886E-01    3.7511252365E-01
    3.6901925591E-01    3.6301296711E-01    3.5709322669E-01    3.5125954560E-01
    3.4551137983E-01    3.3984813390E-01    3.3426916422E-01    3.2877378247E-01
    3.2336125885E-01    3.1803082529E-01    3.1278167855E-01    3.0761298333E-01
    3.0252387517E-01    2.9751346340E-01    2.9258083387E-01    2.8772505174E-01
    2.8294516405E-01    2.7824020229E-01    2.7360918482E-01    2.6905111924E-01
    2.6456500464E-01    2.6014983375E-01    2.5580459506E-01    2.5152827475E-01
    2.4731985858E-01    2.4317833369E-01    2.3910269028E-01    2.3509192323E-01
    2.3114503357E-01    2.2726102994E-01    2.2343892987E-01    2.1967776102E-01
    2.1597656234E-01    2.1233438510E-01    2.0875029385E-01    2.0522336731E-01
    2.0175269916E-01    1.9833739872E-01    1.9497659158E-01    1.9166942020E-01
    1.8841504428E-01    1.8521264123E-01    1.8206140644E-01    1.7896055343E-01
    1.7590931410E-01    1.7290693869E-01    1.6995269585E-01    1.6704587250E-01
    1.6418577376E-01    1.6137172263E-01    1.5860305963E-01    1.5587913999E-01
    1.5319932975E-01    1.5056300028E-01    1.4796952790E-01    1.4541829437E-01
    1.4290868844E-01    1.4044010518E-01    1.3801194550E-01    1.3562361668E-01
    1.3327453226E-01    1.3096411210E-01    1.2869178240E-01    1.2645697571E-01
    1.2425913098E-01    1.2209769353E-01    1.1997211506E-01    1.1788185371E-01
    1.1582637397E-01    1.1380514676E-01    1.1181764936E-01    1.0986336541E-01
    1.0794178494E-01    1.0605240427E-01    1.0419472606E-01    1.0236825927E-01
    1.0057251908E-01    9.8807026947E-02    9.7071310503E-02    9.5364903554E-02
    9.3687346039E-02    9.2038183988E-02    9.0416969486E-02    8.8823260635E-02
    8.7256621503E-02    8.5716622088E-02    8.4202838271E-02    8.2714851766E-02
    8.1252250076E-02    7.9814626446E-02    7.8401579808E-02    7.7012714736E-02
    7.5647641390E-02    7.4305975469E-02    7.2987338157E-02    7.1691356067E-02
    7.0417661191E-02    6.9165890843E-02    6.7935687609E-02    6.6726699286E-02
    6.5538578833E-02    6.4370984309E-02    6.3223578826E-02    6.2096030484E-02
    6.0988012322E-02    5.9899202258E-02    5.8829283037E-02    5.7777942170E-02
    5.6744871882E-02    5.5729769053E-02    5.4732335168E-02    5.3752276251E-02
    5.2789302815E-02    5.1843129822E-02    5.0913476620E-02    5.0000066857E-02
    4.9102628435E-02    4.8220893490E-02    4.7354598325E-02    4.6503483344E-02
    4.5667293003E-02    4.4845775760E-02    4.4038684018E-02    4.3245774073E-02
    4.2466806066E-02    4.1701543925E-02    4.0949755317E-02    4.0211211598E-02
    3.9485687758E-02    3.8772962375E-02    3.8072817563E-02    3.7385038925E-02
    3.6709415498E-02    3.6045739714E-02    3.5393807342E-02    3.4753417449E-02
    3.4124372347E-02    3.3506477549E-02    3.2899541720E-02    3.2303376637E-02
    3.1717797139E-02    3.1142621081E-02    3.0577669295E-02    3.0022765544E-02
    2.9477736474E-02    2.8942411581E-02    2.8416623158E-02    2.7900206260E-02
    2.7392998661E-02    2.6894840813E-02    2.6405575804E-02    2.5925049322E-02
    2.5453109610E-02    2.4989607433E-02    2.4534396035E-02    2.4087331103E-02
    2.3648270729E-02    2.3217075374E-02    2.2793607830E-02    2.2377733184E-02
    2.1969318783E-02    2.1568234201E-02    2.1174351198E-02    2.0787543692E-02
    2.0407687723E-02    2.0034661419E-02    1.9668344964E-02    1.9308620565E-02
    1.8955372422E-02    1.8608486691E-02    1.8267851460E-02    1.7933356713E-02
    1.7604894303E-02    1.7282357920E-02    1.6965643062E-02    1.6654647007E-02
    1.6349268784E-02    1.6049409145E-02    1.5754970534E-02    1.5465857065E-02
    1.5181974493E-02    1.4903230185E-02    1.4629533097E-02    1.4360793745E-02
    1.4096924184E-02    1.3837837979E-02    1.3583450180E-02    1.3333677303E-02
    1.3088437300E-02    1.2847649537E-02    1.2611234774E-02    1.2379115137E-02
    1.2151214099E-02    1.1927456459E-02    1.1707768315E-02    1.1492077046E-02
    1.1280311291E-02    1.1072400927E-02    1.0868277050E-02    1.0667871950E-02
    1.0471119099E-02    1.0277953124E-02    1.0088309791E-02    9.9021259867E-03
    9.7193396977E-03    9.5398899933E-03    9.3637170071E-03    9.1907619192E-03
    9.0209669385E-03    8.8542752853E-03    8.6906311746E-03    8.5299797991E-03
    8.3722673127E-03    8.2174408144E-03    8.0654483322E-03    7.9162388075E-03
    7.7697620793E-03    7.6259688695E-03    7.4848107677E-03    7.3462402162E-03
    7.2102104958E-03    7.0766757114E-03    6.9455907782E-03    6.8169114076E-03
    6.6905940935E-03    6.5665960995E-03    6.4448754451E-03    6.3253908933E-03
    6.2081019373E-03    6.0929687886E-03    5.9799523644E-03    5.8690142752E-03
    5.7601168134E-03    5.6532229412E-03    5.5482962793E-03    5.4453010955E-03
    5.3442022934E-03    5.2449654015E-03    5.1475565627E-03    5.0519425231E-03
    4.9580906222E-03    4.8659687822E-03    4.7755454980E-03    4.6867898274E-03
    4.5996713813E-03    4.5141603139E-03    4.4302273134E-03    4.3478435930E-03
    4.2669808812E-03    4.1876114132E-03    4.1097079221E-03    4.0332436301E-03
    3.9581922398E-03    3.8845279261E-03    3.8122253279E-03    3.7412595398E-03
    3.6716061043E-03    3.6032410040E-03    3.5361406536E-03    3.4702818927E-03
    3.4056419780E-03    3.3421985763E-03    3.2799297569E-03    3.2188139849E-03
    3.1588301141E-03    3.0999573801E-03    3.0421753937E-03    2.9854641340E-03
    2.9298039422E-03    2.8751755153E-03    2.8215598992E-03    2.7689384835E-03
    2.7172929943E-03    2.6666054893E-03    2.6168583511E-03    2.5680342821E-03
    2.5201162982E-03    2.4730877239E-03    2.4269321861E-03    2.3816336094E-03
    2.3371762104E-03    2.2935444927E-03    2.2507232415E-03    2.2086975191E-03
    2.1674526594E-03    2.1269742634E-03    2.0872481944E-03    2.0482605733E-03
    2.0099977738E-03    1.9724464183E-03    1.9355933729E-03    1.8994257437E-03
    1.8639308718E-03    1.8290963297E-03    1.7949099168E-03    1.7613596554E-03
    1.7284337867E-03    1.6961207670E-03    1.6644092637E-03    1.6332881515E-03
    1.6027465088E-03    1.5727736139E-03    1.5433589413E-03    1.5144921587E-03
    1.4861631228E-03    1.4583618763E-03    1.4310786447E-03    1.4043038324E-03
    1.3780280203E-03    1.3522419619E-03    1.3269365803E-03    1.3021029658E-03
    1.2777323718E-03    1.2538162127E-03    1.2303460607E-03    1.2073136429E-03
    1.1847108385E-03    1.1625296761E-03    1.1407623309E-03    1.1194011223E-03
    1.0984385109E-03    1.0778670962E-03    1.0576796139E-03    1.0378689338E-03
    1.0184280568E-03    9.9935011290E-04    9.8062835887E-04    9.6225617570E-04
    9.4422706651E-04    9.2653465428E-04    9.0917267969E-04    8.9213499893E-04
    8.7541558163E-04    8.5900850878E-04    8.4290797068E-04    8.2710826499E-04
    8.1160379470E-04    7.9638906629E-04    7.8145868775E-04    7.6680736679E-04
    7.5242990901E-04    7.3832121605E-04    7.2447628391E-04    7.1089020118E-04
    6.9755814733E-04    6.8447539111E-04    6.7163728882E-04    6.5903928279E-04
    6.4667689975E-04    6.3454574931E-04    6.2264152242E-04    6.1095998990E-04
    5.9949700093E-04    5.8824848168E-04    5.7721043381E-04    5.6637893316E-04
    5.5575012835E-04    5.4532023943E-04    5.3508555659E-04    5.2504243888E-04
    5.1518731289E-04    5.0551667157E-04    4.9602707296E-04    4.8671513902E-04
    4.7757755445E-04    4.6861106550E-04    4.5981247890E-04    4.5117866066E-04
    4.4270653508E-04    4.3439308356E-04    4.2623534365E-04    4.1823040795E-04
    4.1037542311E-04    4.0266758883E-04    3.9510415692E-04    3.8768243025E-04
    3.8039976190E-04    3.7325355417E-04    3.6624125770E-04    3.5936037056E-04
    3.5260843739E-04    3.4598304853E-04    3.3948183917E-04    3.3310248851E-04
    3.2684271899E-04    3.2070029542E-04    3.1467302428E-04    3.0875875287E-04
    3.0295536860E-04    2.9726079822E-04    2.9167300713E-04    2.8618999862E-04
    2.8080981320E-04    2.7553052788E-04    2.7035025552E-04    2.6526714417E-04
    2.6027937637E-04    2.5538516857E-04    2.5058277048E-04    2.4587046440E-04
    2.4124656473E-04    2.3670941725E-04    2.3225739861E-04    2.2788891576E-04
    2.2360240535E-04    2.1939633320E-04    2.1526919374E-04    2.1121950953E-04
    2.0724583066E-04    2.0334673430E-04    1.9952082418E-04    1.9576673008E-04
    1.9208310735E-04    1.8846863647E-04    1.8492202254E-04    1.8144199482E-04
    1.7802730633E-04    1.7467673335E-04    1.7138907503E-04    1.6816315294E-04
    1.6499781066E-04    1.6189191337E-04    1.5884434745E-04    1.5585402009E-04
    1.5291985890E-04    1.5004081150E-04    1.4721584522E-04    1.4444394663E-04
    1.4172412129E-04    1.3905539333E-04    1.3643680509E-04    1.3386741686E-04
    1.3134630645E-04    1.2887256894E-04    1.2644531631E-04    1.2406367716E-04
    1.2172679636E-04    1.1943383479E-04    1.1718396901E-04    1.1497639097E-04
    1.1281030776E-04    1.1068494127E-04    1.0859952796E-04    1.0655331856E-04
    1.0454557784E-04    1.0257558429E-04    1.0064262993E-04    9.8746020001E-05
    9.6885072756E-05    9.5059119199E-05    9.3267502856E-05    9.1509579534E-05
    8.9784717098E-05    8.8092295242E-05    8.6431705270E-05    8.4802349880E-05
    8.3203642947E-05    8.1635009322E-05    8.0095884620E-05    7.8585715021E-05
    7.7103957076E-05    7.5650077509E-05    7.4223553029E-05    7.2823870144E-05
    7.1450524979E-05    7.0103023090E-05    6.8780879298E-05    6.7483617506E-05
    6.6210770539E-05    6.4961879966E-05    6.3736495949E-05    6.2534177073E-05
    6.1354490192E-05    6.0197010274E-05    5.9061320253E-05    5.7947010872E-05
    5.6853680548E-05    5.5780935218E-05    5.4728388206E-05    5.3695660081E-05
    5.2682378520E-05    5.1688178178E-05    5.0712700559E-05    4.9755593885E-05
    4.8816512975E-05    4.7895119118E-05    4.6991079952E-05    4.6104069347E-05
    4.5233767281E-05    4.4379859731E-05    4.3542038564E-05    4.2720001422E-05
    4.1913451622E-05    4.1122098045E-05    4.0345655029E-05    3.9583842271E-05
    3.8836384723E-05    3.8103012493E-05    3.7383460753E-05    3.6677469639E-05
    3.5984784165E-05    3.5305154128E-05    3.4638334017E-05    3.3984082927E-05
    3.3342164475E-05    3.2712346711E-05    3.2094402040E-05    3.1488107135E-05
    3.0893242861E-05    3.0309594195E-05    2.9736950147E-05    2.9175103689E-05
    2.8623851678E-05    2.8082994782E-05    2.7552337413E-05    2.7031687654E-05
    2.6520857187E-05    2.6019661235E-05    2.5527918484E-05    2.5045451029E-05
    2.4572084302E-05    2.4107647014E-05    2.3651971091E-05    2.3204891618E-05
    2.2766246773E-05    2.2335877775E-05    2.1913628826E-05    2.1499347052E-05
    2.1092882451E-05    2.0694087838E-05    2.0302818794E-05    1.9918933612E-05
    1.9542293248E-05    1.9172761268E-05    1.8810203804E-05    1.8454489500E-05
    1.8105489471E-05    1.7763077252E-05    1.7427128756E-05    1.7097522225E-05
    1.6774138192E-05    1.6456859434E-05    1.6145570931E-05    1.5840159825E-05
    1.5540515379E-05    1.5246528939E-05    1.4958093892E-05    1.4675105630E-05
    1.4397461510E-05    1.4125060820E-05    1.3857804743E-05    1.3595596317E-05
    1.3338340405E-05    1.3085943660E-05    1.2838314487E-05    1.2595363016E-05
    1.2357001068E-05    1.2123142120E-05    1.1893701278E-05    1.1668595245E-05
    1.1447742289E-05    1.1231062217E-05    1.1018476346E-05    1.0809907469E-05
    1.0605279836E-05    1.0404519120E-05    1.0207552393E-05    1.0014308098E-05
    9.8247160274E-06    9.6387072921E-06    9.4562143007E-06    9.2771707336E-06
    9.1015115194E-06    8.9291728115E-06    8.7600919651E-06    8.5942075145E-06
    8.4314591512E-06    8.2717877020E-06    8.1151351077E-06    7.9614444021E-06
    7.8106596918E-06    7.6627261357E-06    7.5175899252E-06    7.3751982651E-06
    7.2354993546E-06    7.0984423681E-06    6.9639774375E-06    6.8320556337E-06
    6.7026289494E-06    6.5756502815E-06    6.4510734141E-06    6.3288530020E-06
    6.2089445542E-06    6.0913044179E-06    5.9758897628E-06    5.8626585655E-06
    5.7515695945E-06    5.6425823951E-06    5.5356572750E-06    5.4307552899E-06
    5.3278382295E-06    5.2268686035E-06    5.1278096284E-06    5.0306252137E-06
    4.9352799494E-06    4.8417390930E-06    4.7499685568E-06    4.6599348957E-06
    4.5716052953E-06    4.4849475598E-06    4.3999301004E-06    4.3165219238E-06
    4.2346926213E-06    4.1544123575E-06    4.0756518598E-06    3.9983824073E-06
    3.9225758212E-06    3.8482044537E-06    3.7752411789E-06    3.7036593823E-06
    3.6334329514E-06    3.5645362665E-06    3.4969441910E-06    3.4306320625E-06
    3.3655756841E-06    3.3017513153E-06    3.2391356633E-06    3.1777058753E-06
    3.1174395293E-06    3.0583146266E-06    3.0003095837E-06    2.9434032241E-06
    2.8875747715E-06    2.8328038411E-06    2.7790704335E-06    2.7263549263E-06
    2.6746380676E-06    2.6239009691E-06    2.5741250990E-06    2.5252922752E-06
    2.4773846590E-06    2.4303847485E-06    2.3842753722E-06    2.3390396830E-06
    2.2946611516E-06    2.2511235611E-06    2.2084110008E-06    2.1665078603E-06
    2.1253988243E-06    2.0850688665E-06    2.0455032445E-06    2.0066874944E-06
    1.9686074255E-06    1.9312491151E-06    1.8945989036E-06    1.8586433893E-06
    1.8233694239E-06    1.7887641072E-06    1.7548147831E-06    1.7215090344E-06
    1.6888346786E-06    1.6567797633E-06    1.6253325621E-06    1.5944815702E-06
    1.5642155000E-06    1.5345232775E-06    1.5053940379E-06    1.4768171217E-06
    1.4487820709E-06    1.4212786251E-06    1.3942967182E-06    1.3678264739E-06
    1.3418582029E-06    1.3163823990E-06    1.2913897357E-06    1.2668710629E-06
    1.2428174036E-06    1.2192199501E-06    1.1960700618E-06    1.1733592612E-06
    1.1510792310E-06    1.1292218115E-06    1.1077789970E-06    1.0867429334E-06
    1.0661059152E-06    1.0458603824E-06    1.0259989183E-06    1.0065142461E-06
    9.8739922697E-07    9.6864685703E-07    9.5025026488E-07    9.3220270912E-07
    9.1449757587E-07    8.9712837638E-07    8.8008874471E-07    8.6337243532E-07
    8.4697332089E-07    8.3088539000E-07    8.1510274500E-07    7.9961959984E-07
    7.8443027798E-07    7.6952921030E-07    7.5491093308E-07    7.4057008600E-07
    7.2650141018E-07    7.1269974631E-07    6.9916003273E-07    6.8587730358E-07
    6.7284668700E-07    6.6006340336E-07    6.4752276351E-07    6.3522016708E-07
    6.2315110078E-07    6.1131113679E-07    5.9969593111E-07    5.8830122197E-07
    5.7712282834E-07    5.6615664832E-07    5.5539865772E-07    5.4484490852E-07
    5.3449152746E-07    5.2433471467E-07    5.1437074222E-07    5.0459595278E-07
    4.9500675829E-07    4.8559963867E-07    4.7637114047E-07    4.6731787570E-07
    4.5843652052E-07    4.4972381406E-07    4.4117655722E-07    4.3279161150E-07
    4.2456589786E-07    4.1649639559E-07    4.0858014123E-07    4.0081422744E-07
    3.9319580197E-07    3.8572206663E-07    3.7839027622E-07    3.7119773759E-07
    3.6414180860E-07    3.5721989721E-07    3.5042946045E-07    3.4376800357E-07
    3.3723307912E-07    3.3082228599E-07    3.2453326862E-07    3.1836371606E-07
    3.1231136118E-07    3.0637397982E-07    3.0054938998E-07    2.9483545102E-07
    2.8923006286E-07    2.8373116527E-07    2.7833673703E-07    2.7304479527E-07
    2.6785339470E-07    2.6276062692E-07    2.5776461969E-07    2.5286353628E-07
    2.4805557479E-07    2.4333896749E-07    2.3871198014E-07    2.3417291142E-07
    2.2972009225E-07    2.2535188520E-07    2.2106668390E-07    2.1686291244E-07
    2.1273902480E-07    2.0869350427E-07    2.0472486293E-07    2.0083164103E-07
    1.9701240656E-07    1.9326575464E-07    1.8959030705E-07    1.8598471171E-07
    1.8244764218E-07    1.7897779719E-07    1.7557390014E-07    1.7223469867E-07
    1.6895896415E-07    1.6574549130E-07    1.6259309765E-07    1.5950062321E-07
    1.5646692997E-07    1.5349090153E-07    1.5057144266E-07    1.4770747892E-07
    1.4489795624E-07    1.4214184057E-07    1.3943811747E-07    1.3678579176E-07
    1.3418388712E-07    1.3163144579E-07    1.2912752817E-07    1.2667121248E-07
    1.2426159444E-07    1.2189778696E-07    1.1957891974E-07    1.1730413903E-07
    1.1507260727E-07    1.1288350280E-07    1.1073601956E-07    1.0862936678E-07
    1.0656276871E-07    1.0453546432E-07    1.0254670703E-07    1.0059576442E-07
    9.8681917986E-08    9.6804462867E-08    9.4962707575E-08    9.3155973749E-08
    9.1383595909E-08    8.9644921205E-08    8.7939309191E-08    8.6266131573E-08
    8.4624771990E-08    8.3014625781E-08    8.1435099767E-08    7.9885612030E-08
    7.8365591705E-08    7.6874478766E-08    7.5411723822E-08    7.3976787912E-08
    7.2569142310E-08    7.1188268330E-08    6.9833657139E-08    6.8504809567E-08
    6.7201235922E-08    6.5922455812E-08    6.4667997969E-08    6.3437400074E-08
    6.2230208592E-08    6.1045978600E-08    5.9884273627E-08    5.8744665490E-08
    5.7626734142E-08    5.6530067509E-08    5.5454261350E-08    5.4398919102E-08
    5.3363651734E-08    5.2348077604E-08    5.1351822322E-08    5.0374518607E-08
    4.9415806156E-08    4.8475331514E-08    4.7552747940E-08    4.6647715279E-08
    4.5759899838E-08    4.4888974265E-08    4.4034617424E-08    4.3196514287E-08
    4.2374355808E-08    4.1567838812E-08    4.0776665885E-08    4.0000545266E-08
    3.9239190734E-08    3.8492321510E-08    3.7759662150E-08    3.7040942443E-08
    3.6335897314E-08    3.5644266723E-08    3.4965795573E-08    3.4300233615E-08
    3.3647335355E-08    3.3006859965E-08    3.2378571194E-08    3.1762237280E-08
    3.1157630867E-08    3.0564528917E-08    2.9982712634E-08    2.9411967380E-08
    2.8852082597E-08    2.8302851727E-08    2.7764072139E-08    2.7235545054E-08
    2.6717075469E-08    2.6208472092E-08    2.5709547264E-08    2.5220116893E-08
    2.4740000388E-08    2.4269020590E-08    2.3807003705E-08    2.3353779247E-08
    2.2909179971E-08    2.2473041807E-08    2.2045203809E-08    2.1625508088E-08
    2.1213799754E-08    2.0809926868E-08    2.0413740375E-08    2.0025094056E-08
    1.9643844470E-08    1.9269850906E-08    1.8902975325E-08    1.8543082313E-08
    1.8190039033E-08    1.7843715174E-08    1.7503982899E-08    1.7170716805E-08
    1.6843793872E-08    1.6523093419E-08    1.6208497060E-08    1.5899888661E-08
    1.5597154296E-08    1.5300182205E-08    1.5008862753E-08    1.4723088391E-08
    1.4442753611E-08    1.4167754918E-08    1.3897990781E-08    1.3633361600E-08
    1.3373769672E-08    1.3119119148E-08    1.2869316003E-08    1.2624268002E-08
    1.2383884664E-08    1.2148077227E-08    1.1916758618E-08    1.1689843421E-08
    1.1467247842E-08    1.1248889684E-08    1.1034688310E-08    1.0824564621E-08
    1.0618441018E-08    1.0416241381E-08    1.0217891037E-08    1.0023316733E-08
    9.8324466080E-09    9.6452101708E-09    9.4615382697E-09    9.2813630685E-09
    9.1046180211E-09    8.9312378475E-09    8.7611585091E-09    8.5943171856E-09
    8.4306522525E-09    8.2701032570E-09    8.1126108964E-09    7.9581169962E-09
    7.8065644884E-09    7.6578973904E-09    7.5120607851E-09    7.3690008004E-09
    7.2286645887E-09    7.0910003080E-09    6.9559571026E-09    6.8234850840E-09
    6.6935353128E-09    6.5660597812E-09    6.4410113947E-09    6.3183439548E-09
    6.1980121420E-09    6.0799714988E-09    5.9641784139E-09    5.8505901051E-09
    5.7391646050E-09    5.6298607447E-09    5.5226381385E-09    5.4174571690E-09
    5.3142789728E-09    5.2130654257E-09    5.1137791288E-09    5.0163833954E-09
    4.9208422370E-09    4.8271203494E-09    4.7351831006E-09    4.6449965172E-09
    4.5565272726E-09    4.4697426737E-09    4.3846106507E-09    4.3010997434E-09
    4.2191790906E-09    4.1388184181E-09    4.0599880279E-09    3.9826587872E-09
    3.9068021172E-09    3.8323899838E-09    3.7593948859E-09    3.6877898462E-09
    3.6175484003E-09    3.5486445877E-09    3.4810529420E-09    3.4147484810E-09
    3.3497066986E-09    3.2859035551E-09    3.2233154681E-09    3.1619193041E-09
    3.1016923697E-09    3.0426124038E-09    2.9846575682E-09    2.9278064413E-09
    2.8720380089E-09    2.8173316567E-09    2.7636671628E-09    2.7110246903E-09
    2.6593847796E-09    2.6087283415E-09    2.5590366505E-09    2.5102913373E-09
    2.4624743823E-09    2.4155681091E-09    2.3695551774E-09    2.3244185772E-09
    2.2801416220E-09    2.2367079432E-09    2.1941014839E-09    2.1523064927E-09
    2.1113075180E-09    2.0710894024E-09    2.0316372771E-09    1.9929365561E-09
    1.9549729310E-09    1.9177323662E-09    1.8812010933E-09    1.8453656057E-09
    1.8102126539E-09    1.7757292410E-09    1.7419026170E-09    1.7087202749E-09
    1.6761699458E-09    1.6442395946E-09    1.6129174150E-09    1.5821918256E-09
    1.5520514655E-09    1.5224851899E-09    1.4934820662E-09    1.4650313702E-09
    1.4371225817E-09    1.4097453809E-09    1.3828896445E-09    1.3565454416E-09
    1.3307030308E-09    1.3053528558E-09    1.2804855423E-09    1.2560918948E-09
    1.2321628927E-09    1.2086896872E-09    1.1856635977E-09    1.1630761093E-09
    1.1409188688E-09    1.1191836823E-09    1.0978625117E-09    1.0769474725E-09
    1.0564308296E-09    1.0363049958E-09    1.0165625279E-09    9.9719612469E-10
    9.7819862378E-10    9.5956299925E-10    9.4128235910E-10    9.2334994246E-10
    9.0575911718E-10    8.8850337742E-10    8.7157634118E-10    8.5497174800E-10
    8.3868345650E-10    8.2270544252E-10    8.0703179647E-10    7.9165672131E-10
    7.7657453038E-10    7.6177964529E-10    7.4726659388E-10    7.3303000814E-10
    7.1906462231E-10    7.0536527101E-10    6.9192688717E-10    6.7874450018E-10
    6.6581323411E-10    6.5312830584E-10    6.4068502338E-10    6.2847878396E-10
    6.1650507265E-10    6.0475946046E-10    5.9323760272E-10    5.8193523749E-10
    5.7084818399E-10    5.5997234105E-10    5.4930368559E-10    5.3883827110E-10
    5.2857222640E-10    5.1850175392E-10    5.0862312843E-10    4.9893269565E-10
    4.8942687087E-10    4.8010213766E-10    4.7095504650E-10    4.6198221364E-10
    4.5318031980E-10    4.4454610889E-10    4.3607638681E-10    4.2776802031E-10
    4.1961793579E-10    4.1162311820E-10    4.0378060984E-10    3.9608750947E-10
    3.8854097107E-10    3.8113820280E-10    3.7387646601E-10    3.6675307420E-10
    3.5976539202E-10    3.5291083432E-10    3.4618686512E-10    3.3959099689E-10
    3.3312078941E-10    3.2677384892E-10    3.2054782728E-10    3.1444042105E-10
    3.0844937066E-10    3.0257245956E-10    2.9680751341E-10    2.9115239937E-10
    2.8560502518E-10    2.8016333842E-10    2.7482532577E-10    2.6958901224E-10
    2.6445246047E-10    2.5941376998E-10    2.5447107649E-10    2.4962255130E-10
    2.4486640048E-10    2.4020086429E-10    2.3562421650E-10    2.3113476376E-10
    2.2673084498E-10    2.2241083066E-10    2.1817312239E-10    2.1401615223E-10
    2.0993838208E-10    2.0593830314E-10    2.0201443533E-10    1.9816532679E-10
    1.9438955329E-10    1.9068571772E-10    1.8705244960E-10    1.8348840459E-10
    1.7999226392E-10    1.7656273396E-10    1.7319854570E-10    1.6989845431E-10
    1.6666123869E-10    1.6348570093E-10    1.6037066603E-10    1.5731498133E-10
    1.5431751616E-10    1.5137716134E-10    1.4849282886E-10    1.4566345141E-10
    1.4288798201E-10    1.4016539361E-10    1.3749467875E-10    1.3487484918E-10
    1.3230493545E-10    1.2978398659E-10    1.2731106974E-10    1.2488526979E-10
    1.2250568910E-10    1.2017144707E-10    1.1788167993E-10    1.1563554036E-10
    1.1343219717E-10    1.1127083501E-10    1.0915065407E-10    1.0707086974E-10
    1.0503071240E-10    1.0302942705E-10    1.0106627309E-10    9.9140524050E-11
    9.7251467287E-11    9.5398403732E-11    9.3580647631E-11    9.1797526297E-11
    9.0048379853E-11    8.8332560993E-11    8.6649434721E-11    8.4998378189E-11
    8.3378780391E-11    8.1790041958E-11    8.0231574941E-11    7.8702802592E-11
    7.7203159147E-11    7.5732089623E-11    7.4289049585E-11    7.2873505015E-11
    7.1484932053E-11    7.0122816816E-11    6.8786655209E-11    6.7475952743E-11
    6.6190224346E-11    6.4928994189E-11    6.3691795494E-11    6.2478170393E-11
    6.1287669750E-11    6.0119852974E-11    5.8974287869E-11    5.7850550472E-11
    5.6748224896E-11    5.5666903178E-11    5.4606185123E-11    5.3565678152E-11
    5.2544997197E-11    5.1543764507E-11    5.0561609529E-11    4.9598168771E-11
    4.8653085664E-11    4.7726010432E-11    4.6816599964E-11    4.5924517667E-11
   </PP_CHI.3>
   <PP_CHI.4
       type="real"
       size="1408"
       columns="4"
       index="4"
       occupation=" 2.400"
       pseudo_energy="   -0.3087854867E+00"
       label="5D"
       l="2" >
    6.8521360461E-14    1.1055828999E-06    8.8426648056E-06    2.9832755844E-05
    7.0677403529E-05    1.3794824954E-04    2.3817713216E-04    3.7784624960E-04
    5.6337839912E-04    8.0112730711E-04    1.0973680649E-03    1.4582876849E-03
    1.8899757923E-03    2.3984154655E-03    2.9894742414E-03    3.6688952971E-03
    4.4422888249E-03    5.3151236111E-03    6.2927188340E-03    7.3802360937E-03
    8.5826716855E-03    9.9048491304E-03    1.1351411975E-02    1.2926816868E-02
    1.4635326938E-02    1.6481005459E-02    1.8467709843E-02    2.0599085948E-02
    2.2878562718E-02    2.5309347169E-02    2.7894419722E-02    3.0636529889E-02
    3.3538192338E-02    3.6601683309E-02    3.9829037431E-02    4.3222044900E-02
    4.6782249065E-02    5.0510944393E-02    5.4409174833E-02    5.8477732584E-02
    6.2717157258E-02    6.7127735446E-02    7.1709500692E-02    7.6462233862E-02
    8.1385463920E-02    8.6478469105E-02    9.1740278503E-02    9.7169674014E-02
    1.0276519271E-01    1.0852512960E-01    1.1444754071E-01    1.2053024663E-01
    1.2677083637E-01    1.3316667159E-01    1.3971489116E-01    1.4641241610E-01
    1.5325595486E-01    1.6024200885E-01    1.6736687837E-01    1.7462666880E-01
    1.8201729702E-01    1.8953449824E-01    1.9717383298E-01    2.0493069430E-01
    2.1280031533E-01    2.2077777696E-01    2.2885801577E-01    2.3703583208E-01
    2.4530589828E-01    2.5366276721E-01    2.6210088070E-01    2.7061457830E-01
    2.7919810601E-01    2.8784562520E-01    2.9655122147E-01    3.0530891372E-01
    3.1411266310E-01    3.2295638209E-01    3.3183394352E-01    3.4073918961E-01
    3.4966594092E-01    3.5860800531E-01    3.6755918680E-01    3.7651329439E-01
    3.8546415066E-01    3.9440560046E-01    4.0333151924E-01    4.1223582144E-01
    4.2111246858E-01    4.2995547726E-01    4.3875892695E-01    4.4751696757E-01
    4.5622382689E-01    4.6487381770E-01    4.7346134476E-01    4.8198091148E-01
    4.9042712641E-01    4.9879470942E-01    5.0707849767E-01    5.1527345124E-01
    5.2337465854E-01    5.3137734146E-01    5.3927686015E-01    5.4706871759E-01
    5.5474856381E-01    5.6231219988E-01    5.6975558154E-01    5.7707482255E-01
    5.8426619777E-01    5.9132614589E-01    5.9825127192E-01    6.0503834935E-01
    6.1168432200E-01    6.1818630561E-01    6.2454158915E-01    6.3074763579E-01
    6.3680208366E-01    6.4270274628E-01    6.4844761272E-01    6.5403484757E-01
    6.5946279053E-01    6.6472995585E-01    6.6983503146E-01    6.7477687790E-01
    6.7955452697E-01    6.8416718023E-01    6.8861420720E-01    6.9289514338E-01
    6.9700968811E-01    7.0095770214E-01    7.0473920512E-01    7.0835437284E-01
    7.1180353433E-01    7.1508716875E-01    7.1820590221E-01    7.2116050438E-01
    7.2395188496E-01    7.2658109005E-01    7.2904929840E-01    7.3135781749E-01
    7.3350807959E-01    7.3550163764E-01    7.3734016109E-01    7.3902543160E-01
    7.4055933877E-01    7.4194387567E-01    7.4318113438E-01    7.4427330149E-01
    7.4522265348E-01    7.4603155215E-01    7.4670243990E-01    7.4723783512E-01
    7.4764032741E-01    7.4791257290E-01    7.4805728951E-01    7.4807725219E-01
    7.4797528817E-01    7.4775427227E-01    7.4741712212E-01    7.4696679351E-01
    7.4640627568E-01    7.4573858665E-01    7.4496676865E-01    7.4409388350E-01
    7.4312300810E-01    7.4205722993E-01    7.4089964265E-01    7.3965334171E-01
    7.3832142005E-01    7.3690696392E-01    7.3541304864E-01    7.3384273463E-01
    7.3219906335E-01    7.3048505347E-01    7.2870369703E-01    7.2685795580E-01
    7.2495075765E-01    7.2298499311E-01    7.2096351202E-01    7.1888912029E-01
    7.1676457680E-01    7.1459259043E-01    7.1237581721E-01    7.1011685768E-01
    7.0781825427E-01    7.0548248893E-01    7.0311198090E-01    7.0070908460E-01
    6.9827608769E-01    6.9581520930E-01    6.9332859847E-01    6.9081833264E-01
    6.8828641647E-01    6.8573478067E-01    6.8316528115E-01    6.8057969825E-01
    6.7797973616E-01    6.7536702257E-01    6.7274310845E-01    6.7010946803E-01
    6.6746749891E-01    6.6481852243E-01    6.6216378415E-01    6.5950445451E-01
    6.5684162968E-01    6.5417633259E-01    6.5150951404E-01    6.4884205409E-01
    6.4617476350E-01    6.4350838541E-01    6.4084359707E-01    6.3818101177E-01
    6.3552118091E-01    6.3286459614E-01    6.3021169170E-01    6.2756284674E-01
    6.2491838792E-01    6.2227859191E-01    6.1964368815E-01    6.1701386156E-01
    6.1438925537E-01    6.1176997400E-01    6.0915608598E-01    6.0654762691E-01
    6.0394460243E-01    6.0134699124E-01    5.9875474807E-01    5.9616780671E-01
    5.9358608293E-01    5.9100947746E-01    5.8843787891E-01    5.8587116656E-01
    5.8330921321E-01    5.8075188787E-01    5.7819905839E-01    5.7565059402E-01
    5.7310636782E-01    5.7056625904E-01    5.6803015524E-01    5.6549795446E-01
    5.6296956707E-01    5.6044491763E-01    5.5792394646E-01    5.5540661117E-01
    5.5289288794E-01    5.5038277264E-01    5.4787628184E-01    5.4537345355E-01
    5.4287434779E-01    5.4037904707E-01    5.3788765648E-01    5.3540030401E-01
    5.3291713694E-01    5.3043831522E-01    5.2796399700E-01    5.2549433147E-01
    5.2302946443E-01    5.2056953698E-01    5.1811468544E-01    5.1566504168E-01
    5.1322073318E-01    5.1078188319E-01    5.0834861084E-01    5.0592103128E-01
    5.0349925576E-01    5.0108339178E-01    4.9867354317E-01    4.9626981023E-01
    4.9387228980E-01    4.9148107536E-01    4.8909625717E-01    4.8671792230E-01
    4.8434615476E-01    4.8198103559E-01    4.7962264292E-01    4.7727105207E-01
    4.7492633563E-01    4.7258856353E-01    4.7025780311E-01    4.6793411921E-01
    4.6561757422E-01    4.6330822817E-01    4.6100613877E-01    4.5871136151E-01
    4.5642394967E-01    4.5414395444E-01    4.5187142493E-01    4.4960640825E-01
    4.4734894957E-01    4.4509909217E-01    4.4285687746E-01    4.4062234508E-01
    4.3839553292E-01    4.3617647717E-01    4.3396521238E-01    4.3176177148E-01
    4.2956618586E-01    4.2737848537E-01    4.2519869839E-01    4.2302685186E-01
    4.2086297133E-01    4.1870708096E-01    4.1655920363E-01    4.1441936089E-01
    4.1228757306E-01    4.1016385922E-01    4.0804823728E-01    4.0594072398E-01
    4.0384133494E-01    4.0175008468E-01    3.9966698667E-01    3.9759205331E-01
    3.9552529603E-01    3.9346672524E-01    3.9141635042E-01    3.8937418009E-01
    3.8734022189E-01    3.8531448257E-01    3.8329696801E-01    3.8128768325E-01
    3.7928663254E-01    3.7729381931E-01    3.7530924623E-01    3.7333291522E-01
    3.7136482746E-01    3.6940498341E-01    3.6745338285E-01    3.6551002488E-01
    3.6357490794E-01    3.6164802982E-01    3.5972938769E-01    3.5781897812E-01
    3.5591679707E-01    3.5402283994E-01    3.5213710154E-01    3.5025957617E-01
    3.4839025756E-01    3.4652913893E-01    3.4467621300E-01    3.4283147198E-01
    3.4099490762E-01    3.3916651118E-01    3.3734627346E-01    3.3553418483E-01
    3.3373023521E-01    3.3193441409E-01    3.3014671056E-01    3.2836711330E-01
    3.2659561058E-01    3.2483219031E-01    3.2307684001E-01    3.2132954683E-01
    3.1959029756E-01    3.1785907866E-01    3.1613587622E-01    3.1442067602E-01
    3.1271346350E-01    3.1101422378E-01    3.0932294168E-01    3.0763960171E-01
    3.0596418808E-01    3.0429668472E-01    3.0263707527E-01    3.0098534308E-01
    2.9934147125E-01    2.9770544260E-01    2.9607723969E-01    2.9445684484E-01
    2.9284424011E-01    2.9123940730E-01    2.8964232801E-01    2.8805298358E-01
    2.8647135512E-01    2.8489742354E-01    2.8333116949E-01    2.8177257346E-01
    2.8022161567E-01    2.7867827619E-01    2.7714253484E-01    2.7561437128E-01
    2.7409376496E-01    2.7258069512E-01    2.7107514086E-01    2.6957708106E-01
    2.6808649444E-01    2.6660335952E-01    2.6512765469E-01    2.6365935813E-01
    2.6219844788E-01    2.6074490181E-01    2.5929869762E-01    2.5785981289E-01
    2.5642822500E-01    2.5500391123E-01    2.5358684866E-01    2.5217701428E-01
    2.5077438490E-01    2.4937893722E-01    2.4799064778E-01    2.4660949301E-01
    2.4523544921E-01    2.4386849252E-01    2.4250859901E-01    2.4115574458E-01
    2.3980990505E-01    2.3847105611E-01    2.3713917332E-01    2.3581423216E-01
    2.3449620798E-01    2.3318507603E-01    2.3188081148E-01    2.3058338936E-01
    2.2929278464E-01    2.2800897216E-01    2.2673192672E-01    2.2546162297E-01
    2.2419803551E-01    2.2294113885E-01    2.2169090741E-01    2.2044731554E-01
    2.1921033751E-01    2.1797994750E-01    2.1675611966E-01    2.1553882802E-01
    2.1432804658E-01    2.1312374925E-01    2.1192590989E-01    2.1073450232E-01
    2.0954950026E-01    2.0837087741E-01    2.0719860740E-01    2.0603266382E-01
    2.0487302022E-01    2.0371965007E-01    2.0257252685E-01    2.0143162396E-01
    2.0029691477E-01    1.9916837262E-01    1.9804597082E-01    1.9692968266E-01
    1.9581948137E-01    1.9471534018E-01    1.9361723229E-01    1.9252513087E-01
    1.9143900910E-01    1.9035884011E-01    1.8928459704E-01    1.8821625299E-01
    1.8715378109E-01    1.8609715444E-01    1.8504634613E-01    1.8400132927E-01
    1.8296207693E-01    1.8192856224E-01    1.8090075827E-01    1.7987863816E-01
    1.7886217500E-01    1.7785134194E-01    1.7684611210E-01    1.7584645866E-01
    1.7485235477E-01    1.7386377365E-01    1.7288068849E-01    1.7190307253E-01
    1.7093089905E-01    1.6996414133E-01    1.6900277269E-01    1.6804676649E-01
    1.6709609610E-01    1.6615073496E-01    1.6521065651E-01    1.6427583426E-01
    1.6334624174E-01    1.6242185253E-01    1.6150264026E-01    1.6058857861E-01
    1.5967964129E-01    1.5877580206E-01    1.5787703476E-01    1.5698331326E-01
    1.5609461148E-01    1.5521090342E-01    1.5433216311E-01    1.5345836467E-01
    1.5258948225E-01    1.5172549008E-01    1.5086636246E-01    1.5001207374E-01
    1.4916259836E-01    1.4831791079E-01    1.4747798561E-01    1.4664279745E-01
    1.4581232102E-01    1.4498653110E-01    1.4416540254E-01    1.4334891027E-01
    1.4253702932E-01    1.4172973476E-01    1.4092700177E-01    1.4012880560E-01
    1.3933512157E-01    1.3854592511E-01    1.3776119171E-01    1.3698089696E-01
    1.3620501653E-01    1.3543352618E-01    1.3466640175E-01    1.3390361919E-01
    1.3314515452E-01    1.3239098386E-01    1.3164108340E-01    1.3089542947E-01
    1.3015399845E-01    1.2941676682E-01    1.2868371118E-01    1.2795480820E-01
    1.2723003466E-01    1.2650936742E-01    1.2579278347E-01    1.2508025986E-01
    1.2437177377E-01    1.2366730245E-01    1.2296682327E-01    1.2227031370E-01
    1.2157775131E-01    1.2088911375E-01    1.2020437881E-01    1.1952352435E-01
    1.1884652834E-01    1.1817336886E-01    1.1750402408E-01    1.1683847230E-01
    1.1617669190E-01    1.1551866136E-01    1.1486435929E-01    1.1421376438E-01
    1.1356685544E-01    1.1292361137E-01    1.1228401119E-01    1.1164803403E-01
    1.1101565909E-01    1.1038686572E-01    1.0976163336E-01    1.0913994154E-01
    1.0852176991E-01    1.0790709823E-01    1.0729590635E-01    1.0668817425E-01
    1.0608388200E-01    1.0548300977E-01    1.0488553785E-01    1.0429144663E-01
    1.0370071661E-01    1.0311332839E-01    1.0252926267E-01    1.0194850027E-01
    1.0137102211E-01    1.0079680922E-01    1.0022584272E-01    9.9658103849E-02
    9.9093573948E-02    9.8532234460E-02    9.7974066936E-02    9.7419053030E-02
    9.6867174498E-02    9.6318413205E-02    9.5772751114E-02    9.5230170296E-02
    9.4690652922E-02    9.4154181268E-02    9.3620737712E-02    9.3090304735E-02
    9.2562864918E-02    9.2038400946E-02    9.1516895605E-02    9.0998331781E-02
    9.0482692462E-02    8.9969960736E-02    8.9460119790E-02    8.8953152913E-02
    8.8449043492E-02    8.7947775013E-02    8.7449331060E-02    8.6953695317E-02
    8.6460851564E-02    8.5970783679E-02    8.5483475638E-02    8.4998911513E-02
    8.4517075471E-02    8.4037951775E-02    8.3561524786E-02    8.3087778957E-02
    8.2616698836E-02    8.2148269066E-02    8.1682474383E-02    8.1219299615E-02
    8.0758729684E-02    8.0300749605E-02    7.9845344482E-02    7.9392499513E-02
    7.8942199985E-02    7.8494431275E-02    7.8049178853E-02    7.7606428273E-02
    7.7166165184E-02    7.6728375318E-02    7.6293044498E-02    7.5860158633E-02
    7.5429703720E-02    7.5001665842E-02    7.4576031167E-02    7.4152785950E-02
    7.3731916529E-02    7.3313409328E-02    7.2897250854E-02    7.2483427698E-02
    7.2071926534E-02    7.1662734118E-02    7.1255837288E-02    7.0851222963E-02
    7.0448878144E-02    7.0048789910E-02    6.9650945424E-02    6.9255331923E-02
    6.8861936728E-02    6.8470747236E-02    6.8081750920E-02    6.7694935335E-02
    6.7310288108E-02    6.6927796947E-02    6.6547449630E-02    6.6169234017E-02
    6.5793138038E-02    6.5419149699E-02    6.5047257081E-02    6.4677448336E-02
    6.4309711690E-02    6.3944035442E-02    6.3580407962E-02    6.3218817692E-02
    6.2859253145E-02    6.2501702903E-02    6.2146155620E-02    6.1792600018E-02
    6.1441024889E-02    6.1091419092E-02    6.0743771555E-02    6.0398071274E-02
    6.0054307311E-02    5.9712468796E-02    5.9372544924E-02    5.9034524955E-02
    5.8698398216E-02    5.8364154099E-02    5.8031782057E-02    5.7701271610E-02
    5.7372612341E-02    5.7045793894E-02    5.6720805978E-02    5.6397638362E-02
    5.6076280878E-02    5.5756723419E-02    5.5438955937E-02    5.5122968446E-02
    5.4808751020E-02    5.4496293792E-02    5.4185586953E-02    5.3876620753E-02
    5.3569385502E-02    5.3263871565E-02    5.2960069366E-02    5.2657969385E-02
    5.2357562160E-02    5.2058838284E-02    5.1761788404E-02    5.1466403225E-02
    5.1172673506E-02    5.0880590061E-02    5.0590143759E-02    5.0301325521E-02
    5.0014126319E-02    4.9728537180E-02    4.9444549183E-02    4.9162153458E-02
    4.8881341193E-02    4.8602103626E-02    4.8324432045E-02    4.8048317792E-02
    4.7773752249E-02    4.7500726852E-02    4.7229233086E-02    4.6959262481E-02
    4.6690806630E-02    4.6423857166E-02    4.6158405775E-02    4.5894444191E-02
    4.5631964191E-02    4.5370957598E-02    4.5111416282E-02    4.4853332162E-02
    4.4596697201E-02    4.4341503409E-02    4.4087742841E-02    4.3835407599E-02
    4.3584489830E-02    4.3334981724E-02    4.3086875520E-02    4.2840163496E-02
    4.2594837978E-02    4.2350891332E-02    4.2108315969E-02    4.1867104340E-02
    4.1627248942E-02    4.1388742312E-02    4.1151577030E-02    4.0915745717E-02
    4.0681241036E-02    4.0448055690E-02    4.0216182425E-02    3.9985614026E-02
    3.9756343318E-02    3.9528363167E-02    3.9301666479E-02    3.9076246199E-02
    3.8852095310E-02    3.8629206836E-02    3.8407573839E-02    3.8187189419E-02
    3.7968046715E-02    3.7750138904E-02    3.7533459199E-02    3.7318000853E-02
    3.7103757154E-02    3.6890721429E-02    3.6678887041E-02    3.6468247388E-02
    3.6258795906E-02    3.6050526067E-02    3.5843431379E-02    3.5637505384E-02
    3.5432741660E-02    3.5229133822E-02    3.5026675518E-02    3.4825360431E-02
    3.4625182279E-02    3.4426134813E-02    3.4228211820E-02    3.4031407119E-02
    3.3835714564E-02    3.3641128042E-02    3.3447641474E-02    3.3255248811E-02
    3.3063944040E-02    3.2873721180E-02    3.2684574281E-02    3.2496497428E-02
    3.2309484734E-02    3.2123530348E-02    3.1938628447E-02    3.1754773242E-02
    3.1571958974E-02    3.1390179917E-02    3.1209430372E-02    3.1029704674E-02
    3.0850997188E-02    3.0673302309E-02    3.0496614462E-02    3.0320928101E-02
    3.0146237712E-02    2.9972537809E-02    2.9799822936E-02    2.9628087667E-02
    2.9457326603E-02    2.9287534377E-02    2.9118705647E-02    2.8950835104E-02
    2.8783917464E-02    2.8617947472E-02    2.8452919902E-02    2.8288829557E-02
    2.8125671264E-02    2.7963439882E-02    2.7802130295E-02    2.7641737414E-02
    2.7482256179E-02    2.7323681557E-02    2.7166008539E-02    2.7009232146E-02
    2.6853347423E-02    2.6698349445E-02    2.6544233309E-02    2.6390994142E-02
    2.6238627094E-02    2.6087127342E-02    2.5936490090E-02    2.5786710564E-02
    2.5637784021E-02    2.5489705737E-02    2.5342471019E-02    2.5196075194E-02
    2.5050513617E-02    2.4905781668E-02    2.4761874749E-02    2.4618788288E-02
    2.4476517739E-02    2.4335058577E-02    2.4194406303E-02    2.4054556442E-02
    2.3915504542E-02    2.3777246176E-02    2.3639776940E-02    2.3503092451E-02
    2.3367188354E-02    2.3232060314E-02    2.3097704019E-02    2.2964115182E-02
    2.2831289537E-02    2.2699222841E-02    2.2567910875E-02    2.2437349441E-02
    2.2307534363E-02    2.2178461489E-02    2.2050126688E-02    2.1922525851E-02
    2.1795654891E-02    2.1669509743E-02    2.1544086364E-02    2.1419380731E-02
    2.1295388845E-02    2.1172106726E-02    2.1049530416E-02    2.0927655978E-02
    2.0806479498E-02    2.0685997078E-02    2.0566204847E-02    2.0447098950E-02
    2.0328675554E-02    2.0210930848E-02    2.0093861038E-02    1.9977462354E-02
    1.9861731044E-02    1.9746663375E-02    1.9632255638E-02    1.9518504139E-02
    1.9405405207E-02    1.9292955189E-02    1.9181150453E-02    1.9069987386E-02
    1.8959462392E-02    1.8849571899E-02    1.8740312348E-02    1.8631680206E-02
    1.8523671952E-02    1.8416284090E-02    1.8309513138E-02    1.8203355636E-02
    1.8097808140E-02    1.7992867227E-02    1.7888529490E-02    1.7784791541E-02
    1.7681650012E-02    1.7579101551E-02    1.7477142824E-02    1.7375770517E-02
    1.7274981331E-02    1.7174771986E-02    1.7075139222E-02    1.6976079792E-02
    1.6877590469E-02    1.6779668045E-02    1.6682309326E-02    1.6585511137E-02
    1.6489270319E-02    1.6393583733E-02    1.6298448253E-02    1.6203860772E-02
    1.6109818200E-02    1.6016317463E-02    1.5923355503E-02    1.5830929280E-02
    1.5739035769E-02    1.5647671963E-02    1.5556834869E-02    1.5466521513E-02
    1.5376728935E-02    1.5287454191E-02    1.5198694355E-02    1.5110446514E-02
    1.5022707773E-02    1.4935475252E-02    1.4848746086E-02    1.4762517426E-02
    1.4676786440E-02    1.4591550308E-02    1.4506806229E-02    1.4422551415E-02
    1.4338783093E-02    1.4255498507E-02    1.4172694913E-02    1.4090369585E-02
    1.4008519810E-02    1.3927142891E-02    1.3846236144E-02    1.3765796902E-02
    1.3685822510E-02    1.3606310328E-02    1.3527257733E-02    1.3448662114E-02
    1.3370520873E-02    1.3292831430E-02    1.3215591215E-02    1.3138797675E-02
    1.3062448270E-02    1.2986540474E-02    1.2911071775E-02    1.2836039673E-02
    1.2761441684E-02    1.2687275337E-02    1.2613538175E-02    1.2540227752E-02
    1.2467341638E-02    1.2394877416E-02    1.2322832682E-02    1.2251205044E-02
    1.2179992124E-02    1.2109191559E-02    1.2038800995E-02    1.1968818095E-02
    1.1899240533E-02    1.1830065994E-02    1.1761292179E-02    1.1692916800E-02
    1.1624937582E-02    1.1557352262E-02    1.1490158591E-02    1.1423354329E-02
    1.1356937253E-02    1.1290905149E-02    1.1225255817E-02    1.1159987067E-02
    1.1095096722E-02    1.1030582620E-02    1.0966442606E-02    1.0902674540E-02
    1.0839276294E-02    1.0776245750E-02    1.0713580804E-02    1.0651279361E-02
    1.0589339339E-02    1.0527758669E-02    1.0466535291E-02    1.0405667157E-02
    1.0345152231E-02    1.0284988489E-02    1.0225173917E-02    1.0165706513E-02
    1.0106584284E-02    1.0047805251E-02    9.9893674456E-03    9.9312689081E-03
    9.8735076919E-03    9.8160818602E-03    9.7589894875E-03    9.7022286588E-03
    9.6457974697E-03    9.5896940266E-03    9.5339164464E-03    9.4784628565E-03
    9.4233313948E-03    9.3685202095E-03    9.3140274592E-03    9.2598513128E-03
    9.2059899494E-03    9.1524415584E-03    9.0992043392E-03    9.0462765013E-03
    8.9936562643E-03    8.9413418577E-03    8.8893315209E-03    8.8376235032E-03
    8.7862160638E-03    8.7351074715E-03    8.6842960049E-03    8.6337799522E-03
    8.5835576113E-03    8.5336272897E-03    8.4839873042E-03    8.4346359812E-03
    8.3855716564E-03    8.3367926751E-03    8.2882973917E-03    8.2400841698E-03
    8.1921513823E-03    8.1444974114E-03    8.0971206482E-03    8.0500194930E-03
    8.0031923549E-03    7.9566376522E-03    7.9103538121E-03    7.8643392705E-03
    7.8185924723E-03    7.7731118710E-03    7.7278959290E-03    7.6829431173E-03
    7.6382519156E-03    7.5938208120E-03    7.5496483034E-03    7.5057328950E-03
    7.4620731005E-03    7.4186674421E-03    7.3755144503E-03    7.3326126638E-03
    7.2899606298E-03    7.2475569036E-03    7.2054000486E-03    7.1634886364E-03
    7.1218212468E-03    7.0803964676E-03    7.0392128946E-03    6.9982691314E-03
    6.9575637897E-03    6.9170954892E-03    6.8768628571E-03    6.8368645286E-03
    6.7970991467E-03    6.7575653620E-03    6.7182618328E-03    6.6791872250E-03
    6.6403402121E-03    6.6017194752E-03    6.5633237028E-03    6.5251515910E-03
    6.4872018431E-03    6.4494731701E-03    6.4119642900E-03    6.3746739284E-03
    6.3376008179E-03    6.3007436985E-03    6.2641013173E-03    6.2276724286E-03
    6.1914557938E-03    6.1554501812E-03    6.1196543664E-03    6.0840671318E-03
    6.0486872668E-03    6.0135135677E-03    5.9785448377E-03    5.9437798869E-03
    5.9092175319E-03    5.8748565965E-03    5.8406959109E-03    5.8067343121E-03
    5.7729706437E-03    5.7394037561E-03    5.7060325060E-03    5.6728557568E-03
    5.6398723785E-03    5.6070812473E-03    5.5744812461E-03    5.5420712639E-03
    5.5098501965E-03    5.4778169456E-03    5.4459704195E-03    5.4143095325E-03
    5.3828332053E-03    5.3515403647E-03    5.3204299438E-03    5.2895008817E-03
    5.2587521236E-03    5.2281826206E-03    5.1977913302E-03    5.1675772156E-03
    5.1375392460E-03    5.1076763966E-03    5.0779876483E-03    5.0484719881E-03
    5.0191284087E-03    4.9899559085E-03    4.9609534919E-03    4.9321201688E-03
    4.9034549549E-03    4.8749568715E-03    4.8466249457E-03    4.8184582099E-03
    4.7904557024E-03    4.7626164668E-03    4.7349395522E-03    4.7074240134E-03
    4.6800689105E-03    4.6528733089E-03    4.6258362796E-03    4.5989568989E-03
    4.5722342483E-03    4.5456674147E-03    4.5192554903E-03    4.4929975725E-03
    4.4668927637E-03    4.4409401719E-03    4.4151389099E-03    4.3894880957E-03
    4.3639868525E-03    4.3386343085E-03    4.3134295968E-03    4.2883718558E-03
    4.2634602286E-03    4.2386938633E-03    4.2140719131E-03    4.1895935360E-03
    4.1652578947E-03    4.1410641569E-03    4.1170114951E-03    4.0930990867E-03
    4.0693261136E-03    4.0456917625E-03    4.0221952251E-03    3.9988356973E-03
    3.9756123800E-03    3.9525244787E-03    3.9295712033E-03    3.9067517684E-03
    3.8840653933E-03    3.8615113014E-03    3.8390887211E-03    3.8167968849E-03
    3.7946350300E-03    3.7726023977E-03    3.7506982341E-03    3.7289217893E-03
    3.7072723180E-03    3.6857490791E-03    3.6643513358E-03    3.6430783557E-03
    3.6219294104E-03    3.6009037760E-03    3.5800007326E-03    3.5592195646E-03
    3.5385595604E-03    3.5180200127E-03    3.4976002183E-03    3.4772994778E-03
    3.4571170963E-03    3.4370523827E-03    3.4171046498E-03    3.3972732145E-03
    3.3775573978E-03    3.3579565245E-03    3.3384699233E-03    3.3190969268E-03
    3.2998368716E-03    3.2806890982E-03    3.2616529506E-03    3.2427277769E-03
    3.2239129289E-03    3.2052077623E-03    3.1866116363E-03    3.1681239141E-03
    3.1497439623E-03    3.1314711514E-03    3.1133048555E-03    3.0952444524E-03
    3.0772893235E-03    3.0594388537E-03    3.0416924315E-03    3.0240494491E-03
    3.0065093021E-03    2.9890713897E-03    2.9717351145E-03    2.9544998826E-03
    2.9373651038E-03    2.9203301910E-03    2.9033945606E-03    2.8865576325E-03
    2.8698188299E-03    2.8531775795E-03    2.8366333112E-03    2.8201854582E-03
    2.8038334570E-03    2.7875767476E-03    2.7714147730E-03    2.7553469795E-03
    2.7393728168E-03    2.7234917376E-03    2.7077031979E-03    2.6920066569E-03
    2.6764015768E-03    2.6608874231E-03    2.6454636644E-03    2.6301297723E-03
    2.6148852215E-03    2.5997294899E-03    2.5846620582E-03    2.5696824104E-03
    2.5547900334E-03    2.5399844170E-03    2.5252650541E-03    2.5106314405E-03
    2.4960830750E-03    2.4816194592E-03    2.4672400978E-03    2.4529444982E-03
    2.4387321708E-03    2.4246026288E-03    2.4105553883E-03    2.3965899682E-03
    2.3827058902E-03    2.3689026788E-03    2.3551798611E-03    2.3415369674E-03
    2.3279735302E-03    2.3144890853E-03    2.3010831706E-03    2.2877553273E-03
    2.2745050989E-03    2.2613320316E-03    2.2482356743E-03    2.2352155787E-03
    2.2222712988E-03    2.2094023916E-03    2.1966084162E-03    2.1838889347E-03
    2.1712435117E-03    2.1586717140E-03    2.1461731114E-03    2.1337472759E-03
    2.1213937821E-03    2.1091122072E-03    2.0969021306E-03    2.0847631344E-03
    2.0726948030E-03    2.0606967234E-03    2.0487684848E-03    2.0369096790E-03
    2.0251199001E-03    2.0133987445E-03    2.0017458111E-03    1.9901607010E-03
    1.9786430178E-03    1.9671923673E-03    1.9558083577E-03    1.9444905993E-03
    1.9332387049E-03    1.9220522895E-03    1.9109309703E-03    1.8998743668E-03
    1.8888821006E-03    1.8779537957E-03    1.8670890782E-03    1.8562875764E-03
    1.8455489207E-03    1.8348727439E-03    1.8242586807E-03    1.8137063680E-03
    1.8032154449E-03    1.7927855525E-03    1.7824163341E-03    1.7721074352E-03
    1.7618585030E-03    1.7516691871E-03    1.7415391391E-03    1.7314680125E-03
    1.7214554630E-03    1.7115011481E-03    1.7016047276E-03    1.6917658630E-03
    1.6819842180E-03    1.6722594582E-03    1.6625912510E-03    1.6529792661E-03
    1.6434231747E-03    1.6339226503E-03    1.6244773681E-03    1.6150870053E-03
    1.6057512410E-03    1.5964697560E-03    1.5872422332E-03    1.5780683573E-03
    1.5689478147E-03    1.5598802938E-03    1.5508654848E-03    1.5419030796E-03
    1.5329927721E-03    1.5241342578E-03    1.5153272341E-03    1.5065714002E-03
    1.4978664569E-03    1.4892121070E-03    1.4806080547E-03    1.4720540063E-03
    1.4635496696E-03    1.4550947541E-03    1.4466889712E-03    1.4383320338E-03
    1.4300236564E-03    1.4217635556E-03    1.4135514491E-03    1.4053870567E-03
    1.3972700996E-03    1.3892003008E-03    1.3811773847E-03    1.3732010774E-03
    1.3652711069E-03    1.3573872023E-03    1.3495490946E-03    1.3417565164E-03
    1.3340092017E-03    1.3263068861E-03    1.3186493068E-03    1.3110362026E-03
    1.3034673136E-03    1.2959423818E-03    1.2884611503E-03    1.2810233639E-03
    1.2736287691E-03    1.2662771134E-03    1.2589681462E-03    1.2517016183E-03
    1.2444772817E-03    1.2372948902E-03    1.2301541988E-03    1.2230549641E-03
    1.2159969439E-03    1.2089798977E-03    1.2020035863E-03    1.1950677717E-03
    1.1881722177E-03    1.1813166890E-03    1.1745009522E-03    1.1677247748E-03
    1.1609879260E-03    1.1542901762E-03    1.1476312971E-03    1.1410110619E-03
    1.1344292449E-03    1.1278856220E-03    1.1213799702E-03    1.1149120679E-03
    1.1084816947E-03    1.1020886317E-03    1.0957326611E-03    1.0894135664E-03
    1.0831311324E-03    1.0768851452E-03    1.0706753920E-03    1.0645016615E-03
    1.0583637435E-03    1.0522614290E-03    1.0461945102E-03    1.0401627806E-03
    1.0341660349E-03    1.0282040690E-03    1.0222766799E-03    1.0163836660E-03
    1.0105248267E-03    1.0046999627E-03    9.9890887567E-04    9.9315136866E-04
    9.8742724577E-04    9.8173631226E-04    9.7607837454E-04    9.7045324016E-04
    9.6486071778E-04    9.5930061719E-04    9.5377274931E-04    9.4827692614E-04
    9.4281296080E-04    9.3738066751E-04    9.3197986156E-04    9.2661035934E-04
    9.2127197830E-04    9.1596453698E-04    9.1068785497E-04    9.0544175291E-04
    9.0022605251E-04    8.9504057652E-04    8.8988514872E-04    8.8475959392E-04
    8.7966373797E-04    8.7459740774E-04    8.6956043110E-04    8.6455263694E-04
    8.5957385515E-04    8.5462391663E-04    8.4970265324E-04    8.4480989785E-04
    8.3994548430E-04    8.3510924742E-04    8.3030102298E-04    8.2552064773E-04
    8.2076795937E-04    8.1604279656E-04    8.1134499890E-04    8.0667440692E-04
    8.0203086210E-04    7.9741420685E-04    7.9282428448E-04    7.8826093924E-04
    7.8372401629E-04    7.7921336168E-04    7.7472882239E-04    7.7027024627E-04
    7.6583748208E-04    7.6143037946E-04    7.5704878892E-04    7.5269256187E-04
    7.4836155056E-04    7.4405560812E-04    7.3977458856E-04    7.3551834670E-04
   </PP_CHI.4>
   <PP_CHI.5
       type="real"
       size="1408"
       columns="4"
       index="5"
       occupation=" 1.600"
       pseudo_energy="   -0.3623016835E+00"
       label="5D"
       l="2" >
    7.5057581678E-14    1.1932432829E-06    9.5437494955E-06    3.2197801154E-05
    7.6279736732E-05    1.4888102084E-04    2.5704936501E-04    4.0777791590E-04
    6.0799452760E-04    8.6455113459E-04    1.1842132419E-03    1.5736495490E-03
    2.0394217230E-03    2.5879743377E-03    3.2256249947E-03    3.9585546409E-03
    4.7927980985E-03    5.7342348233E-03    6.7885799039E-03    7.9613753192E-03
    9.2579814652E-03    1.0683568968E-02    1.2243110793E-02    1.3941374666E-02
    1.5782915819E-02    1.7772070068E-02    1.9912947243E-02    2.2209424970E-02
    2.4665142826E-02    2.7283496873E-02    3.0067634577E-02    3.3020450125E-02
    3.6144580148E-02    3.9442399855E-02    4.2916019589E-02    4.6567281801E-02
    5.0397758465E-02    5.4408748923E-02    5.8601278163E-02    6.2976095554E-02
    6.7533674012E-02    7.2274209619E-02    7.7197621686E-02    8.2303553268E-02
    8.7591372114E-02    9.3060172073E-02    9.8708774932E-02    1.0453573270E-01
    1.1053933031E-01    1.1671758877E-01    1.2306826873E-01    1.2958887442E-01
    1.3627665811E-01    1.4312862481E-01    1.5014153748E-01    1.5731192259E-01
    1.6463607602E-01    1.7211006933E-01    1.7972975639E-01    1.8749078033E-01
    1.9538858077E-01    2.0341840142E-01    2.1157529793E-01    2.1985414598E-01
    2.2824964969E-01    2.3675635022E-01    2.4536863459E-01    2.5408074474E-01
    2.6288678672E-01    2.7178074012E-01    2.8075646757E-01    2.8980772439E-01
    2.9892816842E-01    3.0811136979E-01    3.1735082095E-01    3.2663994658E-01
    3.3597211364E-01    3.4534064137E-01    3.5473881134E-01    3.6415987742E-01
    3.7359707576E-01    3.8304363462E-01    3.9249278424E-01    4.0193776649E-01
    4.1137184451E-01    4.2078831212E-01    4.3018050314E-01    4.3954180055E-01
    4.4886564540E-01    4.5814554563E-01    4.6737508455E-01    4.7654792923E-01
    4.8565783853E-01    4.9469867100E-01    5.0366439238E-01    5.1254908299E-01
    5.2134694469E-01    5.3005230764E-01    5.3865963674E-01    5.4716353776E-01
    5.5555876316E-01    5.6384021756E-01    5.7200296298E-01    5.8004222362E-01
    5.8795339044E-01    5.9573202531E-01    6.0337386487E-01    6.1087482406E-01
    6.1823099929E-01    6.2543867130E-01    6.3249430764E-01    6.3939456489E-01
    6.4613629048E-01    6.5271652424E-01    6.5913249959E-01    6.6538164442E-01
    6.7146158167E-01    6.7737012960E-01    6.8310530175E-01    6.8866530661E-01
    6.9404854700E-01    6.9925361919E-01    7.0427931169E-01    7.0912460385E-01
    7.1378866416E-01    7.1827084832E-01    7.2257069701E-01    7.2668793354E-01
    7.3062246120E-01    7.3437436040E-01    7.3794388563E-01    7.4133146222E-01
    7.4453768292E-01    7.4756330427E-01    7.5040924286E-01    7.5307657140E-01
    7.5556651463E-01    7.5788044513E-01    7.6001987893E-01    7.6198647110E-01
    7.6378201116E-01    7.6540841837E-01    7.6686773699E-01    7.6816213139E-01
    7.6929388113E-01    7.7026537594E-01    7.7107911062E-01    7.7173767998E-01
    7.7224377356E-01    7.7260017051E-01    7.7280973427E-01    7.7287540733E-01
    7.7280020591E-01    7.7258721467E-01    7.7223958139E-01    7.7176051164E-01
    7.7115326349E-01    7.7042114220E-01    7.6956749498E-01    7.6859570570E-01
    7.6750918971E-01    7.6631138863E-01    7.6500576524E-01    7.6359579838E-01
    7.6208497794E-01    7.6047679986E-01    7.5877476127E-01    7.5698235564E-01
    7.5510306801E-01    7.5314037039E-01    7.5109771709E-01    7.4897854035E-01
    7.4678624587E-01    7.4452420859E-01    7.4219576852E-01    7.3980422667E-01
    7.3735284121E-01    7.3484482357E-01    7.3228333489E-01    7.2967148244E-01
    7.2701231627E-01    7.2430882601E-01    7.2156393775E-01    7.1878051120E-01
    7.1596133689E-01    7.1310913363E-01    7.1022654609E-01    7.0731614260E-01
    7.0438041308E-01    7.0142176718E-01    6.9844253264E-01    6.9544495378E-01
    6.9243119020E-01    6.8940331573E-01    6.8636331750E-01    6.8331309524E-01
    6.8025446080E-01    6.7718913783E-01    6.7411876172E-01    6.7104487965E-01
    6.6796895093E-01    6.6489234750E-01    6.6181635458E-01    6.5874217162E-01
    6.5567091333E-01    6.5260361099E-01    6.4954121385E-01    6.4648459081E-01
    6.4343453218E-01    6.4039175167E-01    6.3735688852E-01    6.3433050980E-01
    6.3131311279E-01    6.2830512765E-01    6.2530692001E-01    6.2231879389E-01
    6.1934099460E-01    6.1637371178E-01    6.1341708256E-01    6.1047119477E-01
    6.0753609022E-01    6.0461176808E-01    6.0169818827E-01    5.9879527488E-01
    5.9590291969E-01    5.9302098559E-01    5.9014931011E-01    5.8728770884E-01
    5.8443597894E-01    5.8159390251E-01    5.7876124994E-01    5.7593778324E-01
    5.7312325928E-01    5.7031743290E-01    5.6752005997E-01    5.6473090034E-01
    5.6194972067E-01    5.5917629710E-01    5.5641041779E-01    5.5365188539E-01
    5.5090051917E-01    5.4815615721E-01    5.4541865821E-01    5.4268790323E-01
    5.3996379723E-01    5.3724627036E-01    5.3453527914E-01    5.3183080733E-01
    5.2913286657E-01    5.2644149705E-01    5.2375676753E-01    5.2107877579E-01
    5.1840764444E-01    5.1574351324E-01    5.1308652083E-01    5.1043679568E-01
    5.0779446304E-01    5.0515964347E-01    5.0253245283E-01    4.9991300255E-01
    4.9730139976E-01    4.9469774738E-01    4.9210214431E-01    4.8951468547E-01
    4.8693546202E-01    4.8436456138E-01    4.8180206741E-01    4.7924806047E-01
    4.7670261757E-01    4.7416581244E-01    4.7163771561E-01    4.6911839457E-01
    4.6660791381E-01    4.6410633490E-01    4.6161371662E-01    4.5913011502E-01
    4.5665558349E-01    4.5419017286E-01    4.5173393147E-01    4.4928690522E-01
    4.4684913769E-01    4.4442067015E-01    4.4200154168E-01    4.3959178921E-01
    4.3719144757E-01    4.3480054958E-01    4.3241912609E-01    4.3004720604E-01
    4.2768481652E-01    4.2533198283E-01    4.2298872852E-01    4.2065507543E-01
    4.1833104379E-01    4.1601665219E-01    4.1371191771E-01    4.1141685589E-01
    4.0913148083E-01    4.0685580521E-01    4.0458984031E-01    4.0233359610E-01
    4.0008708124E-01    3.9785030312E-01    3.9562326791E-01    3.9340598060E-01
    3.9119844502E-01    3.8900066388E-01    3.8681263879E-01    3.8463437033E-01
    3.8246585802E-01    3.8030710042E-01    3.7815809509E-01    3.7601883869E-01
    3.7388932693E-01    3.7176955466E-01    3.6965951586E-01    3.6755920370E-01
    3.6546861051E-01    3.6338772786E-01    3.6131654654E-01    3.5925505662E-01
    3.5720324744E-01    3.5516110765E-01    3.5312862521E-01    3.5110578746E-01
    3.4909258106E-01    3.4708899209E-01    3.4509500601E-01    3.4311060770E-01
    3.4113578150E-01    3.3917051117E-01    3.3721477996E-01    3.3526857061E-01
    3.3333186534E-01    3.3140464591E-01    3.2948689360E-01    3.2757858922E-01
    3.2567971317E-01    3.2379024540E-01    3.2191016544E-01    3.2003945244E-01
    3.1817808514E-01    3.1632604190E-01    3.1448330073E-01    3.1264983926E-01
    3.1082563480E-01    3.0901066431E-01    3.0720490443E-01    3.0540833146E-01
    3.0362092145E-01    3.0184265009E-01    3.0007349282E-01    2.9831342481E-01
    2.9656242092E-01    2.9482045578E-01    2.9308750375E-01    2.9136353897E-01
    2.8964853529E-01    2.8794246639E-01    2.8624530566E-01    2.8455702634E-01
    2.8287760139E-01    2.8120700362E-01    2.7954520562E-01    2.7789217978E-01
    2.7624789830E-01    2.7461233322E-01    2.7298545639E-01    2.7136723948E-01
    2.6975765402E-01    2.6815667135E-01    2.6656426268E-01    2.6498039905E-01
    2.6340505137E-01    2.6183819039E-01    2.6027978673E-01    2.5872981088E-01
    2.5718823320E-01    2.5565502393E-01    2.5413015317E-01    2.5261359092E-01
    2.5110530705E-01    2.4960527135E-01    2.4811345346E-01    2.4662982296E-01
    2.4515434929E-01    2.4368700182E-01    2.4222774983E-01    2.4077656248E-01
    2.3933340887E-01    2.3789825800E-01    2.3647107880E-01    2.3505184012E-01
    2.3364051071E-01    2.3223705929E-01    2.3084145448E-01    2.2945366483E-01
    2.2807365885E-01    2.2670140496E-01    2.2533687153E-01    2.2398002688E-01
    2.2263083927E-01    2.2128927691E-01    2.1995530795E-01    2.1862890051E-01
    2.1731002265E-01    2.1599864239E-01    2.1469472772E-01    2.1339824659E-01
    2.1210916689E-01    2.1082745651E-01    2.0955308329E-01    2.0828601505E-01
    2.0702621957E-01    2.0577366463E-01    2.0452831796E-01    2.0329014728E-01
    2.0205912031E-01    2.0083520474E-01    1.9961836823E-01    1.9840857845E-01
    1.9720580306E-01    1.9601000972E-01    1.9482116605E-01    1.9363923971E-01
    1.9246419834E-01    1.9129600958E-01    1.9013464107E-01    1.8898006047E-01
    1.8783223544E-01    1.8669113365E-01    1.8555672278E-01    1.8442897052E-01
    1.8330784460E-01    1.8219331273E-01    1.8108534268E-01    1.7998390220E-01
    1.7888895911E-01    1.7780048122E-01    1.7671843639E-01    1.7564279249E-01
    1.7457351745E-01    1.7351057920E-01    1.7245394574E-01    1.7140358508E-01
    1.7035946529E-01    1.6932155447E-01    1.6828982078E-01    1.6726423239E-01
    1.6624475756E-01    1.6523136458E-01    1.6422402178E-01    1.6322269757E-01
    1.6222736039E-01    1.6123797874E-01    1.6025452120E-01    1.5927695638E-01
    1.5830525298E-01    1.5733937974E-01    1.5637930548E-01    1.5542499908E-01
    1.5447642950E-01    1.5353356575E-01    1.5259637694E-01    1.5166483222E-01
    1.5073890084E-01    1.4981855211E-01    1.4890375545E-01    1.4799448032E-01
    1.4709069628E-01    1.4619237297E-01    1.4529948012E-01    1.4441198754E-01
    1.4352986513E-01    1.4265308288E-01    1.4178161085E-01    1.4091541922E-01
    1.4005447824E-01    1.3919875828E-01    1.3834822978E-01    1.3750286328E-01
    1.3666262942E-01    1.3582749895E-01    1.3499744270E-01    1.3417243162E-01
    1.3335243674E-01    1.3253742923E-01    1.3172738031E-01    1.3092226136E-01
    1.3012204383E-01    1.2932669928E-01    1.2853619940E-01    1.2775051597E-01
    1.2696962089E-01    1.2619348616E-01    1.2542208390E-01    1.2465538634E-01
    1.2389336583E-01    1.2313599481E-01    1.2238324587E-01    1.2163509169E-01
    1.2089150507E-01    1.2015245894E-01    1.1941792633E-01    1.1868788040E-01
    1.1796229443E-01    1.1724114181E-01    1.1652439606E-01    1.1581203080E-01
    1.1510401980E-01    1.1440033693E-01    1.1370095620E-01    1.1300585172E-01
    1.1231499774E-01    1.1162836862E-01    1.1094593886E-01    1.1026768307E-01
    1.0959357600E-01    1.0892359249E-01    1.0825770755E-01    1.0759589628E-01
    1.0693813393E-01    1.0628439585E-01    1.0563465754E-01    1.0498889461E-01
    1.0434708280E-01    1.0370919798E-01    1.0307521615E-01    1.0244511343E-01
    1.0181886605E-01    1.0119645039E-01    1.0057784296E-01    9.9963020381E-02
    9.9351959400E-02    9.8744636900E-02    9.8141029885E-02    9.7541115488E-02
    9.6944870968E-02    9.6352273709E-02    9.5763301221E-02    9.5177931143E-02
    9.4596141237E-02    9.4017909392E-02    9.3443213623E-02    9.2872032070E-02
    9.2304342998E-02    9.1740124798E-02    9.1179355985E-02    9.0622015199E-02
    9.0068081206E-02    8.9517532894E-02    8.8970349275E-02    8.8426509487E-02
    8.7885992789E-02    8.7348778563E-02    8.6814846316E-02    8.6284175675E-02
    8.5756746391E-02    8.5232538335E-02    8.4711531501E-02    8.4193706002E-02
    8.3679042073E-02    8.3167520070E-02    8.2659120468E-02    8.2153823861E-02
    8.1651610962E-02    8.1152462603E-02    8.0656359735E-02    8.0163283425E-02
    7.9673214858E-02    7.9186135337E-02    7.8702026280E-02    7.8220869222E-02
    7.7742645811E-02    7.7267337813E-02    7.6794927107E-02    7.6325395685E-02
    7.5858725655E-02    7.5394899235E-02    7.4933898758E-02    7.4475706667E-02
    7.4020305518E-02    7.3567677976E-02    7.3117806818E-02    7.2670674930E-02
    7.2226265307E-02    7.1784561053E-02    7.1345545381E-02    7.0909201610E-02
    7.0475513167E-02    7.0044463586E-02    6.9616036506E-02    6.9190215671E-02
    6.8766984930E-02    6.8346328238E-02    6.7928229651E-02    6.7512673329E-02
    6.7099643536E-02    6.6689124636E-02    6.6281101095E-02    6.5875557479E-02
    6.5472478455E-02    6.5071848790E-02    6.4673653348E-02    6.4277877095E-02
    6.3884505090E-02    6.3493522493E-02    6.3104914559E-02    6.2718666640E-02
    6.2334764181E-02    6.1953192725E-02    6.1573937908E-02    6.1196985459E-02
    6.0822321200E-02    6.0449931047E-02    6.0079801006E-02    5.9711917176E-02
    5.9346265745E-02    5.8982832993E-02    5.8621605288E-02    5.8262569087E-02
    5.7905710937E-02    5.7551017470E-02    5.7198475408E-02    5.6848071558E-02
    5.6499792814E-02    5.6153626154E-02    5.5809558642E-02    5.5467577426E-02
    5.5127669738E-02    5.4789822893E-02    5.4454024287E-02    5.4120261402E-02
    5.3788521797E-02    5.3458793114E-02    5.3131063076E-02    5.2805319485E-02
    5.2481550221E-02    5.2159743244E-02    5.1839886593E-02    5.1521968382E-02
    5.1205976804E-02    5.0891900128E-02    5.0579726699E-02    5.0269444937E-02
    4.9961043337E-02    4.9654510468E-02    4.9349834974E-02    4.9047005571E-02
    4.8746011047E-02    4.8446840265E-02    4.8149482158E-02    4.7853925728E-02
    4.7560160053E-02    4.7268174275E-02    4.6977957611E-02    4.6689499344E-02
    4.6402788826E-02    4.6117815479E-02    4.5834568789E-02    4.5553038314E-02
    4.5273213674E-02    4.4995084558E-02    4.4718640721E-02    4.4443871982E-02
    4.4170768223E-02    4.3899319395E-02    4.3629515509E-02    4.3361346640E-02
    4.3094802927E-02    4.2829874571E-02    4.2566551834E-02    4.2304825042E-02
    4.2044684579E-02    4.1786120892E-02    4.1529124486E-02    4.1273685928E-02
    4.1019795844E-02    4.0767444918E-02    4.0516623894E-02    4.0267323572E-02
    4.0019534810E-02    3.9773248523E-02    3.9528455682E-02    3.9285147315E-02
    3.9043314510E-02    3.8802948408E-02    3.8564040207E-02    3.8326581161E-02
    3.8090562571E-02    3.7855975792E-02    3.7622812237E-02    3.7391063367E-02
    3.7160720704E-02    3.6931775820E-02    3.6704220339E-02    3.6478045941E-02
    3.6253244349E-02    3.6029807340E-02    3.5807726741E-02    3.5586994428E-02
    3.5367602328E-02    3.5149542419E-02    3.4932806727E-02    3.4717387325E-02
    3.4503276339E-02    3.4290465941E-02    3.4078948351E-02    3.3868715838E-02
    3.3659760717E-02    3.3452075350E-02    3.3245652143E-02    3.3040483552E-02
    3.2836562076E-02    3.2633880261E-02    3.2432430698E-02    3.2232206022E-02
    3.2033198913E-02    3.1835402096E-02    3.1638808340E-02    3.1443410456E-02
    3.1249201301E-02    3.1056173773E-02    3.0864320814E-02    3.0673635407E-02
    3.0484110579E-02    3.0295739398E-02    3.0108514974E-02    2.9922430458E-02
    2.9737479043E-02    2.9553653961E-02    2.9370948485E-02    2.9189355931E-02
    2.9008869651E-02    2.8829483040E-02    2.8651189530E-02    2.8473982594E-02
    2.8297855743E-02    2.8122802528E-02    2.7948816535E-02    2.7775891392E-02
    2.7604020763E-02    2.7433198351E-02    2.7263417895E-02    2.7094673172E-02
    2.6926957995E-02    2.6760266215E-02    2.6594591719E-02    2.6429928429E-02
    2.6266270306E-02    2.6103611344E-02    2.5941945572E-02    2.5781267058E-02
    2.5621569902E-02    2.5462848239E-02    2.5305096240E-02    2.5148308109E-02
    2.4992478086E-02    2.4837600442E-02    2.4683669486E-02    2.4530679557E-02
    2.4378625028E-02    2.4227500307E-02    2.4077299832E-02    2.3928018077E-02
    2.3779649546E-02    2.3632188775E-02    2.3485630335E-02    2.3339968826E-02
    2.3195198882E-02    2.3051315166E-02    2.2908312374E-02    2.2766185233E-02
    2.2624928501E-02    2.2484536966E-02    2.2345005447E-02    2.2206328794E-02
    2.2068501886E-02    2.1931519632E-02    2.1795376973E-02    2.1660068876E-02
    2.1525590342E-02    2.1391936396E-02    2.1259102096E-02    2.1127082528E-02
    2.0995872807E-02    2.0865468075E-02    2.0735863503E-02    2.0607054292E-02
    2.0479035670E-02    2.0351802891E-02    2.0225351239E-02    2.0099676026E-02
    1.9974772589E-02    1.9850636295E-02    1.9727262535E-02    1.9604646729E-02
    1.9482784325E-02    1.9361670793E-02    1.9241301635E-02    1.9121672375E-02
    1.9002778566E-02    1.8884615784E-02    1.8767179634E-02    1.8650465745E-02
    1.8534469771E-02    1.8419187393E-02    1.8304614316E-02    1.8190746270E-02
    1.8077579011E-02    1.7965108319E-02    1.7853329998E-02    1.7742239878E-02
    1.7631833812E-02    1.7522107679E-02    1.7413057379E-02    1.7304678840E-02
    1.7196968009E-02    1.7089920862E-02    1.6983533394E-02    1.6877801625E-02
    1.6772721600E-02    1.6668289384E-02    1.6564501067E-02    1.6461352762E-02
    1.6358840603E-02    1.6256960748E-02    1.6155709378E-02    1.6055082694E-02
    1.5955076921E-02    1.5855688307E-02    1.5756913119E-02    1.5658747649E-02
    1.5561188208E-02    1.5464231130E-02    1.5367872771E-02    1.5272109506E-02
    1.5176937735E-02    1.5082353875E-02    1.4988354366E-02    1.4894935669E-02
    1.4802094266E-02    1.4709826659E-02    1.4618129369E-02    1.4526998940E-02
    1.4436431935E-02    1.4346424937E-02    1.4256974550E-02    1.4168077397E-02
    1.4079730120E-02    1.3991929384E-02    1.3904671869E-02    1.3817954278E-02
    1.3731773332E-02    1.3646125771E-02    1.3561008355E-02    1.3476417862E-02
    1.3392351091E-02    1.3308804857E-02    1.3225775996E-02    1.3143261360E-02
    1.3061257823E-02    1.2979762275E-02    1.2898771625E-02    1.2818282800E-02
    1.2738292745E-02    1.2658798423E-02    1.2579796815E-02    1.2501284920E-02
    1.2423259755E-02    1.2345718354E-02    1.2268657768E-02    1.2192075066E-02
    1.2115967335E-02    1.2040331677E-02    1.1965165215E-02    1.1890465084E-02
    1.1816228441E-02    1.1742452455E-02    1.1669134315E-02    1.1596271225E-02
    1.1523860408E-02    1.1451899099E-02    1.1380384554E-02    1.1309314042E-02
    1.1238684850E-02    1.1168494279E-02    1.1098739649E-02    1.1029418294E-02
    1.0960527563E-02    1.0892064823E-02    1.0824027455E-02    1.0756412855E-02
    1.0689218436E-02    1.0622441626E-02    1.0556079868E-02    1.0490130620E-02
    1.0424591354E-02    1.0359459560E-02    1.0294732741E-02    1.0230408414E-02
    1.0166484112E-02    1.0102957384E-02    1.0039825790E-02    9.9770869070E-03
    9.9147383267E-03    9.8527776541E-03    9.7912025087E-03    9.7300105244E-03
    9.6691993490E-03    9.6087666444E-03    9.5487100865E-03    9.4890273649E-03
    9.4297161832E-03    9.3707742586E-03    9.3121993218E-03    9.2539891173E-03
    9.1961414029E-03    9.1386539499E-03    9.0815245428E-03    9.0247509796E-03
    8.9683310711E-03    8.9122626415E-03    8.8565435279E-03    8.8011715804E-03
    8.7461446619E-03    8.6914606481E-03    8.6371174276E-03    8.5831129014E-03
    8.5294449832E-03    8.4761115993E-03    8.4231106884E-03    8.3704402014E-03
    8.3180981018E-03    8.2660823650E-03    8.2143909787E-03    8.1630219429E-03
    8.1119732692E-03    8.0612429816E-03    8.0108291155E-03    7.9607297186E-03
    7.9109428501E-03    7.8614665808E-03    7.8122989932E-03    7.7634381815E-03
    7.7148822511E-03    7.6666293190E-03    7.6186775136E-03    7.5710249744E-03
    7.5236698521E-03    7.4766103089E-03    7.4298445177E-03    7.3833706625E-03
    7.3371869385E-03    7.2912915516E-03    7.2456827186E-03    7.2003586669E-03
    7.1553176349E-03    7.1105578714E-03    7.0660776360E-03    7.0218751987E-03
    6.9779488400E-03    6.9342968508E-03    6.8909175323E-03    6.8478091961E-03
    6.8049701639E-03    6.7623987677E-03    6.7200933495E-03    6.6780522613E-03
    6.6362738653E-03    6.5947565335E-03    6.5534986477E-03    6.5124985997E-03
    6.4717547909E-03    6.4312656326E-03    6.3910295454E-03    6.3510449599E-03
    6.3113103161E-03    6.2718240632E-03    6.2325846603E-03    6.1935905755E-03
    6.1548402863E-03    6.1163322797E-03    6.0780650515E-03    6.0400371071E-03
    6.0022469606E-03    5.9646931354E-03    5.9273741638E-03    5.8902885871E-03
    5.8534349554E-03    5.8168118277E-03    5.7804177718E-03    5.7442513642E-03
    5.7083111901E-03    5.6725958433E-03    5.6371039262E-03    5.6018340498E-03
    5.5667848336E-03    5.5319549053E-03    5.4973429012E-03    5.4629474658E-03
    5.4287672522E-03    5.3948009212E-03    5.3610471423E-03    5.3275045928E-03
    5.2941719582E-03    5.2610479322E-03    5.2281312162E-03    5.1954205197E-03
    5.1629145602E-03    5.1306120630E-03    5.0985117610E-03    5.0666123951E-03
    5.0349127139E-03    5.0034114736E-03    4.9721074380E-03    4.9409993786E-03
    4.9100860743E-03    4.8793663115E-03    4.8488388843E-03    4.8185025938E-03
    4.7883562487E-03    4.7583986651E-03    4.7286286661E-03    4.6990450823E-03
    4.6696467513E-03    4.6404325179E-03    4.6114012341E-03    4.5825517587E-03
    4.5538829579E-03    4.5253937045E-03    4.4970828784E-03    4.4689493665E-03
    4.4409920624E-03    4.4132098664E-03    4.3856016860E-03    4.3581664348E-03
    4.3309030337E-03    4.3038104099E-03    4.2768874974E-03    4.2501332364E-03
    4.2235465741E-03    4.1971264640E-03    4.1708718660E-03    4.1447817464E-03
    4.1188550780E-03    4.0930908398E-03    4.0674880172E-03    4.0420456019E-03
    4.0167625917E-03    3.9916379906E-03    3.9666708088E-03    3.9418600627E-03
    3.9172047746E-03    3.8927039730E-03    3.8683566922E-03    3.8441619728E-03
    3.8201188609E-03    3.7962264088E-03    3.7724836746E-03    3.7488897223E-03
    3.7254436215E-03    3.7021444476E-03    3.6789912819E-03    3.6559832112E-03
    3.6331193281E-03    3.6103987306E-03    3.5878205224E-03    3.5653838130E-03
    3.5430877169E-03    3.5209313546E-03    3.4989138517E-03    3.4770343394E-03
    3.4552919541E-03    3.4336858378E-03    3.4122151377E-03    3.3908790062E-03
    3.3696766011E-03    3.3486070853E-03    3.3276696271E-03    3.3068633996E-03
    3.2861875815E-03    3.2656413561E-03    3.2452239122E-03    3.2249344434E-03
    3.2047721482E-03    3.1847362305E-03    3.1648258987E-03    3.1450403663E-03
    3.1253788518E-03    3.1058405783E-03    3.0864247740E-03    3.0671306716E-03
    3.0479575089E-03    3.0289045281E-03    3.0099709765E-03    2.9911561056E-03
    2.9724591720E-03    2.9538794367E-03    2.9354161653E-03    2.9170686280E-03
    2.8988360996E-03    2.8807178593E-03    2.8627131909E-03    2.8448213826E-03
    2.8270417270E-03    2.8093735212E-03    2.7918160666E-03    2.7743686689E-03
    2.7570306382E-03    2.7398012889E-03    2.7226799398E-03    2.7056659136E-03
    2.6887585375E-03    2.6719571429E-03    2.6552610651E-03    2.6386696440E-03
    2.6221822231E-03    2.6057981503E-03    2.5895167775E-03    2.5733374608E-03
    2.5572595599E-03    2.5412824390E-03    2.5254054658E-03    2.5096280124E-03
    2.4939494544E-03    2.4783691715E-03    2.4628865473E-03    2.4475009692E-03
    2.4322118284E-03    2.4170185200E-03    2.4019204427E-03    2.3869169991E-03
    2.3720075954E-03    2.3571916417E-03    2.3424685517E-03    2.3278377427E-03
    2.3132986356E-03    2.2988506551E-03    2.2844932294E-03    2.2702257901E-03
    2.2560477728E-03    2.2419586161E-03    2.2279577625E-03    2.2140446578E-03
    2.2002187512E-03    2.1864794956E-03    2.1728263472E-03    2.1592587654E-03
    2.1457762132E-03    2.1323781570E-03    2.1190640664E-03    2.1058334144E-03
    2.0926856772E-03    2.0796203344E-03    2.0666368687E-03    2.0537347662E-03
    2.0409135162E-03    2.0281726111E-03    2.0155115465E-03    2.0029298212E-03
    1.9904269371E-03    1.9780023992E-03    1.9656557158E-03    1.9533863979E-03
    1.9411939600E-03    1.9290779192E-03    1.9170377960E-03    1.9050731137E-03
    1.8931833986E-03    1.8813681800E-03    1.8696269902E-03    1.8579593643E-03
    1.8463648405E-03    1.8348429596E-03    1.8233932657E-03    1.8120153053E-03
    1.8007086281E-03    1.7894727865E-03    1.7783073356E-03    1.7672118334E-03
    1.7561858407E-03    1.7452289209E-03    1.7343406403E-03    1.7235205679E-03
    1.7127682754E-03    1.7020833370E-03    1.6914653298E-03    1.6809138334E-03
    1.6704284303E-03    1.6600087052E-03    1.6496542457E-03    1.6393646420E-03
    1.6291394868E-03    1.6189783752E-03    1.6088809051E-03    1.5988466768E-03
    1.5888752930E-03    1.5789663592E-03    1.5691194830E-03    1.5593342748E-03
    1.5496103472E-03    1.5399473153E-03    1.5303447968E-03    1.5208024114E-03
    1.5113197817E-03    1.5018965321E-03    1.4925322899E-03    1.4832266844E-03
    1.4739793474E-03    1.4647899128E-03    1.4556580170E-03    1.4465832986E-03
    1.4375653985E-03    1.4286039598E-03    1.4196986279E-03    1.4108490505E-03
    1.4020548774E-03    1.3933157605E-03    1.3846313541E-03    1.3760013146E-03
    1.3674253005E-03    1.3589029724E-03    1.3504339933E-03    1.3420180280E-03
    1.3336547436E-03    1.3253438093E-03    1.3170848961E-03    1.3088776774E-03
    1.3007218286E-03    1.2926170270E-03    1.2845629519E-03    1.2765592849E-03
    1.2686057093E-03    1.2607019105E-03    1.2528475760E-03    1.2450423950E-03
    1.2372860589E-03    1.2295782608E-03    1.2219186961E-03    1.2143070617E-03
    1.2067430566E-03    1.1992263817E-03    1.1917567399E-03    1.1843338356E-03
    1.1769573755E-03    1.1696270678E-03    1.1623426227E-03    1.1551037522E-03
    1.1479101700E-03    1.1407615919E-03    1.1336577352E-03    1.1265983190E-03
    1.1195830642E-03    1.1126116937E-03    1.1056839317E-03    1.0987995045E-03
    1.0919581399E-03    1.0851595676E-03    1.0784035188E-03    1.0716897266E-03
    1.0650179255E-03    1.0583878520E-03    1.0517992440E-03    1.0452518412E-03
    1.0387453848E-03    1.0322796177E-03    1.0258542846E-03    1.0194691315E-03
    1.0131239061E-03    1.0068183577E-03    1.0005522373E-03    9.9432529737E-04
    9.8813729183E-04    9.8198797629E-04    9.7587710784E-04    9.6980444513E-04
    9.6376974829E-04    9.5777277900E-04    9.5181330040E-04    9.4589107714E-04
    9.4000587537E-04    9.3415746267E-04    9.2834560811E-04    9.2257008221E-04
    9.1683065692E-04    9.1112710565E-04    9.0545920320E-04    8.9982672584E-04
    8.9422945118E-04    8.8866715830E-04    8.8313962761E-04    8.7764664093E-04
    8.7218798147E-04    8.6676343376E-04    8.6137278373E-04    8.5601581863E-04
    8.5069232705E-04    8.4540209893E-04    8.4014492551E-04    8.3492059935E-04
    8.2972891433E-04    8.2456966560E-04    8.1944264963E-04    8.1434766415E-04
    8.0928450817E-04    8.0425298195E-04    7.9925288704E-04    7.9428402620E-04
    7.8934620347E-04    7.8443922409E-04    7.7956289455E-04    7.7471702253E-04
    7.6990141696E-04    7.6511588793E-04    7.6036024677E-04    7.5563430594E-04
    7.5093787915E-04    7.4627078122E-04    7.4163282816E-04    7.3702383716E-04
    7.3244362652E-04    7.2789201572E-04    7.2336882535E-04    7.1887387713E-04
    7.1440699393E-04    7.0996799970E-04    7.0555671952E-04    7.0117297956E-04
    6.9681660709E-04    6.9248743047E-04    6.8818527914E-04    6.8390998359E-04
    6.7966137541E-04    6.7543928724E-04    6.7124355276E-04    6.6707400670E-04
    6.6293048486E-04    6.5881282402E-04    6.5472086204E-04    6.5065443776E-04
    6.4661339106E-04    6.4259756282E-04    6.3860679492E-04    6.3464093023E-04
    6.3069981262E-04    6.2678328693E-04    6.2289119899E-04    6.1902339559E-04
    6.1517972449E-04    6.1136003441E-04    6.0756417500E-04    6.0379199690E-04
    6.0004335164E-04    5.9631809172E-04    5.9261607056E-04    5.8893714249E-04
    5.8528116277E-04    5.8164798756E-04    5.7803747393E-04    5.7444947987E-04
    5.7088386422E-04    5.6734048675E-04    5.6381920808E-04    5.6031988973E-04
    5.5684239409E-04    5.5338658440E-04    5.4995232476E-04    5.4653948016E-04
    5.4314791639E-04    5.3977750012E-04    5.3642809885E-04    5.3309958091E-04
    5.2979181545E-04    5.2650467246E-04    5.2323802273E-04    5.1999173790E-04
    5.1676569036E-04    5.1355975335E-04    5.1037380090E-04    5.0720770780E-04
    5.0406134968E-04    5.0093460290E-04    4.9782734463E-04    4.9473945280E-04
    4.9167080613E-04    4.8862128406E-04    4.8559076683E-04    4.8257913542E-04
    4.7958627154E-04    4.7661205767E-04    4.7365637702E-04    4.7071911353E-04
    4.6780015188E-04    4.6489937746E-04    4.6201667639E-04    4.5915193551E-04
    4.5630504236E-04    4.5347588521E-04    4.5066435300E-04    4.4787033540E-04
    4.4509372275E-04    4.4233440610E-04    4.3959227716E-04    4.3686722836E-04
    4.3415915275E-04    4.3146794411E-04    4.2879349685E-04    4.2613570607E-04
   </PP_CHI.5>
   <PP_CHI.6
       type="real"
       size="1408"
       columns="4"
       index="6"
       occupation=" 2.000"
       pseudo_energy="   -0.4202455683E+00"
       label="6S"
       l="0" >
    1.9255430583E-14   -5.8566667819E-03   -1.1710479920E-02   -1.7558585610E-02
   -2.3398129733E-02   -2.9226257713E-02   -3.5040114381E-02   -4.0836843869E-02
   -4.6613589520E-02   -5.2367493831E-02   -5.8095698428E-02   -6.3795344074E-02
   -6.9463570731E-02   -7.5097517651E-02   -8.0694323534E-02   -8.6251126724E-02
   -9.1765065474E-02   -9.7233278267E-02   -1.0265290420E-01   -1.0802108342E-01
   -1.1333495768E-01   -1.1859167090E-01   -1.2378836984E-01   -1.2892220484E-01
   -1.3399033064E-01   -1.3898990727E-01   -1.4391810106E-01   -1.4877208563E-01
   -1.5354904309E-01   -1.5824616522E-01   -1.6286065478E-01   -1.6738972690E-01
   -1.7183061049E-01   -1.7618054985E-01   -1.8043680621E-01   -1.8459665946E-01
   -1.8865740988E-01   -1.9261638000E-01   -1.9647091650E-01   -2.0021839212E-01
   -2.0385620775E-01   -2.0738179451E-01   -2.1079261583E-01   -2.1408616973E-01
   -2.1725999099E-01   -2.2031165347E-01   -2.2323877242E-01   -2.2603900687E-01
   -2.2871006195E-01   -2.3124969139E-01   -2.3365569986E-01   -2.3592594550E-01
   -2.3805834233E-01   -2.4005086271E-01   -2.4190153981E-01   -2.4360847008E-01
   -2.4516981565E-01   -2.4658380676E-01   -2.4784874417E-01   -2.4896300153E-01
   -2.4992502768E-01   -2.5073334897E-01   -2.5138657148E-01   -2.5188338324E-01
   -2.5222255632E-01   -2.5240294894E-01   -2.5242350744E-01   -2.5228326825E-01
   -2.5198135968E-01   -2.5151700376E-01   -2.5088951786E-01   -2.5009831629E-01
   -2.4914291183E-01   -2.4802291705E-01   -2.4673804568E-01   -2.4528811371E-01
   -2.4367304050E-01   -2.4189284973E-01   -2.3994767020E-01   -2.3783773657E-01
   -2.3556338996E-01   -2.3312507836E-01   -2.3052335702E-01   -2.2775888863E-01
   -2.2483244338E-01   -2.2174489895E-01   -2.1849724026E-01   -2.1509055917E-01
   -2.1152605405E-01   -2.0780502913E-01   -2.0392889381E-01   -1.9989916180E-01
   -1.9571745011E-01   -1.9138547791E-01   -1.8690506530E-01   -1.8227813192E-01
   -1.7750669541E-01   -1.7259286979E-01   -1.6753886368E-01   -1.6234697843E-01
   -1.5701960609E-01   -1.5155922731E-01   -1.4596840910E-01   -1.4024980247E-01
   -1.3440614001E-01   -1.2844023330E-01   -1.2235497030E-01   -1.1615331255E-01
   -1.0983829240E-01   -1.0341301004E-01   -9.6880630491E-02   -9.0244380565E-02
   -8.3507545675E-02   -7.6673466629E-02   -6.9745536344E-02   -6.2727196504E-02
   -5.5621934166E-02   -4.8433278319E-02   -4.1164796402E-02   -3.3820090785E-02
   -2.6402795215E-02   -1.8916571241E-02   -1.1365104616E-02   -3.7521016840E-03
    3.9187142432E-03    1.1643606512E-02    1.9418828754E-02    2.7240628504E-02
    3.5105250813E-02    4.3008941831E-02    5.0947952383E-02    5.8918541506E-02
    6.6916979962E-02    7.4939553703E-02    8.2982567307E-02    9.1042347351E-02
    9.9115245748E-02    1.0719764302E-01    1.1528595149E-01    1.2337661846E-01
    1.3146612925E-01    1.3955101024E-01    1.4762783176E-01    1.5569321092E-01
    1.6374381442E-01    1.7177636115E-01    1.7978762482E-01    1.8777443638E-01
    1.9573368645E-01    2.0366232756E-01    2.1155737633E-01    2.1941591554E-01
    2.2723509609E-01    2.3501213879E-01    2.4274433618E-01    2.5042905405E-01
    2.5806373300E-01    2.6564588979E-01    2.7317311859E-01    2.8064309215E-01
    2.8805356276E-01    2.9540236322E-01    3.0268740755E-01    3.0990669167E-01
    3.1705829392E-01    3.2414037545E-01    3.3115118056E-01    3.3808903681E-01
    3.4495235508E-01    3.5173962952E-01    3.5844943734E-01    3.6508043851E-01
    3.7163137534E-01    3.7810107197E-01    3.8448843370E-01    3.9079244629E-01
    3.9701217506E-01    4.0314676399E-01    4.0919543461E-01    4.1515748492E-01
    4.2103228811E-01    4.2681929127E-01    4.3251801393E-01    4.3812804661E-01
    4.4364904923E-01    4.4908074948E-01    4.5442294111E-01    4.5967548211E-01
    4.6483829295E-01    4.6991135459E-01    4.7489470664E-01    4.7978844526E-01
    4.8459272120E-01    4.8930773771E-01    4.9393374841E-01    4.9847105519E-01
    5.0292000604E-01    5.0728099285E-01    5.1155444930E-01    5.1574084857E-01
    5.1984070122E-01    5.2385455296E-01    5.2778298245E-01    5.3162659918E-01
    5.3538604126E-01    5.3906197329E-01    5.4265508427E-01    5.4616608552E-01
    5.4959570862E-01    5.5294470340E-01    5.5621383602E-01    5.5940388701E-01
    5.6251564944E-01    5.6554992712E-01    5.6850753283E-01    5.7138928666E-01
    5.7419601440E-01    5.7692854599E-01    5.7958771405E-01    5.8217435249E-01
    5.8468929516E-01    5.8713337469E-01    5.8950742126E-01    5.9181226158E-01
    5.9404871788E-01    5.9621760704E-01    5.9831973982E-01    6.0035592013E-01
    6.0232694436E-01    6.0423360089E-01    6.0607666962E-01    6.0785692160E-01
    6.0957511877E-01    6.1123201384E-01    6.1282835013E-01    6.1436486164E-01
    6.1584227357E-01    6.1726130386E-01    6.1862266552E-01    6.1992706784E-01
    6.2117521604E-01    6.2236781071E-01    6.2350554775E-01    6.2458911860E-01
    6.2561921008E-01    6.2659650426E-01    6.2752167847E-01    6.2839540526E-01
    6.2921835231E-01    6.2999118243E-01    6.3071455347E-01    6.3138911838E-01
    6.3201552507E-01    6.3259441648E-01    6.3312643049E-01    6.3361219994E-01
    6.3405235260E-01    6.3444751115E-01    6.3479829319E-01    6.3510531121E-01
    6.3536917258E-01    6.3559047956E-01    6.3576982930E-01    6.3590781384E-01
    6.3600502007E-01    6.3606202981E-01    6.3607941973E-01    6.3605776141E-01
    6.3599762136E-01    6.3589956095E-01    6.3576413653E-01    6.3559189933E-01
    6.3538339557E-01    6.3513916640E-01    6.3485974795E-01    6.3454567136E-01
    6.3419746275E-01    6.3381564327E-01    6.3340072913E-01    6.3295323157E-01
    6.3247365694E-01    6.3196250668E-01    6.3142027735E-01    6.3084746066E-01
    6.3024454349E-01    6.2961200790E-01    6.2895033117E-01    6.2825998584E-01
    6.2754143968E-01    6.2679515576E-01    6.2602159250E-01    6.2522120360E-01
    6.2439443819E-01    6.2354174075E-01    6.2266355120E-01    6.2176030493E-01
    6.2083243276E-01    6.1988036107E-01    6.1890451175E-01    6.1790530225E-01
    6.1688314563E-01    6.1583845055E-01    6.1477162135E-01    6.1368305804E-01
    6.1257315633E-01    6.1144230768E-01    6.1029089935E-01    6.0911931435E-01
    6.0792793157E-01    6.0671712573E-01    6.0548726747E-01    6.0423872333E-01
    6.0297185583E-01    6.0168702345E-01    6.0038458070E-01    5.9906487814E-01
    5.9772826240E-01    5.9637507622E-01    5.9500565847E-01    5.9362034420E-01
    5.9221946466E-01    5.9080334732E-01    5.8937231592E-01    5.8792669048E-01
    5.8646678735E-01    5.8499291922E-01    5.8350539517E-01    5.8200452069E-01
    5.8049059769E-01    5.7896392458E-01    5.7742479625E-01    5.7587350412E-01
    5.7431033616E-01    5.7273557695E-01    5.7114950765E-01    5.6955240609E-01
    5.6794454677E-01    5.6632620088E-01    5.6469763634E-01    5.6305911783E-01
    5.6141090681E-01    5.5975326155E-01    5.5808643718E-01    5.5641068565E-01
    5.5472625586E-01    5.5303339358E-01    5.5133234156E-01    5.4962333951E-01
    5.4790662413E-01    5.4618242915E-01    5.4445098537E-01    5.4271252064E-01
    5.4096725992E-01    5.3921542530E-01    5.3745723602E-01    5.3569290849E-01
    5.3392265633E-01    5.3214669038E-01    5.3036521874E-01    5.2857844676E-01
    5.2678657710E-01    5.2498980975E-01    5.2318834202E-01    5.2138236861E-01
    5.1957208160E-01    5.1775767048E-01    5.1593932217E-01    5.1411722107E-01
    5.1229154904E-01    5.1046248543E-01    5.0863020715E-01    5.0679488862E-01
    5.0495670185E-01    5.0311581642E-01    5.0127239954E-01    4.9942661603E-01
    4.9757862837E-01    4.9572859671E-01    4.9387667889E-01    4.9202303047E-01
    4.9016780474E-01    4.8831115275E-01    4.8645322330E-01    4.8459416300E-01
    4.8273411627E-01    4.8087322538E-01    4.7901163041E-01    4.7714946935E-01
    4.7528687807E-01    4.7342399034E-01    4.7156093786E-01    4.6969785029E-01
    4.6783485524E-01    4.6597207832E-01    4.6410964314E-01    4.6224767132E-01
    4.6038628254E-01    4.5852559453E-01    4.5666572308E-01    4.5480678211E-01
    4.5294888363E-01    4.5109213778E-01    4.4923665287E-01    4.4738253535E-01
    4.4552988988E-01    4.4367881931E-01    4.4182942471E-01    4.3998180538E-01
    4.3813605891E-01    4.3629228112E-01    4.3445056614E-01    4.3261100642E-01
    4.3077369271E-01    4.2893871412E-01    4.2710615811E-01    4.2527611052E-01
    4.2344865559E-01    4.2162387595E-01    4.1980185268E-01    4.1798266529E-01
    4.1616639175E-01    4.1435310851E-01    4.1254289052E-01    4.1073581124E-01
    4.0893194264E-01    4.0713135525E-01    4.0533411817E-01    4.0354029903E-01
    4.0174996411E-01    3.9996317826E-01    3.9818000497E-01    3.9640050636E-01
    3.9462474322E-01    3.9285277500E-01    3.9108465985E-01    3.8932045461E-01
    3.8756021485E-01    3.8580399487E-01    3.8405184773E-01    3.8230382525E-01
    3.8055997802E-01    3.7882035545E-01    3.7708500574E-01    3.7535397594E-01
    3.7362731193E-01    3.7190505844E-01    3.7018725909E-01    3.6847395638E-01
    3.6676519170E-01    3.6506100538E-01    3.6336143667E-01    3.6166652375E-01
    3.5997630379E-01    3.5829081291E-01    3.5661008625E-01    3.5493415791E-01
    3.5326306104E-01    3.5159682781E-01    3.4993548943E-01    3.4827907619E-01
    3.4662761742E-01    3.4498114156E-01    3.4333967614E-01    3.4170324781E-01
    3.4007188234E-01    3.3844560463E-01    3.3682443875E-01    3.3520840792E-01
    3.3359753456E-01    3.3199184025E-01    3.3039134579E-01    3.2879607120E-01
    3.2720603572E-01    3.2562125784E-01    3.2404175528E-01    3.2246754505E-01
    3.2089864342E-01    3.1933506597E-01    3.1777682754E-01    3.1622394232E-01
    3.1467642381E-01    3.1313428484E-01    3.1159753760E-01    3.1006619361E-01
    3.0854026378E-01    3.0701975839E-01    3.0550468712E-01    3.0399505904E-01
    3.0249088264E-01    3.0099216581E-01    2.9949891589E-01    2.9801113967E-01
    2.9652884337E-01    2.9505203269E-01    2.9358071278E-01    2.9211488829E-01
    2.9065456337E-01    2.8919974164E-01    2.8775042624E-01    2.8630661986E-01
    2.8486832468E-01    2.8343554243E-01    2.8200827439E-01    2.8058652139E-01
    2.7917028384E-01    2.7775956169E-01    2.7635435450E-01    2.7495466141E-01
    2.7356048116E-01    2.7217181208E-01    2.7078865214E-01    2.6941099891E-01
    2.6803884960E-01    2.6667220105E-01    2.6531104976E-01    2.6395539185E-01
    2.6260522315E-01    2.6126053910E-01    2.5992133486E-01    2.5858760524E-01
    2.5725934476E-01    2.5593654762E-01    2.5461920773E-01    2.5330731870E-01
    2.5200087386E-01    2.5069986627E-01    2.4940428870E-01    2.4811413366E-01
    2.4682939341E-01    2.4555005995E-01    2.4427612502E-01    2.4300758013E-01
    2.4174441656E-01    2.4048662534E-01    2.3923419729E-01    2.3798712300E-01
    2.3674539286E-01    2.3550899703E-01    2.3427792549E-01    2.3305216801E-01
    2.3183171416E-01    2.3061655332E-01    2.2940667471E-01    2.2820206734E-01
    2.2700272006E-01    2.2580862156E-01    2.2461976035E-01    2.2343612478E-01
    2.2225770304E-01    2.2108448320E-01    2.1991645313E-01    2.1875360061E-01
    2.1759591323E-01    2.1644337848E-01    2.1529598370E-01    2.1415371612E-01
    2.1301656282E-01    2.1188451078E-01    2.1075754687E-01    2.0963565781E-01
    2.0851883025E-01    2.0740705071E-01    2.0630030562E-01    2.0519858130E-01
    2.0410186398E-01    2.0301013980E-01    2.0192339480E-01    2.0084161494E-01
    1.9976478609E-01    1.9869289405E-01    1.9762592452E-01    1.9656386316E-01
    1.9550669551E-01    1.9445440709E-01    1.9340698331E-01    1.9236440954E-01
    1.9132667108E-01    1.9029375317E-01    1.8926564100E-01    1.8824231969E-01
    1.8722377433E-01    1.8620998992E-01    1.8520095146E-01    1.8419664387E-01
    1.8319705203E-01    1.8220216080E-01    1.8121195498E-01    1.8022641934E-01
    1.7924553860E-01    1.7826929746E-01    1.7729768060E-01    1.7633067264E-01
    1.7536825819E-01    1.7441042183E-01    1.7345714811E-01    1.7250842157E-01
    1.7156422672E-01    1.7062454804E-01    1.6968937001E-01    1.6875867707E-01
    1.6783245368E-01    1.6691068424E-01    1.6599335317E-01    1.6508044487E-01
    1.6417194374E-01    1.6326783414E-01    1.6236810046E-01    1.6147272706E-01
    1.6058169830E-01    1.5969499855E-01    1.5881261215E-01    1.5793452346E-01
    1.5706071684E-01    1.5619117664E-01    1.5532588722E-01    1.5446483293E-01
    1.5360799814E-01    1.5275536722E-01    1.5190692454E-01    1.5106265449E-01
    1.5022254144E-01    1.4938656980E-01    1.4855472397E-01    1.4772698837E-01
    1.4690334742E-01    1.4608378557E-01    1.4526828726E-01    1.4445683697E-01
    1.4364941917E-01    1.4284601835E-01    1.4204661902E-01    1.4125120571E-01
    1.4045976297E-01    1.3967227534E-01    1.3888872742E-01    1.3810910379E-01
    1.3733338908E-01    1.3656156792E-01    1.3579362497E-01    1.3502954490E-01
    1.3426931241E-01    1.3351291224E-01    1.3276032911E-01    1.3201154781E-01
    1.3126655311E-01    1.3052532984E-01    1.2978786284E-01    1.2905413697E-01
    1.2832413712E-01    1.2759784821E-01    1.2687525519E-01    1.2615634301E-01
    1.2544109669E-01    1.2472950123E-01    1.2402154170E-01    1.2331720318E-01
    1.2261647077E-01    1.2191932961E-01    1.2122576487E-01    1.2053576174E-01
    1.1984930546E-01    1.1916638127E-01    1.1848697447E-01    1.1781107037E-01
    1.1713865432E-01    1.1646971170E-01    1.1580422793E-01    1.1514218844E-01
    1.1448357872E-01    1.1382838426E-01    1.1317659062E-01    1.1252818336E-01
    1.1188314809E-01    1.1124147045E-01    1.1060313611E-01    1.0996813077E-01
    1.0933644019E-01    1.0870805014E-01    1.0808294641E-01    1.0746111487E-01
    1.0684254138E-01    1.0622721185E-01    1.0561511223E-01    1.0500622850E-01
    1.0440054668E-01    1.0379805283E-01    1.0319873304E-01    1.0260257344E-01
    1.0200956019E-01    1.0141967948E-01    1.0083291753E-01    1.0024926060E-01
    9.9668695005E-02    9.9091207092E-02    9.8516783243E-02    9.7945409881E-02
    9.7377073453E-02    9.6811760446E-02    9.6249457383E-02    9.5690150824E-02
    9.5133827365E-02    9.4580473643E-02    9.4030076331E-02    9.3482622140E-02
    9.2938097820E-02    9.2396490159E-02    9.1857785985E-02    9.1321972163E-02
    9.0789035595E-02    9.0258963220E-02    8.9731742016E-02    8.9207358997E-02
    8.8685801218E-02    8.8167055770E-02    8.7651109783E-02    8.7137950426E-02
    8.6627564905E-02    8.6119940467E-02    8.5615064395E-02    8.5112924012E-02
    8.4613506680E-02    8.4116799799E-02    8.3622790807E-02    8.3131467183E-02
    8.2642816442E-02    8.2156826141E-02    8.1673483874E-02    8.1192777274E-02
    8.0714694014E-02    8.0239221806E-02    7.9766348399E-02    7.9296061583E-02
    7.8828349188E-02    7.8363199081E-02    7.7900599169E-02    7.7440537399E-02
    7.6983001757E-02    7.6527980266E-02    7.6075460993E-02    7.5625432039E-02
    7.5177881548E-02    7.4732797701E-02    7.4290168721E-02    7.3849982868E-02
    7.3412228443E-02    7.2976893784E-02    7.2543967272E-02    7.2113437323E-02
    7.1685292397E-02    7.1259520990E-02    7.0836111640E-02    7.0415052921E-02
    6.9996333449E-02    6.9579941881E-02    6.9165866908E-02    6.8754097266E-02
    6.8344621728E-02    6.7937429106E-02    6.7532508252E-02    6.7129848057E-02
    6.6729437453E-02    6.6331265409E-02    6.5935320934E-02    6.5541593078E-02
    6.5150070930E-02    6.4760743615E-02    6.4373600302E-02    6.3988630196E-02
    6.3605822542E-02    6.3225166627E-02    6.2846651772E-02    6.2470267342E-02
    6.2096002739E-02    6.1723847405E-02    6.1353790820E-02    6.0985822503E-02
    6.0619932015E-02    6.0256108952E-02    5.9894342953E-02    5.9534623693E-02
    5.9176940886E-02    5.8821284289E-02    5.8467643692E-02    5.8116008928E-02
    5.7766369868E-02    5.7418716422E-02    5.7073038537E-02    5.6729326202E-02
    5.6387569441E-02    5.6047758319E-02    5.5709882940E-02    5.5373933445E-02
    5.5039900015E-02    5.4707772867E-02    5.4377542261E-02    5.4049198491E-02
    5.3722731892E-02    5.3398132835E-02    5.3075391733E-02    5.2754499033E-02
    5.2435445224E-02    5.2118220829E-02    5.1802816414E-02    5.1489222578E-02
    5.1177429963E-02    5.0867429245E-02    5.0559211139E-02    5.0252766398E-02
    4.9948085815E-02    4.9645160216E-02    4.9343980469E-02    4.9044537477E-02
    4.8746822181E-02    4.8450825562E-02    4.8156538634E-02    4.7863952451E-02
    4.7573058106E-02    4.7283846725E-02    4.6996309474E-02    4.6710437556E-02
    4.6426222210E-02    4.6143654713E-02    4.5862726379E-02    4.5583428557E-02
    4.5305752634E-02    4.5029690035E-02    4.4755232219E-02    4.4482370684E-02
    4.4211096963E-02    4.3941402627E-02    4.3673279280E-02    4.3406718566E-02
    4.3141712164E-02    4.2878251788E-02    4.2616329190E-02    4.2355936155E-02
    4.2097064508E-02    4.1839706106E-02    4.1583852844E-02    4.1329496652E-02
    4.1076629496E-02    4.0825243376E-02    4.0575330330E-02    4.0326882429E-02
    4.0079891780E-02    3.9834350526E-02    3.9590250845E-02    3.9347584949E-02
    3.9106345084E-02    3.8866523535E-02    3.8628112617E-02    3.8391104683E-02
    3.8155492119E-02    3.7921267345E-02    3.7688422818E-02    3.7456951027E-02
    3.7226844495E-02    3.6998095782E-02    3.6770697478E-02    3.6544642210E-02
    3.6319922639E-02    3.6096531458E-02    3.5874461395E-02    3.5653705211E-02
    3.5434255700E-02    3.5216105692E-02    3.4999248047E-02    3.4783675660E-02
    3.4569381460E-02    3.4356358407E-02    3.4144599496E-02    3.3934097753E-02
    3.3724846238E-02    3.3516838044E-02    3.3310066296E-02    3.3104524151E-02
    3.2900204799E-02    3.2697101463E-02    3.2495207396E-02    3.2294515887E-02
    3.2095020252E-02    3.1896713844E-02    3.1699590044E-02    3.1503642267E-02
    3.1308863958E-02    3.1115248594E-02    3.0922789685E-02    3.0731480771E-02
    3.0541315423E-02    3.0352287243E-02    3.0164389865E-02    2.9977616953E-02
    2.9791962204E-02    2.9607419342E-02    2.9423982125E-02    2.9241644340E-02
    2.9060399804E-02    2.8880242366E-02    2.8701165904E-02    2.8523164326E-02
    2.8346231571E-02    2.8170361608E-02    2.7995548433E-02    2.7821786076E-02
    2.7649068594E-02    2.7477390073E-02    2.7306744631E-02    2.7137126414E-02
    2.6968529596E-02    2.6800948381E-02    2.6634377003E-02    2.6468809724E-02
    2.6304240834E-02    2.6140664653E-02    2.5978075530E-02    2.5816467841E-02
    2.5655835991E-02    2.5496174413E-02    2.5337477570E-02    2.5179739950E-02
    2.5022956071E-02    2.4867120478E-02    2.4712227746E-02    2.4558272474E-02
    2.4405249291E-02    2.4253152853E-02    2.4101977843E-02    2.3951718973E-02
    2.3802370978E-02    2.3653928625E-02    2.3506386704E-02    2.3359740034E-02
    2.3213983461E-02    2.3069111855E-02    2.2925120116E-02    2.2782003168E-02
    2.2639755963E-02    2.2498373476E-02    2.2357850712E-02    2.2218182701E-02
    2.2079364497E-02    2.1941391181E-02    2.1804257860E-02    2.1667959667E-02
    2.1532491759E-02    2.1397849319E-02    2.1264027556E-02    2.1131021704E-02
    2.0998827021E-02    2.0867438791E-02    2.0736852322E-02    2.0607062948E-02
    2.0478066027E-02    2.0349856940E-02    2.0222431097E-02    2.0095783926E-02
    1.9969910885E-02    1.9844807452E-02    1.9720469132E-02    1.9596891452E-02
    1.9474069964E-02    1.9352000243E-02    1.9230677888E-02    1.9110098522E-02
    1.8990257790E-02    1.8871151362E-02    1.8752774930E-02    1.8635124209E-02
    1.8518194939E-02    1.8401982881E-02    1.8286483819E-02    1.8171693561E-02
    1.8057607936E-02    1.7944222797E-02    1.7831534018E-02    1.7719537496E-02
    1.7608229151E-02    1.7497604925E-02    1.7387660780E-02    1.7278392703E-02
    1.7169796700E-02    1.7061868800E-02    1.6954605055E-02    1.6848001536E-02
    1.6742054337E-02    1.6636759573E-02    1.6532113380E-02    1.6428111917E-02
    1.6324751361E-02    1.6222027911E-02    1.6119937789E-02    1.6018477235E-02
    1.5917642511E-02    1.5817429900E-02    1.5717835704E-02    1.5618856246E-02
    1.5520487871E-02    1.5422726942E-02    1.5325569843E-02    1.5229012977E-02
    1.5133052769E-02    1.5037685663E-02    1.4942908120E-02    1.4848716626E-02
    1.4755107682E-02    1.4662077810E-02    1.4569623552E-02    1.4477741468E-02
    1.4386428138E-02    1.4295680162E-02    1.4205494157E-02    1.4115866759E-02
    1.4026794625E-02    1.3938274430E-02    1.3850302865E-02    1.3762876643E-02
    1.3675992493E-02    1.3589647165E-02    1.3503837424E-02    1.3418560056E-02
    1.3333811863E-02    1.3249589667E-02    1.3165890306E-02    1.3082710637E-02
    1.3000047535E-02    1.2917897892E-02    1.2836258617E-02    1.2755126638E-02
    1.2674498899E-02    1.2594372362E-02    1.2514744006E-02    1.2435610828E-02
    1.2356969841E-02    1.2278818076E-02    1.2201152578E-02    1.2123970414E-02
    1.2047268662E-02    1.1971044421E-02    1.1895294805E-02    1.1820016943E-02
    1.1745207984E-02    1.1670865088E-02    1.1596985437E-02    1.1523566226E-02
    1.1450604665E-02    1.1378097983E-02    1.1306043423E-02    1.1234438244E-02
    1.1163279721E-02    1.1092565144E-02    1.1022291820E-02    1.0952457070E-02
    1.0883058231E-02    1.0814092657E-02    1.0745557713E-02    1.0677450784E-02
    1.0609769267E-02    1.0542510574E-02    1.0475672135E-02    1.0409251391E-02
    1.0343245801E-02    1.0277652836E-02    1.0212469983E-02    1.0147694744E-02
    1.0083324634E-02    1.0019357185E-02    9.9557899402E-03    9.8926204590E-03
    9.8298463145E-03    9.7674650939E-03    9.7054743984E-03    9.6438718433E-03
    9.5826550576E-03    9.5218216843E-03    9.4613693800E-03    9.4012958151E-03
    9.3415986733E-03    9.2822756523E-03    9.2233244629E-03    9.1647428293E-03
    9.1065284891E-03    9.0486791932E-03    8.9911927056E-03    8.9340668033E-03
    8.8772992764E-03    8.8208879281E-03    8.7648305744E-03    8.7091250439E-03
    8.6537691782E-03    8.5987608316E-03    8.5440978709E-03    8.4897781755E-03
    8.4357996372E-03    8.3821601603E-03    8.3288576615E-03    8.2758900696E-03
    8.2232553257E-03    8.1709513831E-03    8.1189762072E-03    8.0673277753E-03
    8.0160040767E-03    7.9650031125E-03    7.9143228959E-03    7.8639614515E-03
    7.8139168158E-03    7.7641870368E-03    7.7147701743E-03    7.6656642993E-03
    7.6168674945E-03    7.5683778538E-03    7.5201934825E-03    7.4723124970E-03
    7.4247330251E-03    7.3774532057E-03    7.3304711886E-03    7.2837851347E-03
    7.2373932159E-03    7.1912936149E-03    7.1454845252E-03    7.0999641513E-03
    7.0547307080E-03    7.0097824211E-03    6.9651175269E-03    6.9207342720E-03
    6.8766309138E-03    6.8328057199E-03    6.7892569683E-03    6.7459829474E-03
    6.7029819556E-03    6.6602523017E-03    6.6177923045E-03    6.5756002930E-03
    6.5336746061E-03    6.4920135926E-03    6.4506156113E-03    6.4094790309E-03
    6.3686022297E-03    6.3279835959E-03    6.2876215273E-03    6.2475144314E-03
    6.2076607251E-03    6.1680588350E-03    6.1287071970E-03    6.0896042567E-03
    6.0507484686E-03    6.0121382969E-03    5.9737722149E-03    5.9356487050E-03
    5.8977662590E-03    5.8601233775E-03    5.8227185704E-03    5.7855503564E-03
    5.7486172633E-03    5.7119178275E-03    5.6754505947E-03    5.6392141190E-03
    5.6032069633E-03    5.5674276994E-03    5.5318749075E-03    5.4965471765E-03
    5.4614431038E-03    5.4265612954E-03    5.3919003655E-03    5.3574589371E-03
    5.3232356410E-03    5.2892291169E-03    5.2554380122E-03    5.2218609828E-03
    5.1884966928E-03    5.1553438143E-03    5.1224010275E-03    5.0896670204E-03
    5.0571404894E-03    5.0248201385E-03    4.9927046797E-03    4.9607928328E-03
    4.9290833253E-03    4.8975748927E-03    4.8662662778E-03    4.8351562315E-03
    4.8042435121E-03    4.7735268853E-03    4.7430051246E-03    4.7126770109E-03
    4.6825413323E-03    4.6525968847E-03    4.6228424711E-03    4.5932769017E-03
    4.5638989943E-03    4.5347075736E-03    4.5057014716E-03    4.4768795275E-03
    4.4482405876E-03    4.4197835051E-03    4.3915071403E-03    4.3634103605E-03
    4.3354920399E-03    4.3077510597E-03    4.2801863077E-03    4.2527966788E-03
    4.2255810744E-03    4.1985384029E-03    4.1716675792E-03    4.1449675249E-03
    4.1184371682E-03    4.0920754440E-03    4.0658812935E-03    4.0398536646E-03
    4.0139915116E-03    3.9882937953E-03    3.9627594826E-03    3.9373875470E-03
    3.9121769684E-03    3.8871267326E-03    3.8622358320E-03    3.8375032651E-03
    3.8129280364E-03    3.7885091567E-03    3.7642456428E-03    3.7401365175E-03
    3.7161808099E-03    3.6923775548E-03    3.6687257930E-03    3.6452245712E-03
    3.6218729420E-03    3.5986699640E-03    3.5756147013E-03    3.5527062241E-03
    3.5299436080E-03    3.5073259345E-03    3.4848522909E-03    3.4625217698E-03
    3.4403334696E-03    3.4182864943E-03    3.3963799534E-03    3.3746129619E-03
    3.3529846402E-03    3.3314941142E-03    3.3101405153E-03    3.2889229800E-03
    3.2678406505E-03    3.2468926739E-03    3.2260782031E-03    3.2053963957E-03
    3.1848464148E-03    3.1644274287E-03    3.1441386109E-03    3.1239791397E-03
    3.1039481988E-03    3.0840449769E-03    3.0642686677E-03    3.0446184699E-03
    3.0250935871E-03    3.0056932280E-03    2.9864166060E-03    2.9672629396E-03
    2.9482314521E-03    2.9293213714E-03    2.9105319305E-03    2.8918623670E-03
    2.8733119233E-03    2.8548798464E-03    2.8365653881E-03    2.8183678048E-03
    2.8002863576E-03    2.7823203120E-03    2.7644689382E-03    2.7467315110E-03
    2.7291073096E-03    2.7115956177E-03    2.6941957236E-03    2.6769069199E-03
    2.6597285035E-03    2.6426597758E-03    2.6257000427E-03    2.6088486142E-03
    2.5921048046E-03    2.5754679327E-03    2.5589373213E-03    2.5425122975E-03
    2.5261921926E-03    2.5099763422E-03    2.4938640858E-03    2.4778547672E-03
    2.4619477343E-03    2.4461423389E-03    2.4304379370E-03    2.4148338886E-03
    2.3993295577E-03    2.3839243122E-03    2.3686175240E-03    2.3534085689E-03
    2.3382968266E-03    2.3232816808E-03    2.3083625189E-03    2.2935387321E-03
    2.2788097156E-03    2.2641748682E-03    2.2496335925E-03    2.2351852949E-03
    2.2208293855E-03    2.2065652781E-03    2.1923923900E-03    2.1783101424E-03
    2.1643179600E-03    2.1504152711E-03    2.1366015075E-03    2.1228761048E-03
    2.1092385018E-03    2.0956881412E-03    2.0822244689E-03    2.0688469343E-03
    2.0555549905E-03    2.0423480936E-03    2.0292257036E-03    2.0161872834E-03
    2.0032322997E-03    1.9903602224E-03    1.9775705244E-03    1.9648626825E-03
    1.9522361763E-03    1.9396904888E-03    1.9272251064E-03    1.9148395186E-03
    1.9025332181E-03    1.8903057007E-03    1.8781564656E-03    1.8660850150E-03
    1.8540908542E-03    1.8421734916E-03    1.8303324387E-03    1.8185672103E-03
    1.8068773240E-03    1.7952623003E-03    1.7837216632E-03    1.7722549391E-03
    1.7608616579E-03    1.7495413522E-03    1.7382935575E-03    1.7271178123E-03
    1.7160136581E-03    1.7049806391E-03    1.6940183024E-03    1.6831261982E-03
    1.6723038792E-03    1.6615509010E-03    1.6508668222E-03    1.6402512040E-03
    1.6297036104E-03    1.6192236080E-03    1.6088107665E-03    1.5984646579E-03
    1.5881848572E-03    1.5779709419E-03    1.5678224923E-03    1.5577390912E-03
    1.5477203242E-03    1.5377657793E-03    1.5278750473E-03    1.5180477214E-03
    1.5082833976E-03    1.4985816742E-03    1.4889421522E-03    1.4793644350E-03
    1.4698481286E-03    1.4603928416E-03    1.4509981847E-03    1.4416637714E-03
    1.4323892175E-03    1.4231741412E-03    1.4140181633E-03    1.4049209067E-03
    1.3958819969E-03    1.3869010617E-03    1.3779777313E-03    1.3691116382E-03
    1.3603024171E-03    1.3515497052E-03    1.3428531419E-03    1.3342123690E-03
    1.3256270302E-03    1.3170967720E-03    1.3086212427E-03    1.3002000930E-03
    1.2918329758E-03    1.2835195462E-03    1.2752594613E-03    1.2670523808E-03
    1.2588979660E-03    1.2507958809E-03    1.2427457911E-03    1.2347473648E-03
    1.2268002719E-03    1.2189041846E-03    1.2110587771E-03    1.2032637259E-03
    1.1955187091E-03    1.1878234072E-03    1.1801775026E-03    1.1725806797E-03
    1.1650326249E-03    1.1575330267E-03    1.1500815754E-03    1.1426779633E-03
    1.1353218849E-03    1.1280130362E-03    1.1207511154E-03    1.1135358227E-03
   </PP_CHI.6>
 </PP_PSWFC>
 <PP_NLCC type="real"  size="1408" columns="4">
    3.5870560555E+00    3.5863969219E+00    3.5844202013E+00    3.5811279342E+00
    3.5765235173E+00    3.5706116984E+00    3.5633985690E+00    3.5548915536E+00
    3.5450993988E+00    3.5340321586E+00    3.5217011781E+00    3.5081190758E+00
    3.4932997232E+00    3.4772582224E+00    3.4600108820E+00    3.4415751914E+00
    3.4219697930E+00    3.4012144520E+00    3.3793300260E+00    3.3563384316E+00
    3.3322626100E+00    3.3071264912E+00    3.2809549566E+00    3.2537738001E+00
    3.2256096885E+00    3.1964901199E+00    3.1664433820E+00    3.1354985084E+00
    3.1036852346E+00    3.0710339533E+00    3.0375756680E+00    3.0033419473E+00
    2.9683648775E+00    2.9326770155E+00    2.8963113406E+00    2.8593012070E+00
    2.8216802952E+00    2.7834825635E+00    2.7447422002E+00    2.7054935746E+00
    2.6657711897E+00    2.6256096339E+00    2.5850435337E+00    2.5441075066E+00
    2.5028361148E+00    2.4612638192E+00    2.4194249341E+00    2.3773535832E+00
    2.3350836555E+00    2.2926487632E+00    2.2500821995E+00    2.2074168986E+00
    2.1646853954E+00    2.1219197882E+00    2.0791517008E+00    2.0364122470E+00
    1.9937319964E+00    1.9511409411E+00    1.9086684641E+00    1.8663433095E+00
    1.8241935535E+00    1.7822465774E+00    1.7405290423E+00    1.6990668653E+00
    1.6578851968E+00    1.6170084002E+00    1.5764600330E+00    1.5362628291E+00
    1.4964386837E+00    1.4570086389E+00    1.4179928716E+00    1.3794106827E+00
    1.3412804884E+00    1.3036198127E+00    1.2664452815E+00    1.2297726191E+00
    1.1936166451E+00    1.1579912736E+00    1.1229095142E+00    1.0883834735E+00
    1.0544243594E+00    1.0210424852E+00    9.8824727703E-01    9.5604728082E-01
    9.2445017182E-01    8.9346276480E-01    8.6309102569E-01    8.3334008429E-01
    8.0421424819E-01    7.7571701764E-01    7.4785110158E-01    7.2061843453E-01
    6.9402019442E-01    6.6805682128E-01    6.4272803670E-01    6.1803286404E-01
    5.9396964934E-01    5.7053608278E-01    5.4772922080E-01    5.2554550865E-01
    5.0398080342E-01    4.8303039743E-01    4.6268904199E-01    4.4295097142E-01
    4.2380992726E-01    4.0525918270E-01    3.8729156710E-01    3.6989949053E-01
    3.5307496836E-01    3.3680964582E-01    3.2109482244E-01    3.0592147632E-01
    2.9128028831E-01    2.7716166588E-01    2.6355576674E-01    2.5045252214E-01
    2.3784165988E-01    2.2571272687E-01    2.1405511125E-01    2.0285806415E-01
    1.9211072087E-01    1.8180212161E-01    1.7192123160E-01    1.6245696075E-01
    1.5339818261E-01    1.4473375280E-01    1.3645252678E-01    1.2854337700E-01
    1.2099520932E-01    1.1379697888E-01    1.0693770518E-01    1.0040648654E-01
    9.4192513791E-02    8.8285083378E-02    8.2673609640E-02    7.7347636460E-02
    7.2296848184E-02    6.7511079845E-02    6.2980326688E-02    5.8694752998E-02
    5.4644700250E-02    5.0820694577E-02    4.7213453570E-02    4.3813892428E-02
    4.0613129452E-02    3.7602490925E-02    3.4773515357E-02    3.2117957144E-02
    2.9627789633E-02    2.7295207627E-02    2.5112629330E-02    2.3072697775E-02
    2.1168281726E-02    1.9392476097E-02    1.7738601898E-02    1.6200205727E-02
    1.4771058830E-02    1.3445155761E-02    1.2216712643E-02    1.1080165066E-02
    1.0030165649E-02    9.0615812631E-03    8.1694899628E-03    7.3491776361E-03
    6.5961343911E-03    5.9060507062E-03    5.2748133613E-03    4.6985011717E-03
    4.1733805433E-03    3.6959008691E-03    3.2626897866E-03    2.8705483134E-03
    2.5164458802E-03    2.1975152772E-03    1.9110475328E-03    1.6544867381E-03
    1.4254248356E-03    1.2215963849E-03    1.0408733212E-03    8.8125971881E-04
    7.4088657401E-04    6.1800661865E-04    5.1098917611E-04    4.1831507076E-04
    3.3857160083E-04    2.7044758423E-04    2.1272848603E-04    1.6429163572E-04
    1.2410154152E-04    9.1205308651E-05    6.4728167366E-05    4.3869116350E-05
    2.7896686177E-05    1.6144827003E-05    8.0089240677E-06    2.9419439712E-06
    4.5071419089E-07    9.2337700400E-08    1.4707440820E-06    4.2333780125E-06
    8.0680255371E-06    1.2699778096E-05    1.7888133844E-05    2.3424235416E-05
    2.9128242900E-05    3.4846840438E-05    4.0450874546E-05    4.5833121954E-05
    5.0906184467E-05    5.5600508123E-05    5.9862523669E-05    6.3652905187E-05
    6.6944943500E-05    6.9723030859E-05    7.1981253232E-05    7.3722086428E-05
    7.4955192171E-05    7.5696310179E-05    7.5966242226E-05    7.5789924127E-05
    7.5195581567E-05    7.4213965694E-05    7.2877664368E-05    7.1220485029E-05
    6.9276905146E-05    6.7081586263E-05    6.4668947740E-05    6.2072796325E-05
    5.9326007801E-05    5.6460257021E-05    5.3505792774E-05    5.0491253972E-05
    4.7443523838E-05    4.4387618832E-05    4.1346609187E-05    3.8341568079E-05
    3.5391546554E-05    3.2513571506E-05    2.9722664061E-05    2.7031875956E-05
    2.4452341570E-05    2.1993343408E-05    1.9662388989E-05    1.7465297242E-05
    1.5406292591E-05    1.3488105087E-05    1.1712075060E-05    1.0078260906E-05
    8.5855486682E-06    7.2317623197E-06    6.0137736675E-06    4.9276109084E-06
    3.9685650506E-06    3.1312934551E-06    2.4099198185E-06    1.7981301054E-06
    1.2892639513E-06    8.7640112471E-07    5.5244279647E-07    3.1018735989E-07
    1.4240061753E-07    4.1880273415E-08    1.5146495792E-09    1.4335632264E-08
    7.3565925780E-08    1.7266066999E-07    3.0534357182E-07    4.6563772345E-07
    6.4789126737E-07    8.4679815946E-07    1.0574142522E-06    1.2751689505E-06
    1.4958727259E-06    1.7157207534E-06    1.9312929728E-06    2.1395508606E-06
    2.3378312127E-06    2.5238372319E-06    2.6956272120E-06    2.8516011164E-06
    2.9904853151E-06    3.1113157792E-06    3.2134199769E-06    3.2963977332E-06
    3.3601013066E-06    3.4046148818E-06    3.4302337387E-06    3.4374432556E-06
    3.4268979635E-06    3.3994008165E-06    3.3558828190E-06    3.2973831886E-06
    3.2250301341E-06    3.1400224068E-06    3.0436116889E-06    2.9370859158E-06
    2.8217536103E-06    2.6989292540E-06    2.5699197866E-06    2.4360122077E-06
    2.2984623542E-06    2.1584848188E-06    2.0172440351E-06    1.8758465076E-06
    1.7353341626E-06    1.5966788096E-06    1.4607776512E-06    1.3284498353E-06
    1.2004339678E-06    1.0773865657E-06    9.5988137265E-07    8.4840949444E-07
    7.4338028394E-07    6.4512291889E-07    5.5388860471E-07    4.6985334139E-07
    3.9312118529E-07    3.2372794850E-07    2.6164526217E-07    2.0678495649E-07
    1.5900367790E-07    1.1810770887E-07    8.3857908110E-08    5.5974746494E-08
    3.4143360194E-08    1.8018602335E-08    7.2300226387E-09    1.3867607542E-09
    8.2292857737E-11    2.8990208245E-09    9.4126545571E-09    1.9196380290E-08
    3.1824776259E-08    4.6877472444E-08    6.3942525606E-08    8.2619510793E-08
    1.0252230895E-07    1.2328159682E-07    1.4454702561E-07    1.6598909996E-07
    1.8730074888E-07    2.0819860574E-07    2.2842399278E-07    2.4774363216E-07
    2.6595008223E-07    2.8286192465E-07    2.9832370416E-07    3.1220564852E-07
    3.2440317374E-07    3.3483620201E-07    3.4344830155E-07    3.5020567278E-07
    3.5509599601E-07    3.5812715875E-07    3.5932588504E-07    3.5873627737E-07
    3.5641829928E-07    3.5244620346E-07    3.4690693521E-07    3.3989851403E-07
    3.3152842008E-07    3.2191199045E-07    3.1117084399E-07    2.9943134590E-07
    2.8682311883E-07    2.7347762080E-07    2.5952678224E-07    2.4510173312E-07
    2.3033159774E-07    2.1534239568E-07    2.0025602076E-07    1.8518932972E-07
    1.7025332155E-07    1.5555242269E-07    1.4118387260E-07    1.2723720755E-07
    1.1379385023E-07    1.0092678813E-07    8.8700357031E-08    7.7170105723E-08
    6.6382756593E-08    5.6376243121E-08    4.7179828011E-08    3.8814293298E-08
    3.1292195669E-08    2.4618184635E-08    1.8789372901E-08    1.3798330663E-08
    9.6230734772E-09    6.2318842043E-09    3.6102080292E-09    1.7569857455E-09
    6.2920294250E-10    7.2489303144E-11   -9.0013321569E-11   -5.0547263251E-11
    1.6994517289E-11    2.5596023720E-11   -2.1470348249E-13   -4.8991712808E-12
   -2.1194539030E-12   -9.3129702280E-15   -9.3583476843E-15    0.0000000000E+00
    0.0000000000E+00    0.0000000000E+00    0.0000000000E+00    0.0000000000E+00
    0.0000000000E+00    0.0000000000E+00    0.0000000000E+00    0.0000000000E+00
    0.0000000000E+00    0.0000000000E+00    0.0000000000E+00    0.0000000000E+00
    0.0000000000E+00    0.0000000000E+00    0.0000000000E+00    0.0000000000E+00
    0.0000000000E+00    0.0000000000E+00    0.0000000000E+00    0.0000000000E+00
    0.0000000000E+00    0.0000000000E+00    0.0000000000E+00    0.0000000000E+00
    0.0000000000E+00    0.0000000000E+00    0.0000000000E+00    0.0000000000E+00
    0.0000000000E+00    0.0000000000E+00    0.0000000000E+00    0.0000000000E+00
    0.0000000000E+00    0.0000000000E+00    0.0000000000E+00    0.0000000000E+00
    0.0000000000E+00    0.0000000000E+00    0.0000000000E+00    0.0000000000E+00
    0.0000000000E+00    0.0000000000E+00    0.0000000000E+00    0.0000000000E+00
    0.0000000000E+00    0.0000000000E+00    0.0000000000E+00    0.0000000000E+00
    0.0000000000E+00    0.0000000000E+00    0.0000000000E+00    0.0000000000E+00
    0.0000000000E+00    0.0000000000E+00    0.0000000000E+00    0.0000000000E+00
    0.0000000000E+00    0.0000000000E+00    0.0000000000E+00    0.0000000000E+00
    0.0000000000E+00    0.0000000000E+00    0.0000000000E+00    0.0000000000E+00
    0.0000000000E+00    0.0000000000E+00    0.0000000000E+00    0.0000000000E+00
    0.0000000000E+00    0.0000000000E+00    0.0000000000E+00    0.0000000000E+00
    0.0000000000E+00    0.0000000000E+00    0.0000000000E+00    0.0000000000E+00
    0.0000000000E+00    0.0000000000E+00    0.0000000000E+00    0.0000000000E+00
    0.0000000000E+00    0.0000000000E+00    0.0000000000E+00    0.0000000000E+00
    0.0000000000E+00    0.0000000000E+00    0.0000000000E+00    0.0000000000E+00
    0.0000000000E+00    0.0000000000E+00    0.0000000000E+00    0.0000000000E+00
    0.0000000000E+00    0.0000000000E+00    0.0000000000E+00    0.0000000000E+00
    0.0000000000E+00    0.0000000000E+00    0.0000000000E+00    0.0000000000E+00
    0.0000000000E+00    0.0000000000E+00    0.0000000000E+00    0.0000000000E+00
    0.0000000000E+00    0.0000000000E+00    0.0000000000E+00    0.0000000000E+00
    0.0000000000E+00    0.0000000000E+00    0.0000000000E+00    0.0000000000E+00
    0.0000000000E+00    0.0000000000E+00    0.0000000000E+00    0.0000000000E+00
    0.0000000000E+00    0.0000000000E+00    0.0000000000E+00    0.0000000000E+00
    0.0000000000E+00    0.0000000000E+00    0.0000000000E+00    0.0000000000E+00
    0.0000000000E+00    0.0000000000E+00    0.0000000000E+00    0.0000000000E+00
    0.0000000000E+00    0.0000000000E+00    0.0000000000E+00    0.0000000000E+00
    0.0000000000E+00    0.0000000000E+00    0.0000000000E+00    0.0000000000E+00
    0.0000000000E+00    0.0000000000E+00    0.0000000000E+00    0.0000000000E+00
    0.0000000000E+00    0.0000000000E+00    0.0000000000E+00    0.0000000000E+00
    0.0000000000E+00    0.0000000000E+00    0.0000000000E+00    0.0000000000E+00
    0.0000000000E+00    0.0000000000E+00    0.0000000000E+00    0.0000000000E+00
    0.0000000000E+00    0.0000000000E+00    0.0000000000E+00    0.0000000000E+00
    0.0000000000E+00    0.0000000000E+00    0.0000000000E+00    0.0000000000E+00
    0.0000000000E+00    0.0000000000E+00    0.0000000000E+00    0.0000000000E+00
    0.0000000000E+00    0.0000000000E+00    0.0000000000E+00    0.0000000000E+00
    0.0000000000E+00    0.0000000000E+00    0.0000000000E+00    0.0000000000E+00
    0.0000000000E+00    0.0000000000E+00    0.0000000000E+00    0.0000000000E+00
    0.0000000000E+00    0.0000000000E+00    0.0000000000E+00    0.0000000000E+00
    0.0000000000E+00    0.0000000000E+00    0.0000000000E+00    0.0000000000E+00
    0.0000000000E+00    0.0000000000E+00    0.0000000000E+00    0.0000000000E+00
    0.0000000000E+00    0.0000000000E+00    0.0000000000E+00    0.0000000000E+00
    0.0000000000E+00    0.0000000000E+00    0.0000000000E+00    0.0000000000E+00
    0.0000000000E+00    0.0000000000E+00    0.0000000000E+00    0.0000000000E+00
    0.0000000000E+00    0.0000000000E+00    0.0000000000E+00    0.0000000000E+00
    0.0000000000E+00    0.0000000000E+00    0.0000000000E+00    0.0000000000E+00
    0.0000000000E+00    0.0000000000E+00    0.0000000000E+00    0.0000000000E+00
    0.0000000000E+00    0.0000000000E+00    0.0000000000E+00    0.0000000000E+00
    0.0000000000E+00    0.0000000000E+00    0.0000000000E+00    0.0000000000E+00
    0.0000000000E+00    0.0000000000E+00    0.0000000000E+00    0.0000000000E+00
    0.0000000000E+00    0.0000000000E+00    0.0000000000E+00    0.0000000000E+00
    0.0000000000E+00    0.0000000000E+00    0.0000000000E+00    0.0000000000E+00
    0.0000000000E+00    0.0000000000E+00    0.0000000000E+00    0.0000000000E+00
    0.0000000000E+00    0.0000000000E+00    0.0000000000E+00    0.0000000000E+00
    0.0000000000E+00    0.0000000000E+00    0.0000000000E+00    0.0000000000E+00
    0.0000000000E+00    0.0000000000E+00    0.0000000000E+00    0.0000000000E+00
    0.0000000000E+00    0.0000000000E+00    0.0000000000E+00    0.0000000000E+00
    0.0000000000E+00    0.0000000000E+00    0.0000000000E+00    0.0000000000E+00
    0.0000000000E+00    0.0000000000E+00    0.0000000000E+00    0.0000000000E+00
    0.0000000000E+00    0.0000000000E+00    0.0000000000E+00    0.0000000000E+00
    0.0000000000E+00    0.0000000000E+00    0.0000000000E+00    0.0000000000E+00
    0.0000000000E+00    0.0000000000E+00    0.0000000000E+00    0.0000000000E+00
    0.0000000000E+00    0.0000000000E+00    0.0000000000E+00    0.0000000000E+00
    0.0000000000E+00    0.0000000000E+00    0.0000000000E+00    0.0000000000E+00
    0.0000000000E+00    0.0000000000E+00    0.0000000000E+00    0.0000000000E+00
    0.0000000000E+00    0.0000000000E+00    0.0000000000E+00    0.0000000000E+00
    0.0000000000E+00    0.0000000000E+00    0.0000000000E+00    0.0000000000E+00
    0.0000000000E+00    0.0000000000E+00    0.0000000000E+00    0.0000000000E+00
    0.0000000000E+00    0.0000000000E+00    0.0000000000E+00    0.0000000000E+00
    0.0000000000E+00    0.0000000000E+00    0.0000000000E+00    0.0000000000E+00
    0.0000000000E+00    0.0000000000E+00    0.0000000000E+00    0.0000000000E+00
    0.0000000000E+00    0.0000000000E+00    0.0000000000E+00    0.0000000000E+00
    0.0000000000E+00    0.0000000000E+00    0.0000000000E+00    0.0000000000E+00
    0.0000000000E+00    0.0000000000E+00    0.0000000000E+00    0.0000000000E+00
    0.0000000000E+00    0.0000000000E+00    0.0000000000E+00    0.0000000000E+00
    0.0000000000E+00    0.0000000000E+00    0.0000000000E+00    0.0000000000E+00
    0.0000000000E+00    0.0000000000E+00    0.0000000000E+00    0.0000000000E+00
    0.0000000000E+00    0.0000000000E+00    0.0000000000E+00    0.0000000000E+00
    0.0000000000E+00    0.0000000000E+00    0.0000000000E+00    0.0000000000E+00
    0.0000000000E+00    0.0000000000E+00    0.0000000000E+00    0.0000000000E+00
    0.0000000000E+00    0.0000000000E+00    0.0000000000E+00    0.0000000000E+00
    0.0000000000E+00    0.0000000000E+00    0.0000000000E+00    0.0000000000E+00
    0.0000000000E+00    0.0000000000E+00    0.0000000000E+00    0.0000000000E+00
    0.0000000000E+00    0.0000000000E+00    0.0000000000E+00    0.0000000000E+00
    0.0000000000E+00    0.0000000000E+00    0.0000000000E+00    0.0000000000E+00
    0.0000000000E+00    0.0000000000E+00    0.0000000000E+00    0.0000000000E+00
    0.0000000000E+00    0.0000000000E+00    0.0000000000E+00    0.0000000000E+00
    0.0000000000E+00    0.0000000000E+00    0.0000000000E+00    0.0000000000E+00
    0.0000000000E+00    0.0000000000E+00    0.0000000000E+00    0.0000000000E+00
    0.0000000000E+00    0.0000000000E+00    0.0000000000E+00    0.0000000000E+00
    0.0000000000E+00    0.0000000000E+00    0.0000000000E+00    0.0000000000E+00
    0.0000000000E+00    0.0000000000E+00    0.0000000000E+00    0.0000000000E+00
    0.0000000000E+00    0.0000000000E+00    0.0000000000E+00    0.0000000000E+00
    0.0000000000E+00    0.0000000000E+00    0.0000000000E+00    0.0000000000E+00
    0.0000000000E+00    0.0000000000E+00    0.0000000000E+00    0.0000000000E+00
    0.0000000000E+00    0.0000000000E+00    0.0000000000E+00    0.0000000000E+00
    0.0000000000E+00    0.0000000000E+00    0.0000000000E+00    0.0000000000E+00
    0.0000000000E+00    0.0000000000E+00    0.0000000000E+00    0.0000000000E+00
    0.0000000000E+00    0.0000000000E+00    0.0000000000E+00    0.0000000000E+00
    0.0000000000E+00    0.0000000000E+00    0.0000000000E+00    0.0000000000E+00
    0.0000000000E+00    0.0000000000E+00    0.0000000000E+00    0.0000000000E+00
    0.0000000000E+00    0.0000000000E+00    0.0000000000E+00    0.0000000000E+00
    0.0000000000E+00    0.0000000000E+00    0.0000000000E+00    0.0000000000E+00
    0.0000000000E+00    0.0000000000E+00    0.0000000000E+00    0.0000000000E+00
    0.0000000000E+00    0.0000000000E+00    0.0000000000E+00    0.0000000000E+00
    0.0000000000E+00    0.0000000000E+00    0.0000000000E+00    0.0000000000E+00
    0.0000000000E+00    0.0000000000E+00    0.0000000000E+00    0.0000000000E+00
    0.0000000000E+00    0.0000000000E+00    0.0000000000E+00    0.0000000000E+00
    0.0000000000E+00    0.0000000000E+00    0.0000000000E+00    0.0000000000E+00
    0.0000000000E+00    0.0000000000E+00    0.0000000000E+00    0.0000000000E+00
    0.0000000000E+00    0.0000000000E+00    0.0000000000E+00    0.0000000000E+00
    0.0000000000E+00    0.0000000000E+00    0.0000000000E+00    0.0000000000E+00
    0.0000000000E+00    0.0000000000E+00    0.0000000000E+00    0.0000000000E+00
    0.0000000000E+00    0.0000000000E+00    0.0000000000E+00    0.0000000000E+00
    0.0000000000E+00    0.0000000000E+00    0.0000000000E+00    0.0000000000E+00
    0.0000000000E+00    0.0000000000E+00    0.0000000000E+00    0.0000000000E+00
    0.0000000000E+00    0.0000000000E+00    0.0000000000E+00    0.0000000000E+00
    0.0000000000E+00    0.0000000000E+00    0.0000000000E+00    0.0000000000E+00
    0.0000000000E+00    0.0000000000E+00    0.0000000000E+00    0.0000000000E+00
    0.0000000000E+00    0.0000000000E+00    0.0000000000E+00    0.0000000000E+00
    0.0000000000E+00    0.0000000000E+00    0.0000000000E+00    0.0000000000E+00
    0.0000000000E+00    0.0000000000E+00    0.0000000000E+00    0.0000000000E+00
    0.0000000000E+00    0.0000000000E+00    0.0000000000E+00    0.0000000000E+00
    0.0000000000E+00    0.0000000000E+00    0.0000000000E+00    0.0000000000E+00
    0.0000000000E+00    0.0000000000E+00    0.0000000000E+00    0.0000000000E+00
    0.0000000000E+00    0.0000000000E+00    0.0000000000E+00    0.0000000000E+00
    0.0000000000E+00    0.0000000000E+00    0.0000000000E+00    0.0000000000E+00
    0.0000000000E+00    0.0000000000E+00    0.0000000000E+00    0.0000000000E+00
    0.0000000000E+00    0.0000000000E+00    0.0000000000E+00    0.0000000000E+00
    0.0000000000E+00    0.0000000000E+00    0.0000000000E+00    0.0000000000E+00
    0.0000000000E+00    0.0000000000E+00    0.0000000000E+00    0.0000000000E+00
    0.0000000000E+00    0.0000000000E+00    0.0000000000E+00    0.0000000000E+00
    0.0000000000E+00    0.0000000000E+00    0.0000000000E+00    0.0000000000E+00
    0.0000000000E+00    0.0000000000E+00    0.0000000000E+00    0.0000000000E+00
    0.0000000000E+00    0.0000000000E+00    0.0000000000E+00    0.0000000000E+00
    0.0000000000E+00    0.0000000000E+00    0.0000000000E+00    0.0000000000E+00
    0.0000000000E+00    0.0000000000E+00    0.0000000000E+00    0.0000000000E+00
    0.0000000000E+00    0.0000000000E+00    0.0000000000E+00    0.0000000000E+00
    0.0000000000E+00    0.0000000000E+00    0.0000000000E+00    0.0000000000E+00
    0.0000000000E+00    0.0000000000E+00    0.0000000000E+00    0.0000000000E+00
    0.0000000000E+00    0.0000000000E+00    0.0000000000E+00    0.0000000000E+00
    0.0000000000E+00    0.0000000000E+00    0.0000000000E+00    0.0000000000E+00
    0.0000000000E+00    0.0000000000E+00    0.0000000000E+00    0.0000000000E+00
    0.0000000000E+00    0.0000000000E+00    0.0000000000E+00    0.0000000000E+00
    0.0000000000E+00    0.0000000000E+00    0.0000000000E+00    0.0000000000E+00
    0.0000000000E+00    0.0000000000E+00    0.0000000000E+00    0.0000000000E+00
    0.0000000000E+00    0.0000000000E+00    0.0000000000E+00    0.0000000000E+00
    0.0000000000E+00    0.0000000000E+00    0.0000000000E+00    0.0000000000E+00
    0.0000000000E+00    0.0000000000E+00    0.0000000000E+00    0.0000000000E+00
    0.0000000000E+00    0.0000000000E+00    0.0000000000E+00    0.0000000000E+00
    0.0000000000E+00    0.0000000000E+00    0.0000000000E+00    0.0000000000E+00
    0.0000000000E+00    0.0000000000E+00    0.0000000000E+00    0.0000000000E+00
    0.0000000000E+00    0.0000000000E+00    0.0000000000E+00    0.0000000000E+00
    0.0000000000E+00    0.0000000000E+00    0.0000000000E+00    0.0000000000E+00
    0.0000000000E+00    0.0000000000E+00    0.0000000000E+00    0.0000000000E+00
    0.0000000000E+00    0.0000000000E+00    0.0000000000E+00    0.0000000000E+00
    0.0000000000E+00    0.0000000000E+00    0.0000000000E+00    0.0000000000E+00
    0.0000000000E+00    0.0000000000E+00    0.0000000000E+00    0.0000000000E+00
    0.0000000000E+00    0.0000000000E+00    0.0000000000E+00    0.0000000000E+00
    0.0000000000E+00    0.0000000000E+00    0.0000000000E+00    0.0000000000E+00
    0.0000000000E+00    0.0000000000E+00    0.0000000000E+00    0.0000000000E+00
    0.0000000000E+00    0.0000000000E+00    0.0000000000E+00    0.0000000000E+00
    0.0000000000E+00    0.0000000000E+00    0.0000000000E+00    0.0000000000E+00
    0.0000000000E+00    0.0000000000E+00    0.0000000000E+00    0.0000000000E+00
    0.0000000000E+00    0.0000000000E+00    0.0000000000E+00    0.0000000000E+00
    0.0000000000E+00    0.0000000000E+00    0.0000000000E+00    0.0000000000E+00
    0.0000000000E+00    0.0000000000E+00    0.0000000000E+00    0.0000000000E+00
    0.0000000000E+00    0.0000000000E+00    0.0000000000E+00    0.0000000000E+00
    0.0000000000E+00    0.0000000000E+00    0.0000000000E+00    0.0000000000E+00
    0.0000000000E+00    0.0000000000E+00    0.0000000000E+00    0.0000000000E+00
    0.0000000000E+00    0.0000000000E+00    0.0000000000E+00    0.0000000000E+00
    0.0000000000E+00    0.0000000000E+00    0.0000000000E+00    0.0000000000E+00
    0.0000000000E+00    0.0000000000E+00    0.0000000000E+00    0.0000000000E+00
    0.0000000000E+00    0.0000000000E+00    0.0000000000E+00    0.0000000000E+00
    0.0000000000E+00    0.0000000000E+00    0.0000000000E+00    0.0000000000E+00
    0.0000000000E+00    0.0000000000E+00    0.0000000000E+00    0.0000000000E+00
    0.0000000000E+00    0.0000000000E+00    0.0000000000E+00    0.0000000000E+00
    0.0000000000E+00    0.0000000000E+00    0.0000000000E+00    0.0000000000E+00
    0.0000000000E+00    0.0000000000E+00    0.0000000000E+00    0.0000000000E+00
    0.0000000000E+00    0.0000000000E+00    0.0000000000E+00    0.0000000000E+00
    0.0000000000E+00    0.0000000000E+00    0.0000000000E+00    0.0000000000E+00
    0.0000000000E+00    0.0000000000E+00    0.0000000000E+00    0.0000000000E+00
    0.0000000000E+00    0.0000000000E+00    0.0000000000E+00    0.0000000000E+00
    0.0000000000E+00    0.0000000000E+00    0.0000000000E+00    0.0000000000E+00
    0.0000000000E+00    0.0000000000E+00    0.0000000000E+00    0.0000000000E+00
    0.0000000000E+00    0.0000000000E+00    0.0000000000E+00    0.0000000000E+00
    0.0000000000E+00    0.0000000000E+00    0.0000000000E+00    0.0000000000E+00
    0.0000000000E+00    0.0000000000E+00    0.0000000000E+00    0.0000000000E+00
    0.0000000000E+00    0.0000000000E+00    0.0000000000E+00    0.0000000000E+00
    0.0000000000E+00    0.0000000000E+00    0.0000000000E+00    0.0000000000E+00
    0.0000000000E+00    0.0000000000E+00    0.0000000000E+00    0.0000000000E+00
    0.0000000000E+00    0.0000000000E+00    0.0000000000E+00    0.0000000000E+00
    0.0000000000E+00    0.0000000000E+00    0.0000000000E+00    0.0000000000E+00
    0.0000000000E+00    0.0000000000E+00    0.0000000000E+00    0.0000000000E+00
    0.0000000000E+00    0.0000000000E+00    0.0000000000E+00    0.0000000000E+00
    0.0000000000E+00    0.0000000000E+00    0.0000000000E+00    0.0000000000E+00
    0.0000000000E+00    0.0000000000E+00    0.0000000000E+00    0.0000000000E+00
    0.0000000000E+00    0.0000000000E+00    0.0000000000E+00    0.0000000000E+00
    0.0000000000E+00    0.0000000000E+00    0.0000000000E+00    0.0000000000E+00
    0.0000000000E+00    0.0000000000E+00    0.0000000000E+00    0.0000000000E+00
    0.0000000000E+00    0.0000000000E+00    0.0000000000E+00    0.0000000000E+00
    0.0000000000E+00    0.0000000000E+00    0.0000000000E+00    0.0000000000E+00
    0.0000000000E+00    0.0000000000E+00    0.0000000000E+00    0.0000000000E+00
    0.0000000000E+00    0.0000000000E+00    0.0000000000E+00    0.0000000000E+00
    0.0000000000E+00    0.0000000000E+00    0.0000000000E+00    0.0000000000E+00
    0.0000000000E+00    0.0000000000E+00    0.0000000000E+00    0.0000000000E+00
    0.0000000000E+00    0.0000000000E+00    0.0000000000E+00    0.0000000000E+00
    0.0000000000E+00    0.0000000000E+00    0.0000000000E+00    0.0000000000E+00
    0.0000000000E+00    0.0000000000E+00    0.0000000000E+00    0.0000000000E+00
    0.0000000000E+00    0.0000000000E+00    0.0000000000E+00    0.0000000000E+00
    0.0000000000E+00    0.0000000000E+00    0.0000000000E+00    0.0000000000E+00
    0.0000000000E+00    0.0000000000E+00    0.0000000000E+00    0.0000000000E+00
    0.0000000000E+00    0.0000000000E+00    0.0000000000E+00    0.0000000000E+00
    0.0000000000E+00    0.0000000000E+00    0.0000000000E+00    0.0000000000E+00
    0.0000000000E+00    0.0000000000E+00    0.0000000000E+00    0.0000000000E+00
    0.0000000000E+00    0.0000000000E+00    0.0000000000E+00    0.0000000000E+00
    0.0000000000E+00    0.0000000000E+00    0.0000000000E+00    0.0000000000E+00
    0.0000000000E+00    0.0000000000E+00    0.0000000000E+00    0.0000000000E+00
    0.0000000000E+00    0.0000000000E+00    0.0000000000E+00    0.0000000000E+00
    0.0000000000E+00    0.0000000000E+00    0.0000000000E+00    0.0000000000E+00
    0.0000000000E+00    0.0000000000E+00    0.0000000000E+00    0.0000000000E+00
    0.0000000000E+00    0.0000000000E+00    0.0000000000E+00    0.0000000000E+00
    0.0000000000E+00    0.0000000000E+00    0.0000000000E+00    0.0000000000E+00
    0.0000000000E+00    0.0000000000E+00    0.0000000000E+00    0.0000000000E+00
    0.0000000000E+00    0.0000000000E+00    0.0000000000E+00    0.0000000000E+00
    0.0000000000E+00    0.0000000000E+00    0.0000000000E+00    0.0000000000E+00
    0.0000000000E+00    0.0000000000E+00    0.0000000000E+00    0.0000000000E+00
    0.0000000000E+00    0.0000000000E+00    0.0000000000E+00    0.0000000000E+00
    0.0000000000E+00    0.0000000000E+00    0.0000000000E+00    0.0000000000E+00
    0.0000000000E+00    0.0000000000E+00    0.0000000000E+00    0.0000000000E+00
    0.0000000000E+00    0.0000000000E+00    0.0000000000E+00    0.0000000000E+00
    0.0000000000E+00    0.0000000000E+00    0.0000000000E+00    0.0000000000E+00
    0.0000000000E+00    0.0000000000E+00    0.0000000000E+00    0.0000000000E+00
    0.0000000000E+00    0.0000000000E+00    0.0000000000E+00    0.0000000000E+00
    0.0000000000E+00    0.0000000000E+00    0.0000000000E+00    0.0000000000E+00
    0.0000000000E+00    0.0000000000E+00    0.0000000000E+00    0.0000000000E+00
    0.0000000000E+00    0.0000000000E+00    0.0000000000E+00    0.0000000000E+00
    0.0000000000E+00    0.0000000000E+00    0.0000000000E+00    0.0000000000E+00
    0.0000000000E+00    0.0000000000E+00    0.0000000000E+00    0.0000000000E+00
    0.0000000000E+00    0.0000000000E+00    0.0000000000E+00    0.0000000000E+00
    0.0000000000E+00    0.0000000000E+00    0.0000000000E+00    0.0000000000E+00
    0.0000000000E+00    0.0000000000E+00    0.0000000000E+00    0.0000000000E+00
    0.0000000000E+00    0.0000000000E+00    0.0000000000E+00    0.0000000000E+00
    0.0000000000E+00    0.0000000000E+00    0.0000000000E+00    0.0000000000E+00
    0.0000000000E+00    0.0000000000E+00    0.0000000000E+00    0.0000000000E+00
 </PP_NLCC>
 <PP_RHOATOM type="real"  size="1408" columns="4">
    0.0000000000E+00    8.0254446429E-04    3.2125585974E-03    7.2371695690E-03
    1.2888205901E-02    2.0182122588E-02    2.9139896794E-02    3.9786894642E-02
    5.2152709763E-02    6.6270974410E-02    8.2179144090E-02    9.9918256766E-02
    1.1953266786E-01    1.4106976234E-01    1.6457964537E-01    1.9011481302E-01
    2.1772980467E-01    2.4748083891E-01    2.7942543462E-01    3.1362201918E-01
    3.5012952580E-01    3.8900698177E-01    4.3031308992E-01    4.7410580513E-01
    5.2044190806E-01    5.6937657823E-01    6.2096296845E-01    6.7525178281E-01
    7.3229086007E-01    7.9212476480E-01    8.5479438791E-01    9.2033655879E-01
    9.8878367081E-01    1.0601633219E+00    1.1344979723E+00    1.2118046204E+00
    1.2920944994E+00    1.3753727950E+00    1.4616383860E+00    1.5508836096E+00
    1.6430940514E+00    1.7382483620E+00    1.8363181009E+00    1.9372676079E+00
    2.0410539033E+00    2.1476266173E+00    2.2569279483E+00    2.3688926512E+00
    2.4834480550E+00    2.6005141103E+00    2.7200034661E+00    2.8418215756E+00
    2.9658668307E+00    3.0920307246E+00    3.2201980418E+00    3.3502470744E+00
    3.4820498644E+00    3.6154724707E+00    3.7503752586E+00    3.8866132130E+00
    4.0240362714E+00    4.1624896772E+00    4.3018143504E+00    4.4418472753E+00
    4.5824219032E+00    4.7233685682E+00    4.8645149146E+00    5.0056863344E+00
    5.1467064131E+00    5.2873973812E+00    5.4275805713E+00    5.5670768775E+00
    5.7057072159E+00    5.8432929846E+00    5.9796565211E+00    6.1146215562E+00
    6.2480136612E+00    6.3796606886E+00    6.5093932034E+00    6.6370449037E+00
    6.7624530305E+00    6.8854587625E+00    7.0059075979E+00    7.1236497192E+00
    7.2385403418E+00    7.3504400440E+00    7.4592150779E+00    7.5647376613E+00
    7.6668862475E+00    7.7655457746E+00    7.8606078925E+00    7.9519711678E+00
    8.0395412646E+00    8.1232311038E+00    8.2029609972E+00    8.2786587594E+00
    8.3502597958E+00    8.4177071664E+00    8.4809516273E+00    8.5399516488E+00
    8.5946734107E+00    8.6450907754E+00    8.6911852392E+00    8.7329458631E+00
    8.7703691819E+00    8.8034590946E+00    8.8322267354E+00    8.8566903263E+00
    8.8768750134E+00    8.8928126854E+00    8.9045417784E+00    8.9121070650E+00
    8.9155594312E+00    8.9149556406E+00    8.9103580872E+00    8.9018345394E+00
    8.8894578734E+00    8.8733058005E+00    8.8534605868E+00    8.8300087678E+00
    8.8030408582E+00    8.7726510588E+00    8.7389369609E+00    8.7019992496E+00
    8.6619414067E+00    8.6188694149E+00    8.5728914628E+00    8.5241176536E+00
    8.4726597166E+00    8.4186307233E+00    8.3621448087E+00    8.3033168984E+00
    8.2422624421E+00    8.1790971545E+00    8.1139367642E+00    8.0468967702E+00
    7.9780922080E+00    7.9076374246E+00    7.8356458631E+00    7.7622298570E+00
    7.6875004357E+00    7.6115671390E+00    7.5345378437E+00    7.4565186000E+00
    7.3776134790E+00    7.2979244314E+00    7.2175511567E+00    7.1365909835E+00
    7.0551387607E+00    6.9732867586E+00    6.8911245817E+00    6.8087390910E+00
    6.7262143364E+00    6.6436314994E+00    6.5610688450E+00    6.4786016832E+00
    6.3963023394E+00    6.3142401331E+00    6.2324813657E+00    6.1510893154E+00
    6.0701242404E+00    5.9896433890E+00    5.9097010161E+00    5.8303484075E+00
    5.7516339082E+00    5.6736029587E+00    5.5962981344E+00    5.5197591913E+00
    5.4440231158E+00    5.3691241784E+00    5.2950939912E+00    5.2219615692E+00
    5.1497533938E+00    5.0784934801E+00    5.0082034452E+00    4.9389025796E+00
    4.8706079199E+00    4.8033343228E+00    4.7370945403E+00    4.6718992959E+00
    4.6077573610E+00    4.5446756322E+00    4.4826592082E+00    4.4217114671E+00
    4.3618341426E+00    4.3030274009E+00    4.2452899158E+00    4.1886189434E+00
    4.1330103966E+00    4.0784589168E+00    4.0249579465E+00    3.9724997984E+00
    3.9210757252E+00    3.8706759861E+00    3.8212899130E+00    3.7729059744E+00
    3.7255118380E+00    3.6790944311E+00    3.6336399999E+00    3.5891341663E+00
    3.5455619837E+00    3.5029079904E+00    3.4611562611E+00    3.4202904572E+00
    3.3802938751E+00    3.3411494921E+00    3.3028400113E+00    3.2653479045E+00
    3.2286554532E+00    3.1927447883E+00    3.1575979277E+00    3.1231968122E+00
    3.0895233408E+00    3.0565594029E+00    3.0242869103E+00    2.9926878269E+00
    2.9617441973E+00    2.9314381739E+00    2.9017520427E+00    2.8726682472E+00
    2.8441694122E+00    2.8162383649E+00    2.7888581554E+00    2.7620120766E+00
    2.7356836815E+00    2.7098568004E+00    2.6845155568E+00    2.6596443822E+00
    2.6352280291E+00    2.6112515834E+00    2.5877004762E+00    2.5645604938E+00
    2.5418177867E+00    2.5194588783E+00    2.4974706723E+00    2.4758404581E+00
    2.4545559193E+00    2.4336051423E+00    2.4129766298E+00    2.3926593065E+00
    2.3726425162E+00    2.3529160199E+00    2.3334699936E+00    2.3142950252E+00
    2.2953821097E+00    2.2767226441E+00    2.2583084206E+00    2.2401316195E+00
    2.2221848008E+00    2.2044608958E+00    2.1869531958E+00    2.1696553417E+00
    2.1525612943E+00    2.1356652912E+00    2.1189617740E+00    2.1024453484E+00
    2.0861108062E+00    2.0699531141E+00    2.0539674071E+00    2.0381489859E+00
    2.0224933113E+00    2.0069960008E+00    1.9916528235E+00    1.9764596963E+00
    1.9614126794E+00    1.9465079727E+00    1.9317419113E+00    1.9171109621E+00
    1.9026117192E+00    1.8882409009E+00    1.8739953456E+00    1.8598720079E+00
    1.8458679559E+00    1.8319803667E+00    1.8182065240E+00    1.8045438138E+00
    1.7909897221E+00    1.7775418310E+00    1.7641978159E+00    1.7509554428E+00
    1.7378125646E+00    1.7247671191E+00    1.7118171253E+00    1.6989606814E+00
    1.6861959620E+00    1.6735212150E+00    1.6609347599E+00    1.6484349845E+00
    1.6360203431E+00    1.6236893539E+00    1.6114405970E+00    1.5992727117E+00
    1.5871843948E+00    1.5751743985E+00    1.5632415281E+00    1.5513846403E+00
    1.5396026410E+00    1.5278944838E+00    1.5162591679E+00    1.5046957367E+00
    1.4932032755E+00    1.4817809106E+00    1.4704278071E+00    1.4591431676E+00
    1.4479262310E+00    1.4367762702E+00    1.4256925916E+00    1.4146745333E+00
    1.4037214638E+00    1.3928327806E+00    1.3820079094E+00    1.3712463024E+00
    1.3605474374E+00    1.3499108166E+00    1.3393359657E+00    1.3288224323E+00
    1.3183697858E+00    1.3079776153E+00    1.2976455298E+00    1.2873731563E+00
    1.2771601395E+00    1.2670061408E+00    1.2569108374E+00    1.2468739215E+00
    1.2368950996E+00    1.2269740920E+00    1.2171106313E+00    1.2073044628E+00
    1.1975553428E+00    1.1878630388E+00    1.1782273282E+00    1.1686479983E+00
    1.1591248451E+00    1.1496576735E+00    1.1402462960E+00    1.1308905328E+00
    1.1215902110E+00    1.1123451640E+00    1.1031552315E+00    1.0940202587E+00
    1.0849400960E+00    1.0759145985E+00    1.0669436258E+00    1.0580270415E+00
    1.0491647128E+00    1.0403565105E+00    1.0316023081E+00    1.0229019821E+00
    1.0142554110E+00    1.0056624758E+00    9.9712305935E-01    9.8863704584E-01
    9.8020432101E-01    9.7182477163E-01    9.6349828542E-01    9.5522475072E-01
    9.4700405640E-01    9.3883609155E-01    9.3072074541E-01    9.2265790712E-01
    9.1464746557E-01    9.0668930927E-01    8.9878332618E-01    8.9092940357E-01
    8.8312742789E-01    8.7537728466E-01    8.6767885833E-01    8.6003203220E-01
    8.5243668828E-01    8.4489270722E-01    8.3739996822E-01    8.2995834894E-01
    8.2256772542E-01    8.1522797201E-01    8.0793896130E-01    8.0070056409E-01
    7.9351264927E-01    7.8637508384E-01    7.7928773281E-01    7.7225045919E-01
    7.6526312393E-01    7.5832558593E-01    7.5143770195E-01    7.4459932662E-01
    7.3781031244E-01    7.3107050970E-01    7.2437976654E-01    7.1773792889E-01
    7.1114484046E-01    7.0460034277E-01    6.9810427512E-01    6.9165647462E-01
    6.8525677616E-01    6.7890501243E-01    6.7260101395E-01    6.6634460903E-01
    6.6013562386E-01    6.5397388245E-01    6.4785920670E-01    6.4179141639E-01
    6.3577032923E-01    6.2979576084E-01    6.2386752482E-01    6.1798543276E-01
    6.1214929427E-01    6.0635891698E-01    6.0061410664E-01    5.9491466707E-01
    5.8926040026E-01    5.8365110637E-01    5.7808658378E-01    5.7256662910E-01
    5.6709103726E-01    5.6165960149E-01    5.5627211339E-01    5.5092836298E-01
    5.4562813870E-01    5.4037122751E-01    5.3515741488E-01    5.2998648483E-01
    5.2485822003E-01    5.1977240179E-01    5.1472881011E-01    5.0972722375E-01
    5.0476742023E-01    4.9984917593E-01    4.9497226608E-01    4.9013646485E-01
    4.8534154534E-01    4.8058727970E-01    4.7587343909E-01    4.7119979378E-01
    4.6656611320E-01    4.6197216593E-01    4.5741771980E-01    4.5290254189E-01
    4.4842639862E-01    4.4398905575E-01    4.3959027845E-01    4.3522983132E-01
    4.3090747846E-01    4.2662298349E-01    4.2237610962E-01    4.1816661964E-01
    4.1399427601E-01    4.0985884088E-01    4.0576007615E-01    4.0169774347E-01
    3.9767160432E-01    3.9368142001E-01    3.8972695178E-01    3.8580796075E-01
    3.8192420804E-01    3.7807545477E-01    3.7426146209E-01    3.7048199122E-01
    3.6673680350E-01    3.6302566043E-01    3.5934832366E-01    3.5570455508E-01
    3.5209411680E-01    3.4851677123E-01    3.4497228109E-01    3.4146040943E-01
    3.3798091968E-01    3.3453357568E-01    3.3111814169E-01    3.2773438244E-01
    3.2438206316E-01    3.2106094957E-01    3.1777080797E-01    3.1451140520E-01
    3.1128250871E-01    3.0808388659E-01    3.0491530755E-01    3.0177654098E-01
    2.9866735699E-01    2.9558752638E-01    2.9253682071E-01    2.8951501227E-01
    2.8652187418E-01    2.8355718033E-01    2.8062070545E-01    2.7771222512E-01
    2.7483151576E-01    2.7197835470E-01    2.6915252014E-01    2.6635379123E-01
    2.6358194803E-01    2.6083677155E-01    2.5811804378E-01    2.5542554767E-01
    2.5275906718E-01    2.5011838727E-01    2.4750329394E-01    2.4491357420E-01
    2.4234901612E-01    2.3980940884E-01    2.3729454255E-01    2.3480420855E-01
    2.3233819920E-01    2.2989630799E-01    2.2747832952E-01    2.2508405950E-01
    2.2271329477E-01    2.2036583333E-01    2.1804147432E-01    2.1574001801E-01
    2.1346126587E-01    2.1120502051E-01    2.0897108574E-01    2.0675926652E-01
    2.0456936902E-01    2.0240120060E-01    2.0025456980E-01    1.9812928638E-01
    1.9602516131E-01    1.9394200673E-01    1.9187963604E-01    1.8983786383E-01
    1.8781650590E-01    1.8581537929E-01    1.8383430225E-01    1.8187309426E-01
    1.7993157602E-01    1.7800956946E-01    1.7610689775E-01    1.7422338526E-01
    1.7235885761E-01    1.7051314165E-01    1.6868606544E-01    1.6687745829E-01
    1.6508715073E-01    1.6331497450E-01    1.6156076260E-01    1.5982434922E-01
    1.5810556979E-01    1.5640426096E-01    1.5472026060E-01    1.5305340779E-01
    1.5140354283E-01    1.4977050722E-01    1.4815414370E-01    1.4655429618E-01
    1.4497080979E-01    1.4340353086E-01    1.4185230692E-01    1.4031698668E-01
    1.3879742004E-01    1.3729345810E-01    1.3580495314E-01    1.3433175859E-01
    1.3287372909E-01    1.3143072042E-01    1.3000258953E-01    1.2858919455E-01
    1.2719039473E-01    1.2580605049E-01    1.2443602339E-01    1.2308017614E-01
    1.2173837257E-01    1.2041047763E-01    1.1909635742E-01    1.1779587914E-01
    1.1650891111E-01    1.1523532274E-01    1.1397498457E-01    1.1272776821E-01
    1.1149354638E-01    1.1027219285E-01    1.0906358251E-01    1.0786759130E-01
    1.0668409622E-01    1.0551297534E-01    1.0435410777E-01    1.0320737370E-01
    1.0207265432E-01    1.0094983187E-01    9.9838789626E-02    9.8739411881E-02
    9.7651583941E-02    9.6575192122E-02    9.5510123741E-02    9.4456267114E-02
    9.3413511545E-02    9.2381747321E-02    9.1360865704E-02    9.0350758929E-02
    8.9351320191E-02    8.8362443644E-02    8.7384024392E-02    8.6415958481E-02
    8.5458142894E-02    8.4510475547E-02    8.3572855277E-02    8.2645181839E-02
    8.1727355898E-02    8.0819279023E-02    7.9920853681E-02    7.9031983230E-02
    7.8152571909E-02    7.7282524840E-02    7.6421748010E-02    7.5570148275E-02
    7.4727633345E-02    7.3894111786E-02    7.3069493004E-02    7.2253687246E-02
    7.1446605590E-02    7.0648159939E-02    6.9858263017E-02    6.9076828357E-02
    6.8303770302E-02    6.7539003990E-02    6.6782445357E-02    6.6034011123E-02
    6.5293618790E-02    6.4561186633E-02    6.3836633696E-02    6.3119879786E-02
    6.2410845464E-02    6.1709452041E-02    6.1015621572E-02    6.0329276847E-02
    5.9650341390E-02    5.8978739449E-02    5.8314395990E-02    5.7657236693E-02
    5.7007187945E-02    5.6364176834E-02    5.5728131143E-02    5.5098979346E-02
    5.4476650597E-02    5.3861074732E-02    5.3252182255E-02    5.2649904339E-02
    5.2054172815E-02    5.1464920173E-02    5.0882079547E-02    5.0305584718E-02
    4.9735370104E-02    4.9171370757E-02    4.8613522353E-02    4.8061761192E-02
    4.7516024189E-02    4.6976248870E-02    4.6442373368E-02    4.5914336414E-02
    4.5392077334E-02    4.4875536045E-02    4.4364653047E-02    4.3859369420E-02
    4.3359626818E-02    4.2865367465E-02    4.2376534146E-02    4.1893070208E-02
    4.1414919551E-02    4.0942026623E-02    4.0474336418E-02    4.0011794467E-02
    3.9554346838E-02    3.9101940127E-02    3.8654521454E-02    3.8212038461E-02
    3.7774439304E-02    3.7341672651E-02    3.6913687675E-02    3.6490434052E-02
    3.6071861953E-02    3.5657922043E-02    3.5248565474E-02    3.4843743884E-02
    3.4443409386E-02    3.4047514572E-02    3.3656012501E-02    3.3268856699E-02
    3.2886001158E-02    3.2507400323E-02    3.2133009095E-02    3.1762782823E-02
    3.1396677300E-02    3.1034648759E-02    3.0676653871E-02    3.0322649740E-02
    2.9972593905E-02    2.9626444326E-02    2.9284159387E-02    2.8945697889E-02
    2.8611019039E-02    2.8280082453E-02    2.7952848155E-02    2.7629276566E-02
    2.7309328518E-02    2.6992965234E-02    2.6680148326E-02    2.6370839798E-02
    2.6065002030E-02    2.5762597782E-02    2.5463590191E-02    2.5167942766E-02
    2.4875619386E-02    2.4586584297E-02    2.4300802107E-02    2.4018237781E-02
    2.3738856645E-02    2.3462624374E-02    2.3189506994E-02    2.2919470875E-02
    2.2652482732E-02    2.2388509616E-02    2.2127518916E-02    2.1869478352E-02
    2.1614355973E-02    2.1362120159E-02    2.1112739608E-02    2.0866183341E-02
    2.0622420697E-02    2.0381421328E-02    2.0143155197E-02    1.9907592577E-02
    1.9674704046E-02    1.9444460482E-02    1.9216833067E-02    1.8991793276E-02
    1.8769312879E-02    1.8549363938E-02    1.8331918802E-02    1.8116950108E-02
    1.7904430772E-02    1.7694333993E-02    1.7486633247E-02    1.7281302284E-02
    1.7078315126E-02    1.6877646065E-02    1.6679269660E-02    1.6483160734E-02
    1.6289294372E-02    1.6097645916E-02    1.5908190970E-02    1.5720905386E-02
    1.5535765272E-02    1.5352746983E-02    1.5171827124E-02    1.4992982540E-02
    1.4816190321E-02    1.4641427797E-02    1.4468672535E-02    1.4297902336E-02
    1.4129095234E-02    1.3962229495E-02    1.3797283612E-02    1.3634236306E-02
    1.3473066518E-02    1.3313753415E-02    1.3156276380E-02    1.3000615016E-02
    1.2846749140E-02    1.2694658782E-02    1.2544324182E-02    1.2395725791E-02
    1.2248844267E-02    1.2103660469E-02    1.1960155464E-02    1.1818310516E-02
    1.1678107090E-02    1.1539526845E-02    1.1402551639E-02    1.1267163520E-02
    1.1133344727E-02    1.1001077689E-02    1.0870345024E-02    1.0741129532E-02
    1.0613414198E-02    1.0487182189E-02    1.0362416852E-02    1.0239101713E-02
    1.0117220471E-02    9.9967570040E-03    9.8776953592E-03    9.7600197567E-03
    9.6437145856E-03    9.5287644026E-03    9.4151539306E-03    9.3028680567E-03
    9.1918918305E-03    9.0822104630E-03    8.9738093242E-03    8.8666739423E-03
    8.7607900015E-03    8.6561433406E-03    8.5527199514E-03    8.4505059776E-03
    8.3494877125E-03    8.2496515979E-03    8.1509842228E-03    8.0534723213E-03
    7.9571027719E-03    7.8618625952E-03    7.7677389532E-03    7.6747191473E-03
    7.5827906173E-03    7.4919409396E-03    7.4021578260E-03    7.3134291225E-03
    7.2257428076E-03    7.1390869910E-03    7.0534499125E-03    6.9688199404E-03
    6.8851855703E-03    6.8025354237E-03    6.7208582468E-03    6.6401429092E-03
    6.5603784026E-03    6.4815538396E-03    6.4036584524E-03    6.3266815914E-03
    6.2506127243E-03    6.1754414346E-03    6.1011574208E-03    6.0277504946E-03
    5.9552105802E-03    5.8835277130E-03    5.8126920385E-03    5.7426938108E-03
    5.6735233921E-03    5.6051712511E-03    5.5376279618E-03    5.4708842029E-03
    5.4049307564E-03    5.3397585063E-03    5.2753584379E-03    5.2117216368E-03
    5.1488392873E-03    5.0867026720E-03    5.0253031703E-03    4.9646322577E-03
    4.9046815045E-03    4.8454425751E-03    4.7869072268E-03    4.7290673089E-03
    4.6719147618E-03    4.6154416156E-03    4.5596399899E-03    4.5045020923E-03
    4.4500202176E-03    4.3961867469E-03    4.3429941466E-03    4.2904349676E-03
    4.2385018446E-03    4.1871874947E-03    4.1364847169E-03    4.0863863910E-03
    4.0368854771E-03    3.9879750144E-03    3.9396481205E-03    3.8918979903E-03
    3.8447178957E-03    3.7981011844E-03    3.7520412789E-03    3.7065316764E-03
    3.6615659472E-03    3.6171377344E-03    3.5732407529E-03    3.5298687890E-03
    3.4870156989E-03    3.4446754087E-03    3.4028419133E-03    3.3615092756E-03
    3.3206716259E-03    3.2803231612E-03    3.2404581443E-03    3.2010709032E-03
    3.1621558306E-03    3.1237073826E-03    3.0857200788E-03    3.0481885010E-03
    3.0111072926E-03    2.9744711584E-03    2.9382748634E-03    2.9025132323E-03
    2.8671811489E-03    2.8322735556E-03    2.7977854524E-03    2.7637118966E-03
    2.7300480019E-03    2.6967889383E-03    2.6639299306E-03    2.6314662586E-03
    2.5993932563E-03    2.5677063109E-03    2.5364008629E-03    2.5054724048E-03
    2.4749164811E-03    2.4447286875E-03    2.4149046701E-03    2.3854401253E-03
    2.3563307991E-03    2.3275724861E-03    2.2991610298E-03    2.2710923213E-03
    2.2433622992E-03    2.2159669489E-03    2.1889023020E-03    2.1621644363E-03
    2.1357494744E-03    2.1096535842E-03    2.0838729775E-03    2.0584039102E-03
    2.0332426814E-03    2.0083856330E-03    1.9838291494E-03    1.9595696568E-03
    1.9356036228E-03    1.9119275562E-03    1.8885380059E-03    1.8654315613E-03
    1.8426048510E-03    1.8200545432E-03    1.7977773444E-03    1.7757699997E-03
    1.7540292919E-03    1.7325520414E-03    1.7113351054E-03    1.6903753778E-03
    1.6696697888E-03    1.6492153043E-03    1.6290089255E-03    1.6090476888E-03
    1.5893286650E-03    1.5698489592E-03    1.5506057101E-03    1.5315960903E-03
    1.5128173050E-03    1.4942665923E-03    1.4759412226E-03    1.4578384981E-03
    1.4399557529E-03    1.4222903520E-03    1.4048396914E-03    1.3876011978E-03
    1.3705723278E-03    1.3537505680E-03    1.3371334344E-03    1.3207184723E-03
    1.3045032557E-03    1.2884853871E-03    1.2726624974E-03    1.2570322452E-03
    1.2415923164E-03    1.2263404246E-03    1.2112743099E-03    1.1963917394E-03
    1.1816905062E-03    1.1671684294E-03    1.1528233541E-03    1.1386531504E-03
    1.1246557140E-03    1.1108289650E-03    1.0971708483E-03    1.0836793331E-03
    1.0703524123E-03    1.0571881029E-03    1.0441844450E-03    1.0313395021E-03
    1.0186513607E-03    1.0061181295E-03    9.9373794008E-04    9.8150894587E-04
    9.6942932225E-04    9.5749726622E-04    9.4571099614E-04    9.3406875150E-04
    9.2256879267E-04    9.1120940067E-04    8.9998887691E-04    8.8890554298E-04
    8.7795774038E-04    8.6714383033E-04    8.5646219353E-04    8.4591122992E-04
    8.3548935846E-04    8.2519501694E-04    8.1502666172E-04    8.0498276752E-04
    7.9506182725E-04    7.8526235175E-04    7.7558286961E-04    7.6602192695E-04
    7.5657808721E-04    7.4724993098E-04    7.3803605576E-04    7.2893507580E-04
    7.1994562187E-04    7.1106634111E-04    7.0229589679E-04    6.9363296816E-04
    6.8507625024E-04    6.7662445366E-04    6.6827630446E-04    6.6003054391E-04
    6.5188592834E-04    6.4384122896E-04    6.3589523168E-04    6.2804673695E-04
    6.2029455959E-04    6.1263752860E-04    6.0507448704E-04    5.9760429179E-04
    5.9022581347E-04    5.8293793624E-04    5.7573955762E-04    5.6862958838E-04
    5.6160695234E-04    5.5467058627E-04    5.4781943966E-04    5.4105247466E-04
    5.3436866587E-04    5.2776700019E-04    5.2124647674E-04    5.1480610663E-04
    5.0844491289E-04    5.0216193028E-04    4.9595620520E-04    4.8982679549E-04
    4.8377277035E-04    4.7779321020E-04    4.7188720650E-04    4.6605386168E-04
    4.6029228897E-04    4.5460161231E-04    4.4898096617E-04    4.4342949546E-04
    4.3794635543E-04    4.3253071148E-04    4.2718173911E-04    4.2189862376E-04
    4.1668056069E-04    4.1152675490E-04    4.0643642098E-04    4.0140878298E-04
    3.9644307438E-04    3.9153853787E-04    3.8669442532E-04    3.8190999764E-04
    3.7718452468E-04    3.7251728511E-04    3.6790756634E-04    3.6335466439E-04
    3.5885788381E-04    3.5441653756E-04    3.5002994692E-04    3.4569744139E-04
    3.4141835860E-04    3.3719204420E-04    3.3301785176E-04    3.2889514268E-04
    3.2482328613E-04    3.2080165890E-04    3.1682964535E-04    3.1290663732E-04
    3.0903203399E-04    3.0520524187E-04    3.0142567466E-04    2.9769275316E-04
    2.9400590524E-04    2.9036456567E-04    2.8676817613E-04    2.8321618506E-04
    2.7970804760E-04    2.7624322552E-04    2.7282118712E-04    2.6944140719E-04
    2.6610336687E-04    2.6280655365E-04    2.5955046122E-04    2.5633458945E-04
    2.5315844429E-04    2.5002153770E-04    2.4692338759E-04    2.4386351772E-04
    2.4084145768E-04    2.3785674276E-04    2.3490891392E-04    2.3199751772E-04
    2.2912210624E-04    2.2628223703E-04    2.2347747300E-04    2.2070738243E-04
    2.1797153884E-04    2.1526952096E-04    2.1260091265E-04    2.0996530286E-04
    2.0736228554E-04    2.0479145960E-04    2.0225242887E-04    1.9974480197E-04
    1.9726819234E-04    1.9482221811E-04    1.9240650210E-04    1.9002067173E-04
    1.8766435895E-04    1.8533720024E-04    1.8303883649E-04    1.8076891301E-04
    1.7852707944E-04    1.7631298967E-04    1.7412630187E-04    1.7196667836E-04
    1.6983378560E-04    1.6772729413E-04    1.6564687852E-04    1.6359221733E-04
    1.6156299303E-04    1.5955889201E-04    1.5757960448E-04    1.5562482444E-04
    1.5369424965E-04    1.5178758156E-04    1.4990452528E-04    1.4804478954E-04
    1.4620808664E-04    1.4439413239E-04    1.4260264608E-04    1.4083335048E-04
    1.3908597171E-04    1.3736023928E-04    1.3565588601E-04    1.3397264798E-04
    1.3231026452E-04    1.3066847817E-04    1.2904703460E-04    1.2744568264E-04
    1.2586417416E-04    1.2430226410E-04    1.2275971041E-04    1.2123627399E-04
    1.1973171869E-04    1.1824581128E-04    1.1677832135E-04    1.1532902136E-04
    1.1389768654E-04    1.1248409489E-04    1.1108802715E-04    1.0970926672E-04
    1.0834759970E-04    1.0700281480E-04    1.0567470333E-04    1.0436305916E-04
    1.0306767871E-04    1.0178836088E-04    1.0052490707E-04    9.9277121098E-05
    9.8044809215E-05    9.6827780042E-05    9.5625844561E-05    9.4438816076E-05
    9.3266510192E-05    9.2108744781E-05    9.0965339958E-05    8.9836118053E-05
    8.8720903580E-05    8.7619523217E-05    8.6531805775E-05    8.5457582172E-05
    8.4396685411E-05    8.3348950551E-05    8.2314214681E-05    8.1292316899E-05
    8.0283098286E-05    7.9286401878E-05    7.8302072648E-05    7.7329957479E-05
    7.6369905143E-05    7.5421766273E-05    7.4485393346E-05    7.3560640656E-05
    7.2647364293E-05    7.1745422125E-05    7.0854673770E-05    6.9974980579E-05
    6.9106205612E-05    6.8248213619E-05    6.7400871018E-05    6.6564045876E-05
    6.5737607886E-05    6.4921428352E-05    6.4115380165E-05    6.3319337785E-05
    6.2533177220E-05    6.1756776010E-05    6.0990013207E-05    6.0232769355E-05
    5.9484926475E-05    5.8746368045E-05    5.8016978979E-05    5.7296645615E-05
    5.6585255694E-05    5.5882698344E-05    5.5188864062E-05    5.4503644699E-05
    5.3826933441E-05    5.3158624796E-05    5.2498614572E-05    5.1846799868E-05
    5.1203079053E-05    5.0567351753E-05    4.9939518833E-05    4.9319482387E-05
    4.8707145716E-05    4.8102413319E-05    4.7505190874E-05    4.6915385226E-05
    4.6332904372E-05    4.5757657446E-05    4.5189554709E-05    4.4628507529E-05
    4.4074428370E-05    4.3527230781E-05    4.2986829380E-05    4.2453139839E-05
    4.1926078877E-05    4.1405564242E-05    4.0891514699E-05    4.0383850019E-05
    3.9882490967E-05    3.9387359287E-05    3.8898377692E-05    3.8415469852E-05
    3.7938560383E-05    3.7467574833E-05    3.7002439673E-05    3.6543082282E-05
    3.6089430941E-05    3.5641414817E-05    3.5198963956E-05    3.4762009268E-05
    3.4330482522E-05    3.3904316330E-05    3.3483444138E-05    3.3067800219E-05
    3.2657319658E-05    3.2251938345E-05    3.1851592964E-05    3.1456220984E-05
    3.1065760649E-05    3.0680150969E-05    3.0299331707E-05    2.9923243375E-05
    2.9551827221E-05    2.9185025222E-05    2.8822780074E-05    2.8465035184E-05
    2.8111734659E-05    2.7762823300E-05    2.7418246592E-05    2.7077950696E-05
    2.6741882440E-05    2.6409989312E-05    2.6082219451E-05    2.5758521640E-05
    2.5438845294E-05    2.5123140459E-05    2.4811357799E-05    2.4503448590E-05
    2.4199364711E-05    2.3899058640E-05    2.3602483444E-05    2.3309592772E-05
    2.3020340848E-05    2.2734682462E-05    2.2452572969E-05    2.2173968274E-05
    2.1898824831E-05    2.1627099635E-05    2.1358750212E-05    2.1093734619E-05
    2.0832011429E-05    2.0573539733E-05    2.0318279127E-05    2.0066189710E-05
    1.9817232075E-05    1.9571367307E-05    1.9328556969E-05    1.9088763107E-05
    1.8851948233E-05    1.8618075328E-05    1.8387107829E-05    1.8159009632E-05
    1.7933745076E-05    1.7711278946E-05    1.7491576463E-05    1.7274603280E-05
    1.7060325478E-05    1.6848709556E-05    1.6639722432E-05    1.6433331432E-05
    1.6229504291E-05    1.6028209143E-05    1.5829414517E-05    1.5633089335E-05
    1.5439202902E-05    1.5247724907E-05    1.5058625415E-05    1.4871874860E-05
    1.4687444048E-05    1.4505304145E-05    1.4325426674E-05    1.4147783514E-05
    1.3972346892E-05    1.3799089381E-05    1.3627983894E-05    1.3459003681E-05
    1.3292122324E-05    1.3127313733E-05    1.2964552143E-05    1.2803812109E-05
    1.2645068502E-05    1.2488296505E-05    1.2333471608E-05    1.2180569609E-05
    1.2029566604E-05    1.1880438987E-05    1.1733163445E-05    1.1587716956E-05
    1.1444076782E-05    1.1302220469E-05    1.1162125842E-05    1.1023771001E-05
    1.0887134319E-05    1.0752194438E-05    1.0618930264E-05    1.0487320966E-05
    1.0357345972E-05    1.0228984966E-05    1.0102217885E-05    9.9770249130E-06
    9.8533864831E-06    9.7312832704E-06    9.6106961904E-06    9.4916063957E-06
    9.3739952733E-06    9.2578444417E-06    9.1431357478E-06    9.0298512643E-06
    8.9179732868E-06    8.8074843310E-06    8.6983671300E-06    8.5906046314E-06
    8.4841799951E-06    8.3790765900E-06    8.2752779920E-06    8.1727679815E-06
    8.0715305403E-06    7.9715498494E-06    7.8728102866E-06    7.7752964237E-06
    7.6789930246E-06    7.5838850426E-06    7.4899576179E-06    7.3971960758E-06
    7.3055859241E-06    7.2151128507E-06    7.1257627213E-06    7.0375215778E-06
    6.9503756352E-06    6.8643112802E-06    6.7793150686E-06    6.6953737238E-06
    6.6124741341E-06    6.5306033508E-06    6.4497485863E-06    6.3698972120E-06
    6.2910367563E-06    6.2131549030E-06    6.1362394885E-06    6.0602785011E-06
    5.9852600783E-06    5.9111725050E-06    5.8380042120E-06    5.7657437739E-06
    5.6943799073E-06    5.6239014692E-06    5.5542974552E-06    5.4855569979E-06
    5.4176693650E-06    5.3506239577E-06    5.2844103089E-06    5.2190180818E-06
    5.1544370682E-06    5.0906571868E-06    5.0276684817E-06    4.9654611208E-06
    4.9040253944E-06    4.8433517135E-06    4.7834306086E-06    4.7242527276E-06
    4.6658088350E-06    4.6080898100E-06    4.5510866454E-06    4.4947904458E-06
    4.4391924268E-06    4.3842839131E-06    4.3300563372E-06    4.2765012384E-06
    4.2236102611E-06    4.1713751535E-06    4.1197877667E-06    4.0688400529E-06
 </PP_RHOATOM>
 <PP_SPIN_ORB>
   <PP_RELBETA.1  index="1"  lll="0" jjj="0.5"/>
   <PP_RELBETA.2  index="2"  lll="0" jjj="0.5"/>
   <PP_RELBETA.3  index="3"  lll="1" jjj="0.5"/>
   <PP_RELBETA.4  index="4"  lll="1" jjj="1.5"/>
   <PP_RELBETA.5  index="5"  lll="1" jjj="0.5"/>
   <PP_RELBETA.6  index="6"  lll="1" jjj="1.5"/>
   <PP_RELBETA.7  index="7"  lll="2" jjj="1.5"/>
   <PP_RELBETA.8  index="8"  lll="2" jjj="2.5"/>
   <PP_RELBETA.9  index="9"  lll="2" jjj="1.5"/>
   <PP_RELBETA.10 index="10" lll="2" jjj="2.5"/>
   <PP_RELBETA.11 index="11" lll="3" jjj="2.5"/>
   <PP_RELBETA.12 index="12" lll="3" jjj="3.5"/>
   <PP_RELBETA.13 index="13" lll="3" jjj="2.5"/>
   <PP_RELBETA.14 index="14" lll="3" jjj="3.5"/>
   <PP_RELWFC.1  index="1"  lchi="0" jchi="0.5" nn="1"/>
   <PP_RELWFC.2  index="2"  lchi="1" jchi="1.5" nn="2"/>
   <PP_RELWFC.3  index="3"  lchi="1" jchi="0.5" nn="2"/>
   <PP_RELWFC.4  index="4"  lchi="2" jchi="2.5" nn="3"/>
   <PP_RELWFC.5  index="5"  lchi="2" jchi="1.5" nn="3"/>
   <PP_RELWFC.6  index="6"  lchi="0" jchi="0.5" nn="4"/>
 </PP_SPIN_ORB>
</UPF>

