<UPF version="2.0.1">
  <PP_INFO>

 This pseudopotential file has been produced using the code
 ONCVPSP  (Optimized Norm-Conservinng Vanderbilt PSeudopotential)
 fully-relativistic version 4.0.1 06/20/2107 by D. R. Hamann
 The code is available through a link at URL www.mat-simresearch.com.
 Documentation with the package provides a full discription of the
 input data below.


 While it is not required under the terms of the GNU GPL, it is
 suggested that you cite D. R. Hamann, Phys. Rev. B 88, 085117 (2013)
 in any publication using these pseudopotentials.

    <PP_INPUTFILE>
# ATOM AND REFERENCE CONFIGURATION
# atsym  z   nc   nv     iexc    psfile
  Y 39.00    6    4       4      upf
#
#   n    l    f        energy (Ha)
    1    0    2.00
    2    0    2.00
    2    1    6.00
    3    0    2.00
    3    1    6.00
    3    2   10.00
    4    0    2.00
    4    1    6.00
    4    2    1.00
    5    0    2.00
#
# PSEUDOPOTENTIAL AND OPTIMIZATION
# lmax
    2
#
#   l,   rc,     ep,   ncon, nbas, qcut
    0   2.25000  -1.76377    4    8   6.10000
    1   2.10151  -1.02592    4    9   6.60000
    2   2.40000  -0.09245    4    9   6.00000
#
# LOCAL POTENTIAL
# lloc, lpopt,  rc(5),   dvloc0
    4    5   2.08822      0.00000
#
# VANDERBILT-KLEINMAN-BYLANDER PROJECTORs
# l, nproj, debl
    0    2   1.61300
    1    2   2.00000
    2    2   3.20000
#
# MODEL CORE CHARGE
# icmod, fcfact, rcfact
    3   4.00000   1.35000
#
# LOG DERIVATIVE ANALYSIS
# epsh1, epsh2, depsh
  -12.00   12.00    0.02
#
# OUTPUT GRID
# rlmax, drl
    6.00    0.01
#
# TEST CONFIGURATIONS
# ncnf
    0
# nvcnf
#   n    l    f
    </PP_INPUTFILE>
  </PP_INFO>
  <!--                               -->
  <!-- END OF HUMAN READABLE SECTION -->
  <!--                               -->
    <PP_HEADER
       generated="Generated using ONCVPSP code by D. R. Hamann"
       author="anonymous"
       date="260612"
       comment=""
       element="Y "
       pseudo_type="NC"
       relativistic="full"
       is_ultrasoft="F"
       is_paw="F"
       is_coulomb="F"
       has_so="T"
       has_wfc="F"
       has_gipaw="F"
       core_correction="T"
       functional="PBE"
       z_valence="   11.00"
       total_psenergy="  -7.75615328253E+01"
       rho_cutoff="   1.76500000000E+01"
       l_max="2"
       l_local="-1"
       mesh_size="  1766"
       number_of_wfc="6"
       number_of_proj="10"/>
 <PP_MESH>
   <PP_R type="real"  size="1766" columns="8">
    0.0000    0.0100    0.0200    0.0300    0.0400    0.0500    0.0600    0.0700
    0.0800    0.0900    0.1000    0.1100    0.1200    0.1300    0.1400    0.1500
    0.1600    0.1700    0.1800    0.1900    0.2000    0.2100    0.2200    0.2300
    0.2400    0.2500    0.2600    0.2700    0.2800    0.2900    0.3000    0.3100
    0.3200    0.3300    0.3400    0.3500    0.3600    0.3700    0.3800    0.3900
    0.4000    0.4100    0.4200    0.4300    0.4400    0.4500    0.4600    0.4700
    0.4800    0.4900    0.5000    0.5100    0.5200    0.5300    0.5400    0.5500
    0.5600    0.5700    0.5800    0.5900    0.6000    0.6100    0.6200    0.6300
    0.6400    0.6500    0.6600    0.6700    0.6800    0.6900    0.7000    0.7100
    0.7200    0.7300    0.7400    0.7500    0.7600    0.7700    0.7800    0.7900
    0.8000    0.8100    0.8200    0.8300    0.8400    0.8500    0.8600    0.8700
    0.8800    0.8900    0.9000    0.9100    0.9200    0.9300    0.9400    0.9500
    0.9600    0.9700    0.9800    0.9900    1.0000    1.0100    1.0200    1.0300
    1.0400    1.0500    1.0600    1.0700    1.0800    1.0900    1.1000    1.1100
    1.1200    1.1300    1.1400    1.1500    1.1600    1.1700    1.1800    1.1900
    1.2000    1.2100    1.2200    1.2300    1.2400    1.2500    1.2600    1.2700
    1.2800    1.2900    1.3000    1.3100    1.3200    1.3300    1.3400    1.3500
    1.3600    1.3700    1.3800    1.3900    1.4000    1.4100    1.4200    1.4300
    1.4400    1.4500    1.4600    1.4700    1.4800    1.4900    1.5000    1.5100
    1.5200    1.5300    1.5400    1.5500    1.5600    1.5700    1.5800    1.5900
    1.6000    1.6100    1.6200    1.6300    1.6400    1.6500    1.6600    1.6700
    1.6800    1.6900    1.7000    1.7100    1.7200    1.7300    1.7400    1.7500
    1.7600    1.7700    1.7800    1.7900    1.8000    1.8100    1.8200    1.8300
    1.8400    1.8500    1.8600    1.8700    1.8800    1.8900    1.9000    1.9100
    1.9200    1.9300    1.9400    1.9500    1.9600    1.9700    1.9800    1.9900
    2.0000    2.0100    2.0200    2.0300    2.0400    2.0500    2.0600    2.0700
    2.0800    2.0900    2.1000    2.1100    2.1200    2.1300    2.1400    2.1500
    2.1600    2.1700    2.1800    2.1900    2.2000    2.2100    2.2200    2.2300
    2.2400    2.2500    2.2600    2.2700    2.2800    2.2900    2.3000    2.3100
    2.3200    2.3300    2.3400    2.3500    2.3600    2.3700    2.3800    2.3900
    2.4000    2.4100    2.4200    2.4300    2.4400    2.4500    2.4600    2.4700
    2.4800    2.4900    2.5000    2.5100    2.5200    2.5300    2.5400    2.5500
    2.5600    2.5700    2.5800    2.5900    2.6000    2.6100    2.6200    2.6300
    2.6400    2.6500    2.6600    2.6700    2.6800    2.6900    2.7000    2.7100
    2.7200    2.7300    2.7400    2.7500    2.7600    2.7700    2.7800    2.7900
    2.8000    2.8100    2.8200    2.8300    2.8400    2.8500    2.8600    2.8700
    2.8800    2.8900    2.9000    2.9100    2.9200    2.9300    2.9400    2.9500
    2.9600    2.9700    2.9800    2.9900    3.0000    3.0100    3.0200    3.0300
    3.0400    3.0500    3.0600    3.0700    3.0800    3.0900    3.1000    3.1100
    3.1200    3.1300    3.1400    3.1500    3.1600    3.1700    3.1800    3.1900
    3.2000    3.2100    3.2200    3.2300    3.2400    3.2500    3.2600    3.2700
    3.2800    3.2900    3.3000    3.3100    3.3200    3.3300    3.3400    3.3500
    3.3600    3.3700    3.3800    3.3900    3.4000    3.4100    3.4200    3.4300
    3.4400    3.4500    3.4600    3.4700    3.4800    3.4900    3.5000    3.5100
    3.5200    3.5300    3.5400    3.5500    3.5600    3.5700    3.5800    3.5900
    3.6000    3.6100    3.6200    3.6300    3.6400    3.6500    3.6600    3.6700
    3.6800    3.6900    3.7000    3.7100    3.7200    3.7300    3.7400    3.7500
    3.7600    3.7700    3.7800    3.7900    3.8000    3.8100    3.8200    3.8300
    3.8400    3.8500    3.8600    3.8700    3.8800    3.8900    3.9000    3.9100
    3.9200    3.9300    3.9400    3.9500    3.9600    3.9700    3.9800    3.9900
    4.0000    4.0100    4.0200    4.0300    4.0400    4.0500    4.0600    4.0700
    4.0800    4.0900    4.1000    4.1100    4.1200    4.1300    4.1400    4.1500
    4.1600    4.1700    4.1800    4.1900    4.2000    4.2100    4.2200    4.2300
    4.2400    4.2500    4.2600    4.2700    4.2800    4.2900    4.3000    4.3100
    4.3200    4.3300    4.3400    4.3500    4.3600    4.3700    4.3800    4.3900
    4.4000    4.4100    4.4200    4.4300    4.4400    4.4500    4.4600    4.4700
    4.4800    4.4900    4.5000    4.5100    4.5200    4.5300    4.5400    4.5500
    4.5600    4.5700    4.5800    4.5900    4.6000    4.6100    4.6200    4.6300
    4.6400    4.6500    4.6600    4.6700    4.6800    4.6900    4.7000    4.7100
    4.7200    4.7300    4.7400    4.7500    4.7600    4.7700    4.7800    4.7900
    4.8000    4.8100    4.8200    4.8300    4.8400    4.8500    4.8600    4.8700
    4.8800    4.8900    4.9000    4.9100    4.9200    4.9300    4.9400    4.9500
    4.9600    4.9700    4.9800    4.9900    5.0000    5.0100    5.0200    5.0300
    5.0400    5.0500    5.0600    5.0700    5.0800    5.0900    5.1000    5.1100
    5.1200    5.1300    5.1400    5.1500    5.1600    5.1700    5.1800    5.1900
    5.2000    5.2100    5.2200    5.2300    5.2400    5.2500    5.2600    5.2700
    5.2800    5.2900    5.3000    5.3100    5.3200    5.3300    5.3400    5.3500
    5.3600    5.3700    5.3800    5.3900    5.4000    5.4100    5.4200    5.4300
    5.4400    5.4500    5.4600    5.4700    5.4800    5.4900    5.5000    5.5100
    5.5200    5.5300    5.5400    5.5500    5.5600    5.5700    5.5800    5.5900
    5.6000    5.6100    5.6200    5.6300    5.6400    5.6500    5.6600    5.6700
    5.6800    5.6900    5.7000    5.7100    5.7200    5.7300    5.7400    5.7500
    5.7600    5.7700    5.7800    5.7900    5.8000    5.8100    5.8200    5.8300
    5.8400    5.8500    5.8600    5.8700    5.8800    5.8900    5.9000    5.9100
    5.9200    5.9300    5.9400    5.9500    5.9600    5.9700    5.9800    5.9900
    6.0000    6.0100    6.0200    6.0300    6.0400    6.0500    6.0600    6.0700
    6.0800    6.0900    6.1000    6.1100    6.1200    6.1300    6.1400    6.1500
    6.1600    6.1700    6.1800    6.1900    6.2000    6.2100    6.2200    6.2300
    6.2400    6.2500    6.2600    6.2700    6.2800    6.2900    6.3000    6.3100
    6.3200    6.3300    6.3400    6.3500    6.3600    6.3700    6.3800    6.3900
    6.4000    6.4100    6.4200    6.4300    6.4400    6.4500    6.4600    6.4700
    6.4800    6.4900    6.5000    6.5100    6.5200    6.5300    6.5400    6.5500
    6.5600    6.5700    6.5800    6.5900    6.6000    6.6100    6.6200    6.6300
    6.6400    6.6500    6.6600    6.6700    6.6800    6.6900    6.7000    6.7100
    6.7200    6.7300    6.7400    6.7500    6.7600    6.7700    6.7800    6.7900
    6.8000    6.8100    6.8200    6.8300    6.8400    6.8500    6.8600    6.8700
    6.8800    6.8900    6.9000    6.9100    6.9200    6.9300    6.9400    6.9500
    6.9600    6.9700    6.9800    6.9900    7.0000    7.0100    7.0200    7.0300
    7.0400    7.0500    7.0600    7.0700    7.0800    7.0900    7.1000    7.1100
    7.1200    7.1300    7.1400    7.1500    7.1600    7.1700    7.1800    7.1900
    7.2000    7.2100    7.2200    7.2300    7.2400    7.2500    7.2600    7.2700
    7.2800    7.2900    7.3000    7.3100    7.3200    7.3300    7.3400    7.3500
    7.3600    7.3700    7.3800    7.3900    7.4000    7.4100    7.4200    7.4300
    7.4400    7.4500    7.4600    7.4700    7.4800    7.4900    7.5000    7.5100
    7.5200    7.5300    7.5400    7.5500    7.5600    7.5700    7.5800    7.5900
    7.6000    7.6100    7.6200    7.6300    7.6400    7.6500    7.6600    7.6700
    7.6800    7.6900    7.7000    7.7100    7.7200    7.7300    7.7400    7.7500
    7.7600    7.7700    7.7800    7.7900    7.8000    7.8100    7.8200    7.8300
    7.8400    7.8500    7.8600    7.8700    7.8800    7.8900    7.9000    7.9100
    7.9200    7.9300    7.9400    7.9500    7.9600    7.9700    7.9800    7.9900
    8.0000    8.0100    8.0200    8.0300    8.0400    8.0500    8.0600    8.0700
    8.0800    8.0900    8.1000    8.1100    8.1200    8.1300    8.1400    8.1500
    8.1600    8.1700    8.1800    8.1900    8.2000    8.2100    8.2200    8.2300
    8.2400    8.2500    8.2600    8.2700    8.2800    8.2900    8.3000    8.3100
    8.3200    8.3300    8.3400    8.3500    8.3600    8.3700    8.3800    8.3900
    8.4000    8.4100    8.4200    8.4300    8.4400    8.4500    8.4600    8.4700
    8.4800    8.4900    8.5000    8.5100    8.5200    8.5300    8.5400    8.5500
    8.5600    8.5700    8.5800    8.5900    8.6000    8.6100    8.6200    8.6300
    8.6400    8.6500    8.6600    8.6700    8.6800    8.6900    8.7000    8.7100
    8.7200    8.7300    8.7400    8.7500    8.7600    8.7700    8.7800    8.7900
    8.8000    8.8100    8.8200    8.8300    8.8400    8.8500    8.8600    8.8700
    8.8800    8.8900    8.9000    8.9100    8.9200    8.9300    8.9400    8.9500
    8.9600    8.9700    8.9800    8.9900    9.0000    9.0100    9.0200    9.0300
    9.0400    9.0500    9.0600    9.0700    9.0800    9.0900    9.1000    9.1100
    9.1200    9.1300    9.1400    9.1500    9.1600    9.1700    9.1800    9.1900
    9.2000    9.2100    9.2200    9.2300    9.2400    9.2500    9.2600    9.2700
    9.2800    9.2900    9.3000    9.3100    9.3200    9.3300    9.3400    9.3500
    9.3600    9.3700    9.3800    9.3900    9.4000    9.4100    9.4200    9.4300
    9.4400    9.4500    9.4600    9.4700    9.4800    9.4900    9.5000    9.5100
    9.5200    9.5300    9.5400    9.5500    9.5600    9.5700    9.5800    9.5900
    9.6000    9.6100    9.6200    9.6300    9.6400    9.6500    9.6600    9.6700
    9.6800    9.6900    9.7000    9.7100    9.7200    9.7300    9.7400    9.7500
    9.7600    9.7700    9.7800    9.7900    9.8000    9.8100    9.8200    9.8300
    9.8400    9.8500    9.8600    9.8700    9.8800    9.8900    9.9000    9.9100
    9.9200    9.9300    9.9400    9.9500    9.9600    9.9700    9.9800    9.9900
   10.0000   10.0100   10.0200   10.0300   10.0400   10.0500   10.0600   10.0700
   10.0800   10.0900   10.1000   10.1100   10.1200   10.1300   10.1400   10.1500
   10.1600   10.1700   10.1800   10.1900   10.2000   10.2100   10.2200   10.2300
   10.2400   10.2500   10.2600   10.2700   10.2800   10.2900   10.3000   10.3100
   10.3200   10.3300   10.3400   10.3500   10.3600   10.3700   10.3800   10.3900
   10.4000   10.4100   10.4200   10.4300   10.4400   10.4500   10.4600   10.4700
   10.4800   10.4900   10.5000   10.5100   10.5200   10.5300   10.5400   10.5500
   10.5600   10.5700   10.5800   10.5900   10.6000   10.6100   10.6200   10.6300
   10.6400   10.6500   10.6600   10.6700   10.6800   10.6900   10.7000   10.7100
   10.7200   10.7300   10.7400   10.7500   10.7600   10.7700   10.7800   10.7900
   10.8000   10.8100   10.8200   10.8300   10.8400   10.8500   10.8600   10.8700
   10.8800   10.8900   10.9000   10.9100   10.9200   10.9300   10.9400   10.9500
   10.9600   10.9700   10.9800   10.9900   11.0000   11.0100   11.0200   11.0300
   11.0400   11.0500   11.0600   11.0700   11.0800   11.0900   11.1000   11.1100
   11.1200   11.1300   11.1400   11.1500   11.1600   11.1700   11.1800   11.1900
   11.2000   11.2100   11.2200   11.2300   11.2400   11.2500   11.2600   11.2700
   11.2800   11.2900   11.3000   11.3100   11.3200   11.3300   11.3400   11.3500
   11.3600   11.3700   11.3800   11.3900   11.4000   11.4100   11.4200   11.4300
   11.4400   11.4500   11.4600   11.4700   11.4800   11.4900   11.5000   11.5100
   11.5200   11.5300   11.5400   11.5500   11.5600   11.5700   11.5800   11.5900
   11.6000   11.6100   11.6200   11.6300   11.6400   11.6500   11.6600   11.6700
   11.6800   11.6900   11.7000   11.7100   11.7200   11.7300   11.7400   11.7500
   11.7600   11.7700   11.7800   11.7900   11.8000   11.8100   11.8200   11.8300
   11.8400   11.8500   11.8600   11.8700   11.8800   11.8900   11.9000   11.9100
   11.9200   11.9300   11.9400   11.9500   11.9600   11.9700   11.9800   11.9900
   12.0000   12.0100   12.0200   12.0300   12.0400   12.0500   12.0600   12.0700
   12.0800   12.0900   12.1000   12.1100   12.1200   12.1300   12.1400   12.1500
   12.1600   12.1700   12.1800   12.1900   12.2000   12.2100   12.2200   12.2300
   12.2400   12.2500   12.2600   12.2700   12.2800   12.2900   12.3000   12.3100
   12.3200   12.3300   12.3400   12.3500   12.3600   12.3700   12.3800   12.3900
   12.4000   12.4100   12.4200   12.4300   12.4400   12.4500   12.4600   12.4700
   12.4800   12.4900   12.5000   12.5100   12.5200   12.5300   12.5400   12.5500
   12.5600   12.5700   12.5800   12.5900   12.6000   12.6100   12.6200   12.6300
   12.6400   12.6500   12.6600   12.6700   12.6800   12.6900   12.7000   12.7100
   12.7200   12.7300   12.7400   12.7500   12.7600   12.7700   12.7800   12.7900
   12.8000   12.8100   12.8200   12.8300   12.8400   12.8500   12.8600   12.8700
   12.8800   12.8900   12.9000   12.9100   12.9200   12.9300   12.9400   12.9500
   12.9600   12.9700   12.9800   12.9900   13.0000   13.0100   13.0200   13.0300
   13.0400   13.0500   13.0600   13.0700   13.0800   13.0900   13.1000   13.1100
   13.1200   13.1300   13.1400   13.1500   13.1600   13.1700   13.1800   13.1900
   13.2000   13.2100   13.2200   13.2300   13.2400   13.2500   13.2600   13.2700
   13.2800   13.2900   13.3000   13.3100   13.3200   13.3300   13.3400   13.3500
   13.3600   13.3700   13.3800   13.3900   13.4000   13.4100   13.4200   13.4300
   13.4400   13.4500   13.4600   13.4700   13.4800   13.4900   13.5000   13.5100
   13.5200   13.5300   13.5400   13.5500   13.5600   13.5700   13.5800   13.5900
   13.6000   13.6100   13.6200   13.6300   13.6400   13.6500   13.6600   13.6700
   13.6800   13.6900   13.7000   13.7100   13.7200   13.7300   13.7400   13.7500
   13.7600   13.7700   13.7800   13.7900   13.8000   13.8100   13.8200   13.8300
   13.8400   13.8500   13.8600   13.8700   13.8800   13.8900   13.9000   13.9100
   13.9200   13.9300   13.9400   13.9500   13.9600   13.9700   13.9800   13.9900
   14.0000   14.0100   14.0200   14.0300   14.0400   14.0500   14.0600   14.0700
   14.0800   14.0900   14.1000   14.1100   14.1200   14.1300   14.1400   14.1500
   14.1600   14.1700   14.1800   14.1900   14.2000   14.2100   14.2200   14.2300
   14.2400   14.2500   14.2600   14.2700   14.2800   14.2900   14.3000   14.3100
   14.3200   14.3300   14.3400   14.3500   14.3600   14.3700   14.3800   14.3900
   14.4000   14.4100   14.4200   14.4300   14.4400   14.4500   14.4600   14.4700
   14.4800   14.4900   14.5000   14.5100   14.5200   14.5300   14.5400   14.5500
   14.5600   14.5700   14.5800   14.5900   14.6000   14.6100   14.6200   14.6300
   14.6400   14.6500   14.6600   14.6700   14.6800   14.6900   14.7000   14.7100
   14.7200   14.7300   14.7400   14.7500   14.7600   14.7700   14.7800   14.7900
   14.8000   14.8100   14.8200   14.8300   14.8400   14.8500   14.8600   14.8700
   14.8800   14.8900   14.9000   14.9100   14.9200   14.9300   14.9400   14.9500
   14.9600   14.9700   14.9800   14.9900   15.0000   15.0100   15.0200   15.0300
   15.0400   15.0500   15.0600   15.0700   15.0800   15.0900   15.1000   15.1100
   15.1200   15.1300   15.1400   15.1500   15.1600   15.1700   15.1800   15.1900
   15.2000   15.2100   15.2200   15.2300   15.2400   15.2500   15.2600   15.2700
   15.2800   15.2900   15.3000   15.3100   15.3200   15.3300   15.3400   15.3500
   15.3600   15.3700   15.3800   15.3900   15.4000   15.4100   15.4200   15.4300
   15.4400   15.4500   15.4600   15.4700   15.4800   15.4900   15.5000   15.5100
   15.5200   15.5300   15.5400   15.5500   15.5600   15.5700   15.5800   15.5900
   15.6000   15.6100   15.6200   15.6300   15.6400   15.6500   15.6600   15.6700
   15.6800   15.6900   15.7000   15.7100   15.7200   15.7300   15.7400   15.7500
   15.7600   15.7700   15.7800   15.7900   15.8000   15.8100   15.8200   15.8300
   15.8400   15.8500   15.8600   15.8700   15.8800   15.8900   15.9000   15.9100
   15.9200   15.9300   15.9400   15.9500   15.9600   15.9700   15.9800   15.9900
   16.0000   16.0100   16.0200   16.0300   16.0400   16.0500   16.0600   16.0700
   16.0800   16.0900   16.1000   16.1100   16.1200   16.1300   16.1400   16.1500
   16.1600   16.1700   16.1800   16.1900   16.2000   16.2100   16.2200   16.2300
   16.2400   16.2500   16.2600   16.2700   16.2800   16.2900   16.3000   16.3100
   16.3200   16.3300   16.3400   16.3500   16.3600   16.3700   16.3800   16.3900
   16.4000   16.4100   16.4200   16.4300   16.4400   16.4500   16.4600   16.4700
   16.4800   16.4900   16.5000   16.5100   16.5200   16.5300   16.5400   16.5500
   16.5600   16.5700   16.5800   16.5900   16.6000   16.6100   16.6200   16.6300
   16.6400   16.6500   16.6600   16.6700   16.6800   16.6900   16.7000   16.7100
   16.7200   16.7300   16.7400   16.7500   16.7600   16.7700   16.7800   16.7900
   16.8000   16.8100   16.8200   16.8300   16.8400   16.8500   16.8600   16.8700
   16.8800   16.8900   16.9000   16.9100   16.9200   16.9300   16.9400   16.9500
   16.9600   16.9700   16.9800   16.9900   17.0000   17.0100   17.0200   17.0300
   17.0400   17.0500   17.0600   17.0700   17.0800   17.0900   17.1000   17.1100
   17.1200   17.1300   17.1400   17.1500   17.1600   17.1700   17.1800   17.1900
   17.2000   17.2100   17.2200   17.2300   17.2400   17.2500   17.2600   17.2700
   17.2800   17.2900   17.3000   17.3100   17.3200   17.3300   17.3400   17.3500
   17.3600   17.3700   17.3800   17.3900   17.4000   17.4100   17.4200   17.4300
   17.4400   17.4500   17.4600   17.4700   17.4800   17.4900   17.5000   17.5100
   17.5200   17.5300   17.5400   17.5500   17.5600   17.5700   17.5800   17.5900
   17.6000   17.6100   17.6200   17.6300   17.6400   17.6500
   </PP_R>
   <PP_RAB type="real"  size="1766" columns="8">
    0.0100    0.0100    0.0100    0.0100    0.0100    0.0100    0.0100    0.0100
    0.0100    0.0100    0.0100    0.0100    0.0100    0.0100    0.0100    0.0100
    0.0100    0.0100    0.0100    0.0100    0.0100    0.0100    0.0100    0.0100
    0.0100    0.0100    0.0100    0.0100    0.0100    0.0100    0.0100    0.0100
    0.0100    0.0100    0.0100    0.0100    0.0100    0.0100    0.0100    0.0100
    0.0100    0.0100    0.0100    0.0100    0.0100    0.0100    0.0100    0.0100
    0.0100    0.0100    0.0100    0.0100    0.0100    0.0100    0.0100    0.0100
    0.0100    0.0100    0.0100    0.0100    0.0100    0.0100    0.0100    0.0100
    0.0100    0.0100    0.0100    0.0100    0.0100    0.0100    0.0100    0.0100
    0.0100    0.0100    0.0100    0.0100    0.0100    0.0100    0.0100    0.0100
    0.0100    0.0100    0.0100    0.0100    0.0100    0.0100    0.0100    0.0100
    0.0100    0.0100    0.0100    0.0100    0.0100    0.0100    0.0100    0.0100
    0.0100    0.0100    0.0100    0.0100    0.0100    0.0100    0.0100    0.0100
    0.0100    0.0100    0.0100    0.0100    0.0100    0.0100    0.0100    0.0100
    0.0100    0.0100    0.0100    0.0100    0.0100    0.0100    0.0100    0.0100
    0.0100    0.0100    0.0100    0.0100    0.0100    0.0100    0.0100    0.0100
    0.0100    0.0100    0.0100    0.0100    0.0100    0.0100    0.0100    0.0100
    0.0100    0.0100    0.0100    0.0100    0.0100    0.0100    0.0100    0.0100
    0.0100    0.0100    0.0100    0.0100    0.0100    0.0100    0.0100    0.0100
    0.0100    0.0100    0.0100    0.0100    0.0100    0.0100    0.0100    0.0100
    0.0100    0.0100    0.0100    0.0100    0.0100    0.0100    0.0100    0.0100
    0.0100    0.0100    0.0100    0.0100    0.0100    0.0100    0.0100    0.0100
    0.0100    0.0100    0.0100    0.0100    0.0100    0.0100    0.0100    0.0100
    0.0100    0.0100    0.0100    0.0100    0.0100    0.0100    0.0100    0.0100
    0.0100    0.0100    0.0100    0.0100    0.0100    0.0100    0.0100    0.0100
    0.0100    0.0100    0.0100    0.0100    0.0100    0.0100    0.0100    0.0100
    0.0100    0.0100    0.0100    0.0100    0.0100    0.0100    0.0100    0.0100
    0.0100    0.0100    0.0100    0.0100    0.0100    0.0100    0.0100    0.0100
    0.0100    0.0100    0.0100    0.0100    0.0100    0.0100    0.0100    0.0100
    0.0100    0.0100    0.0100    0.0100    0.0100    0.0100    0.0100    0.0100
    0.0100    0.0100    0.0100    0.0100    0.0100    0.0100    0.0100    0.0100
    0.0100    0.0100    0.0100    0.0100    0.0100    0.0100    0.0100    0.0100
    0.0100    0.0100    0.0100    0.0100    0.0100    0.0100    0.0100    0.0100
    0.0100    0.0100    0.0100    0.0100    0.0100    0.0100    0.0100    0.0100
    0.0100    0.0100    0.0100    0.0100    0.0100    0.0100    0.0100    0.0100
    0.0100    0.0100    0.0100    0.0100    0.0100    0.0100    0.0100    0.0100
    0.0100    0.0100    0.0100    0.0100    0.0100    0.0100    0.0100    0.0100
    0.0100    0.0100    0.0100    0.0100    0.0100    0.0100    0.0100    0.0100
    0.0100    0.0100    0.0100    0.0100    0.0100    0.0100    0.0100    0.0100
    0.0100    0.0100    0.0100    0.0100    0.0100    0.0100    0.0100    0.0100
    0.0100    0.0100    0.0100    0.0100    0.0100    0.0100    0.0100    0.0100
    0.0100    0.0100    0.0100    0.0100    0.0100    0.0100    0.0100    0.0100
    0.0100    0.0100    0.0100    0.0100    0.0100    0.0100    0.0100    0.0100
    0.0100    0.0100    0.0100    0.0100    0.0100    0.0100    0.0100    0.0100
    0.0100    0.0100    0.0100    0.0100    0.0100    0.0100    0.0100    0.0100
    0.0100    0.0100    0.0100    0.0100    0.0100    0.0100    0.0100    0.0100
    0.0100    0.0100    0.0100    0.0100    0.0100    0.0100    0.0100    0.0100
    0.0100    0.0100    0.0100    0.0100    0.0100    0.0100    0.0100    0.0100
    0.0100    0.0100    0.0100    0.0100    0.0100    0.0100    0.0100    0.0100
    0.0100    0.0100    0.0100    0.0100    0.0100    0.0100    0.0100    0.0100
    0.0100    0.0100    0.0100    0.0100    0.0100    0.0100    0.0100    0.0100
    0.0100    0.0100    0.0100    0.0100    0.0100    0.0100    0.0100    0.0100
    0.0100    0.0100    0.0100    0.0100    0.0100    0.0100    0.0100    0.0100
    0.0100    0.0100    0.0100    0.0100    0.0100    0.0100    0.0100    0.0100
    0.0100    0.0100    0.0100    0.0100    0.0100    0.0100    0.0100    0.0100
    0.0100    0.0100    0.0100    0.0100    0.0100    0.0100    0.0100    0.0100
    0.0100    0.0100    0.0100    0.0100    0.0100    0.0100    0.0100    0.0100
    0.0100    0.0100    0.0100    0.0100    0.0100    0.0100    0.0100    0.0100
    0.0100    0.0100    0.0100    0.0100    0.0100    0.0100    0.0100    0.0100
    0.0100    0.0100    0.0100    0.0100    0.0100    0.0100    0.0100    0.0100
    0.0100    0.0100    0.0100    0.0100    0.0100    0.0100    0.0100    0.0100
    0.0100    0.0100    0.0100    0.0100    0.0100    0.0100    0.0100    0.0100
    0.0100    0.0100    0.0100    0.0100    0.0100    0.0100    0.0100    0.0100
    0.0100    0.0100    0.0100    0.0100    0.0100    0.0100    0.0100    0.0100
    0.0100    0.0100    0.0100    0.0100    0.0100    0.0100    0.0100    0.0100
    0.0100    0.0100    0.0100    0.0100    0.0100    0.0100    0.0100    0.0100
    0.0100    0.0100    0.0100    0.0100    0.0100    0.0100    0.0100    0.0100
    0.0100    0.0100    0.0100    0.0100    0.0100    0.0100    0.0100    0.0100
    0.0100    0.0100    0.0100    0.0100    0.0100    0.0100    0.0100    0.0100
    0.0100    0.0100    0.0100    0.0100    0.0100    0.0100    0.0100    0.0100
    0.0100    0.0100    0.0100    0.0100    0.0100    0.0100    0.0100    0.0100
    0.0100    0.0100    0.0100    0.0100    0.0100    0.0100    0.0100    0.0100
    0.0100    0.0100    0.0100    0.0100    0.0100    0.0100    0.0100    0.0100
    0.0100    0.0100    0.0100    0.0100    0.0100    0.0100    0.0100    0.0100
    0.0100    0.0100    0.0100    0.0100    0.0100    0.0100    0.0100    0.0100
    0.0100    0.0100    0.0100    0.0100    0.0100    0.0100    0.0100    0.0100
    0.0100    0.0100    0.0100    0.0100    0.0100    0.0100    0.0100    0.0100
    0.0100    0.0100    0.0100    0.0100    0.0100    0.0100    0.0100    0.0100
    0.0100    0.0100    0.0100    0.0100    0.0100    0.0100    0.0100    0.0100
    0.0100    0.0100    0.0100    0.0100    0.0100    0.0100    0.0100    0.0100
    0.0100    0.0100    0.0100    0.0100    0.0100    0.0100    0.0100    0.0100
    0.0100    0.0100    0.0100    0.0100    0.0100    0.0100    0.0100    0.0100
    0.0100    0.0100    0.0100    0.0100    0.0100    0.0100    0.0100    0.0100
    0.0100    0.0100    0.0100    0.0100    0.0100    0.0100    0.0100    0.0100
    0.0100    0.0100    0.0100    0.0100    0.0100    0.0100    0.0100    0.0100
    0.0100    0.0100    0.0100    0.0100    0.0100    0.0100    0.0100    0.0100
    0.0100    0.0100    0.0100    0.0100    0.0100    0.0100    0.0100    0.0100
    0.0100    0.0100    0.0100    0.0100    0.0100    0.0100    0.0100    0.0100
    0.0100    0.0100    0.0100    0.0100    0.0100    0.0100    0.0100    0.0100
    0.0100    0.0100    0.0100    0.0100    0.0100    0.0100    0.0100    0.0100
    0.0100    0.0100    0.0100    0.0100    0.0100    0.0100    0.0100    0.0100
    0.0100    0.0100    0.0100    0.0100    0.0100    0.0100    0.0100    0.0100
    0.0100    0.0100    0.0100    0.0100    0.0100    0.0100    0.0100    0.0100
    0.0100    0.0100    0.0100    0.0100    0.0100    0.0100    0.0100    0.0100
    0.0100    0.0100    0.0100    0.0100    0.0100    0.0100    0.0100    0.0100
    0.0100    0.0100    0.0100    0.0100    0.0100    0.0100    0.0100    0.0100
    0.0100    0.0100    0.0100    0.0100    0.0100    0.0100    0.0100    0.0100
    0.0100    0.0100    0.0100    0.0100    0.0100    0.0100    0.0100    0.0100
    0.0100    0.0100    0.0100    0.0100    0.0100    0.0100    0.0100    0.0100
    0.0100    0.0100    0.0100    0.0100    0.0100    0.0100    0.0100    0.0100
    0.0100    0.0100    0.0100    0.0100    0.0100    0.0100    0.0100    0.0100
    0.0100    0.0100    0.0100    0.0100    0.0100    0.0100    0.0100    0.0100
    0.0100    0.0100    0.0100    0.0100    0.0100    0.0100    0.0100    0.0100
    0.0100    0.0100    0.0100    0.0100    0.0100    0.0100    0.0100    0.0100
    0.0100    0.0100    0.0100    0.0100    0.0100    0.0100    0.0100    0.0100
    0.0100    0.0100    0.0100    0.0100    0.0100    0.0100    0.0100    0.0100
    0.0100    0.0100    0.0100    0.0100    0.0100    0.0100    0.0100    0.0100
    0.0100    0.0100    0.0100    0.0100    0.0100    0.0100    0.0100    0.0100
    0.0100    0.0100    0.0100    0.0100    0.0100    0.0100    0.0100    0.0100
    0.0100    0.0100    0.0100    0.0100    0.0100    0.0100    0.0100    0.0100
    0.0100    0.0100    0.0100    0.0100    0.0100    0.0100    0.0100    0.0100
    0.0100    0.0100    0.0100    0.0100    0.0100    0.0100    0.0100    0.0100
    0.0100    0.0100    0.0100    0.0100    0.0100    0.0100    0.0100    0.0100
    0.0100    0.0100    0.0100    0.0100    0.0100    0.0100    0.0100    0.0100
    0.0100    0.0100    0.0100    0.0100    0.0100    0.0100    0.0100    0.0100
    0.0100    0.0100    0.0100    0.0100    0.0100    0.0100    0.0100    0.0100
    0.0100    0.0100    0.0100    0.0100    0.0100    0.0100    0.0100    0.0100
    0.0100    0.0100    0.0100    0.0100    0.0100    0.0100    0.0100    0.0100
    0.0100    0.0100    0.0100    0.0100    0.0100    0.0100    0.0100    0.0100
    0.0100    0.0100    0.0100    0.0100    0.0100    0.0100    0.0100    0.0100
    0.0100    0.0100    0.0100    0.0100    0.0100    0.0100    0.0100    0.0100
    0.0100    0.0100    0.0100    0.0100    0.0100    0.0100    0.0100    0.0100
    0.0100    0.0100    0.0100    0.0100    0.0100    0.0100    0.0100    0.0100
    0.0100    0.0100    0.0100    0.0100    0.0100    0.0100    0.0100    0.0100
    0.0100    0.0100    0.0100    0.0100    0.0100    0.0100    0.0100    0.0100
    0.0100    0.0100    0.0100    0.0100    0.0100    0.0100    0.0100    0.0100
    0.0100    0.0100    0.0100    0.0100    0.0100    0.0100    0.0100    0.0100
    0.0100    0.0100    0.0100    0.0100    0.0100    0.0100    0.0100    0.0100
    0.0100    0.0100    0.0100    0.0100    0.0100    0.0100    0.0100    0.0100
    0.0100    0.0100    0.0100    0.0100    0.0100    0.0100    0.0100    0.0100
    0.0100    0.0100    0.0100    0.0100    0.0100    0.0100    0.0100    0.0100
    0.0100    0.0100    0.0100    0.0100    0.0100    0.0100    0.0100    0.0100
    0.0100    0.0100    0.0100    0.0100    0.0100    0.0100    0.0100    0.0100
    0.0100    0.0100    0.0100    0.0100    0.0100    0.0100    0.0100    0.0100
    0.0100    0.0100    0.0100    0.0100    0.0100    0.0100    0.0100    0.0100
    0.0100    0.0100    0.0100    0.0100    0.0100    0.0100    0.0100    0.0100
    0.0100    0.0100    0.0100    0.0100    0.0100    0.0100    0.0100    0.0100
    0.0100    0.0100    0.0100    0.0100    0.0100    0.0100    0.0100    0.0100
    0.0100    0.0100    0.0100    0.0100    0.0100    0.0100    0.0100    0.0100
    0.0100    0.0100    0.0100    0.0100    0.0100    0.0100    0.0100    0.0100
    0.0100    0.0100    0.0100    0.0100    0.0100    0.0100    0.0100    0.0100
    0.0100    0.0100    0.0100    0.0100    0.0100    0.0100    0.0100    0.0100
    0.0100    0.0100    0.0100    0.0100    0.0100    0.0100    0.0100    0.0100
    0.0100    0.0100    0.0100    0.0100    0.0100    0.0100    0.0100    0.0100
    0.0100    0.0100    0.0100    0.0100    0.0100    0.0100    0.0100    0.0100
    0.0100    0.0100    0.0100    0.0100    0.0100    0.0100    0.0100    0.0100
    0.0100    0.0100    0.0100    0.0100    0.0100    0.0100    0.0100    0.0100
    0.0100    0.0100    0.0100    0.0100    0.0100    0.0100    0.0100    0.0100
    0.0100    0.0100    0.0100    0.0100    0.0100    0.0100    0.0100    0.0100
    0.0100    0.0100    0.0100    0.0100    0.0100    0.0100    0.0100    0.0100
    0.0100    0.0100    0.0100    0.0100    0.0100    0.0100    0.0100    0.0100
    0.0100    0.0100    0.0100    0.0100    0.0100    0.0100    0.0100    0.0100
    0.0100    0.0100    0.0100    0.0100    0.0100    0.0100    0.0100    0.0100
    0.0100    0.0100    0.0100    0.0100    0.0100    0.0100    0.0100    0.0100
    0.0100    0.0100    0.0100    0.0100    0.0100    0.0100    0.0100    0.0100
    0.0100    0.0100    0.0100    0.0100    0.0100    0.0100    0.0100    0.0100
    0.0100    0.0100    0.0100    0.0100    0.0100    0.0100    0.0100    0.0100
    0.0100    0.0100    0.0100    0.0100    0.0100    0.0100    0.0100    0.0100
    0.0100    0.0100    0.0100    0.0100    0.0100    0.0100    0.0100    0.0100
    0.0100    0.0100    0.0100    0.0100    0.0100    0.0100    0.0100    0.0100
    0.0100    0.0100    0.0100    0.0100    0.0100    0.0100    0.0100    0.0100
    0.0100    0.0100    0.0100    0.0100    0.0100    0.0100    0.0100    0.0100
    0.0100    0.0100    0.0100    0.0100    0.0100    0.0100    0.0100    0.0100
    0.0100    0.0100    0.0100    0.0100    0.0100    0.0100    0.0100    0.0100
    0.0100    0.0100    0.0100    0.0100    0.0100    0.0100    0.0100    0.0100
    0.0100    0.0100    0.0100    0.0100    0.0100    0.0100    0.0100    0.0100
    0.0100    0.0100    0.0100    0.0100    0.0100    0.0100    0.0100    0.0100
    0.0100    0.0100    0.0100    0.0100    0.0100    0.0100    0.0100    0.0100
    0.0100    0.0100    0.0100    0.0100    0.0100    0.0100    0.0100    0.0100
    0.0100    0.0100    0.0100    0.0100    0.0100    0.0100    0.0100    0.0100
    0.0100    0.0100    0.0100    0.0100    0.0100    0.0100    0.0100    0.0100
    0.0100    0.0100    0.0100    0.0100    0.0100    0.0100    0.0100    0.0100
    0.0100    0.0100    0.0100    0.0100    0.0100    0.0100    0.0100    0.0100
    0.0100    0.0100    0.0100    0.0100    0.0100    0.0100    0.0100    0.0100
    0.0100    0.0100    0.0100    0.0100    0.0100    0.0100    0.0100    0.0100
    0.0100    0.0100    0.0100    0.0100    0.0100    0.0100    0.0100    0.0100
    0.0100    0.0100    0.0100    0.0100    0.0100    0.0100    0.0100    0.0100
    0.0100    0.0100    0.0100    0.0100    0.0100    0.0100    0.0100    0.0100
    0.0100    0.0100    0.0100    0.0100    0.0100    0.0100    0.0100    0.0100
    0.0100    0.0100    0.0100    0.0100    0.0100    0.0100    0.0100    0.0100
    0.0100    0.0100    0.0100    0.0100    0.0100    0.0100    0.0100    0.0100
    0.0100    0.0100    0.0100    0.0100    0.0100    0.0100    0.0100    0.0100
    0.0100    0.0100    0.0100    0.0100    0.0100    0.0100    0.0100    0.0100
    0.0100    0.0100    0.0100    0.0100    0.0100    0.0100    0.0100    0.0100
    0.0100    0.0100    0.0100    0.0100    0.0100    0.0100    0.0100    0.0100
    0.0100    0.0100    0.0100    0.0100    0.0100    0.0100    0.0100    0.0100
    0.0100    0.0100    0.0100    0.0100    0.0100    0.0100    0.0100    0.0100
    0.0100    0.0100    0.0100    0.0100    0.0100    0.0100    0.0100    0.0100
    0.0100    0.0100    0.0100    0.0100    0.0100    0.0100    0.0100    0.0100
    0.0100    0.0100    0.0100    0.0100    0.0100    0.0100    0.0100    0.0100
    0.0100    0.0100    0.0100    0.0100    0.0100    0.0100    0.0100    0.0100
    0.0100    0.0100    0.0100    0.0100    0.0100    0.0100    0.0100    0.0100
    0.0100    0.0100    0.0100    0.0100    0.0100    0.0100    0.0100    0.0100
    0.0100    0.0100    0.0100    0.0100    0.0100    0.0100    0.0100    0.0100
    0.0100    0.0100    0.0100    0.0100    0.0100    0.0100    0.0100    0.0100
    0.0100    0.0100    0.0100    0.0100    0.0100    0.0100    0.0100    0.0100
    0.0100    0.0100    0.0100    0.0100    0.0100    0.0100    0.0100    0.0100
    0.0100    0.0100    0.0100    0.0100    0.0100    0.0100    0.0100    0.0100
    0.0100    0.0100    0.0100    0.0100    0.0100    0.0100    0.0100    0.0100
    0.0100    0.0100    0.0100    0.0100    0.0100    0.0100    0.0100    0.0100
    0.0100    0.0100    0.0100    0.0100    0.0100    0.0100    0.0100    0.0100
    0.0100    0.0100    0.0100    0.0100    0.0100    0.0100    0.0100    0.0100
    0.0100    0.0100    0.0100    0.0100    0.0100    0.0100    0.0100    0.0100
    0.0100    0.0100    0.0100    0.0100    0.0100    0.0100    0.0100    0.0100
    0.0100    0.0100    0.0100    0.0100    0.0100    0.0100    0.0100    0.0100
    0.0100    0.0100    0.0100    0.0100    0.0100    0.0100    0.0100    0.0100
    0.0100    0.0100    0.0100    0.0100    0.0100    0.0100    0.0100    0.0100
    0.0100    0.0100    0.0100    0.0100    0.0100    0.0100    0.0100    0.0100
    0.0100    0.0100    0.0100    0.0100    0.0100    0.0100    0.0100    0.0100
    0.0100    0.0100    0.0100    0.0100    0.0100    0.0100    0.0100    0.0100
    0.0100    0.0100    0.0100    0.0100    0.0100    0.0100    0.0100    0.0100
    0.0100    0.0100    0.0100    0.0100    0.0100    0.0100    0.0100    0.0100
    0.0100    0.0100    0.0100    0.0100    0.0100    0.0100    0.0100    0.0100
    0.0100    0.0100    0.0100    0.0100    0.0100    0.0100    0.0100    0.0100
    0.0100    0.0100    0.0100    0.0100    0.0100    0.0100    0.0100    0.0100
    0.0100    0.0100    0.0100    0.0100    0.0100    0.0100    0.0100    0.0100
    0.0100    0.0100    0.0100    0.0100    0.0100    0.0100    0.0100    0.0100
    0.0100    0.0100    0.0100    0.0100    0.0100    0.0100    0.0100    0.0100
    0.0100    0.0100    0.0100    0.0100    0.0100    0.0100    0.0100    0.0100
    0.0100    0.0100    0.0100    0.0100    0.0100    0.0100    0.0100    0.0100
    0.0100    0.0100    0.0100    0.0100    0.0100    0.0100
   </PP_RAB>
 </PP_MESH>
  <PP_LOCAL type="real"  size="1766" columns="4">
   -2.2323649418E+01   -2.2323333415E+01   -2.2322385255E+01   -2.2320804540E+01
   -2.2318590604E+01   -2.2315742512E+01   -2.2312259067E+01   -2.2308138808E+01
   -2.2303380014E+01   -2.2297980708E+01   -2.2291938655E+01   -2.2285251373E+01
   -2.2277916131E+01   -2.2269929954E+01   -2.2261289632E+01   -2.2251991719E+01
   -2.2242032546E+01   -2.2231408219E+01   -2.2220114632E+01   -2.2208147473E+01
   -2.2195502226E+01   -2.2182174188E+01   -2.2168158469E+01   -2.2153450006E+01
   -2.2138043571E+01   -2.2121933778E+01   -2.2105115097E+01   -2.2087581865E+01
   -2.2069328291E+01   -2.2050348474E+01   -2.2030636412E+01   -2.2010186014E+01
   -2.1988991113E+01   -2.1967045479E+01   -2.1944342833E+01   -2.1920876857E+01
   -2.1896641213E+01   -2.1871629555E+01   -2.1845835542E+01   -2.1819252853E+01
   -2.1791875205E+01   -2.1763696364E+01   -2.1734710163E+01   -2.1704910516E+01
   -2.1674291433E+01   -2.1642847039E+01   -2.1610571583E+01   -2.1577459462E+01
   -2.1543505230E+01   -2.1508703617E+01   -2.1473049544E+01   -2.1436538138E+01
   -2.1399164749E+01   -2.1360924964E+01   -2.1321814620E+01   -2.1281829827E+01
   -2.1240966972E+01   -2.1199222743E+01   -2.1156594140E+01   -2.1113078485E+01
   -2.1068673444E+01   -2.1023377034E+01   -2.0977187640E+01   -2.0930104026E+01
   -2.0882125348E+01   -2.0833251166E+01   -2.0783481456E+01   -2.0732816623E+01
   -2.0681257507E+01   -2.0628805398E+01   -2.0575462045E+01   -2.0521229662E+01
   -2.0466110940E+01   -2.0410109056E+01   -2.0353227676E+01   -2.0295470967E+01
   -2.0236843599E+01   -2.0177350753E+01   -2.0116998126E+01   -2.0055791934E+01
   -1.9993738917E+01   -1.9930846340E+01   -1.9867121996E+01   -1.9802574207E+01
   -1.9737211823E+01   -1.9671044226E+01   -1.9604081323E+01   -1.9536333547E+01
   -1.9467811855E+01   -1.9398527722E+01   -1.9328493136E+01   -1.9257720595E+01
   -1.9186223100E+01   -1.9114014145E+01   -1.9041107713E+01   -1.8967518265E+01
   -1.8893260729E+01   -1.8818350491E+01   -1.8742803386E+01   -1.8666635682E+01
   -1.8589864066E+01   -1.8512505638E+01   -1.8434577889E+01   -1.8356098688E+01
   -1.8277086270E+01   -1.8197559215E+01   -1.8117536436E+01   -1.8037037157E+01
   -1.7956080899E+01   -1.7874687461E+01   -1.7792876900E+01   -1.7710669516E+01
   -1.7628085826E+01   -1.7545146551E+01   -1.7461872596E+01   -1.7378285025E+01
   -1.7294405046E+01   -1.7210253987E+01   -1.7125853279E+01   -1.7041224435E+01
   -1.6956389027E+01   -1.6871368669E+01   -1.6786184993E+01   -1.6700859633E+01
   -1.6615414202E+01   -1.6529870270E+01   -1.6444249349E+01   -1.6358572867E+01
   -1.6272862155E+01   -1.6187138420E+01   -1.6101422733E+01   -1.6015736003E+01
   -1.5930098962E+01   -1.5844532146E+01   -1.5759055875E+01   -1.5673690236E+01
   -1.5588455064E+01   -1.5503369926E+01   -1.5418454103E+01   -1.5333726573E+01
   -1.5249205993E+01   -1.5164910686E+01   -1.5080858622E+01   -1.4997067407E+01
   -1.4913554264E+01   -1.4830336019E+01   -1.4747429092E+01   -1.4664849477E+01
   -1.4582612734E+01   -1.4500733975E+01   -1.4419227854E+01   -1.4338108554E+01
   -1.4257389779E+01   -1.4177084742E+01   -1.4097206160E+01   -1.4017766242E+01
   -1.3938776684E+01   -1.3860248663E+01   -1.3782192834E+01   -1.3704619318E+01
   -1.3627537707E+01   -1.3550957057E+01   -1.3474885890E+01   -1.3399332189E+01
   -1.3324303403E+01   -1.3249806449E+01   -1.3175847713E+01   -1.3102433057E+01
   -1.3029567823E+01   -1.2957256840E+01   -1.2885504435E+01   -1.2814314438E+01
   -1.2743690197E+01   -1.2673634587E+01   -1.2604150024E+01   -1.2535238477E+01
   -1.2466901487E+01   -1.2399140178E+01   -1.2331955274E+01   -1.2265347120E+01
   -1.2199315693E+01   -1.2133860626E+01   -1.2068981219E+01   -1.2004676463E+01
   -1.1940945053E+01   -1.1877785405E+01   -1.1815195675E+01   -1.1753173773E+01
   -1.1691717377E+01   -1.1630823947E+01   -1.1570490735E+01   -1.1510714800E+01
   -1.1451493011E+01   -1.1392822058E+01   -1.1334698457E+01   -1.1277118551E+01
   -1.1220078515E+01   -1.1163574349E+01   -1.1107601884E+01   -1.1052156768E+01
   -1.0997234465E+01   -1.0942830236E+01   -1.0888939122E+01   -1.0835555960E+01
   -1.0782675383E+01   -1.0730291789E+01   -1.0678399290E+01   -1.0626991719E+01
   -1.0576062632E+01   -1.0525605221E+01   -1.0475612233E+01   -1.0426077005E+01
   -1.0376995701E+01   -1.0328368913E+01   -1.0280192681E+01   -1.0232458713E+01
   -1.0185161066E+01   -1.0138293444E+01   -1.0091849709E+01   -1.0045823875E+01
   -1.0000210086E+01   -9.9550026056E+00   -9.9101958324E+00   -9.8657842733E+00
   -9.8217625429E+00   -9.7781254559E+00   -9.7348684220E+00   -9.6919878111E+00
   -9.6494801400E+00   -9.6073403094E+00   -9.5655635837E+00   -9.5241455350E+00
   -9.4830816807E+00   -9.4423676900E+00   -9.4019993301E+00   -9.3619724610E+00
   -9.3222830393E+00   -9.2829271084E+00   -9.2439008046E+00   -9.2052003481E+00
   -9.1668220399E+00   -9.1287619936E+00   -9.0910160194E+00   -9.0535796703E+00
   -9.0164490496E+00   -8.9796207939E+00   -8.9430917004E+00   -8.9068583802E+00
   -8.8709174303E+00   -8.8352656611E+00   -8.7998998858E+00   -8.7648169470E+00
   -8.7300137387E+00   -8.6954871884E+00   -8.6612342548E+00   -8.6272519246E+00
   -8.5935372085E+00   -8.5600871385E+00   -8.5268987645E+00   -8.4939691526E+00
   -8.4612953828E+00   -8.4288745476E+00   -8.3967037517E+00   -8.3647801109E+00
   -8.3331007528E+00   -8.3016628176E+00   -8.2704634587E+00   -8.2394998450E+00
   -8.2087691628E+00   -8.1782686177E+00   -8.1479954380E+00   -8.1179468772E+00
   -8.0881202170E+00   -8.0585127708E+00   -8.0291218866E+00   -7.9999449503E+00
   -7.9709793884E+00   -7.9422226711E+00   -7.9136723146E+00   -7.8853258835E+00
   -7.8571809930E+00   -7.8292353097E+00   -7.8014865535E+00   -7.7739324980E+00
   -7.7465709707E+00   -7.7193998536E+00   -7.6924170817E+00   -7.6656206431E+00
   -7.6390085771E+00   -7.6125789733E+00   -7.5863299692E+00   -7.5602597484E+00
   -7.5343665385E+00   -7.5086486085E+00   -7.4831042661E+00   -7.4577318554E+00
   -7.4325297541E+00   -7.4074963708E+00   -7.3826301423E+00   -7.3579295313E+00
   -7.3333930239E+00   -7.3090191269E+00   -7.2848063662E+00   -7.2607532843E+00
   -7.2368584386E+00   -7.2131203999E+00   -7.1895377505E+00   -7.1661090833E+00
   -7.1428330006E+00   -7.1197081130E+00   -7.0967330388E+00   -7.0739064034E+00
   -7.0512268388E+00   -7.0286929835E+00   -7.0063034822E+00   -6.9840569861E+00
   -6.9619521526E+00   -6.9399876459E+00   -6.9181621370E+00   -6.8964743045E+00
   -6.8749228347E+00   -6.8535064224E+00   -6.8322237712E+00   -6.8110735942E+00
   -6.7900546148E+00   -6.7691655671E+00   -6.7484051964E+00   -6.7277722604E+00
   -6.7072655292E+00   -6.6868837860E+00   -6.6666258279E+00   -6.6464904664E+00
   -6.6264765277E+00   -6.6065828530E+00   -6.5868082995E+00   -6.5671517402E+00
   -6.5476120642E+00   -6.5281881773E+00   -6.5088790020E+00   -6.4896834775E+00
   -6.4706005599E+00   -6.4516292223E+00   -6.4327684545E+00   -6.4140172632E+00
   -6.3953746717E+00   -6.3768397196E+00   -6.3584114618E+00   -6.3400889773E+00
   -6.3218714078E+00   -6.3037576666E+00   -6.2857465399E+00   -6.2678385496E+00
   -6.2500339135E+00   -6.2323271299E+00   -6.2147123039E+00   -6.1971924282E+00
   -6.1797742263E+00   -6.1624591714E+00   -6.1452445399E+00   -6.1281275100E+00
   -6.1111057556E+00   -6.0941775766E+00   -6.0773425977E+00   -6.0606005984E+00
   -6.0439506689E+00   -6.0273919246E+00   -6.0109236604E+00   -5.9945451426E+00
   -5.9782556385E+00   -5.9620544241E+00   -5.9459407833E+00   -5.9299140082E+00
   -5.9139733982E+00   -5.8981182603E+00   -5.8823479088E+00   -5.8666616656E+00
   -5.8510588596E+00   -5.8355388267E+00   -5.8201009101E+00   -5.8047444598E+00
   -5.7894688327E+00   -5.7742733923E+00   -5.7591575089E+00   -5.7441205594E+00
   -5.7291619270E+00   -5.7142810016E+00   -5.6994771793E+00   -5.6847498622E+00
   -5.6700984589E+00   -5.6555223839E+00   -5.6410210579E+00   -5.6265939072E+00
   -5.6122403642E+00   -5.5979598670E+00   -5.5837518595E+00   -5.5696157911E+00
   -5.5555511167E+00   -5.5415572970E+00   -5.5276337978E+00   -5.5137800904E+00
   -5.4999956513E+00   -5.4862799625E+00   -5.4726325107E+00   -5.4590527880E+00
   -5.4455402916E+00   -5.4320945234E+00   -5.4187149903E+00   -5.4054012042E+00
   -5.3921526816E+00   -5.3789689438E+00   -5.3658495168E+00   -5.3527939312E+00
   -5.3398017221E+00   -5.3268724291E+00   -5.3140055963E+00   -5.3012007723E+00
   -5.2884575098E+00   -5.2757753660E+00   -5.2631539021E+00   -5.2505926838E+00
   -5.2380912808E+00   -5.2256492667E+00   -5.2132662194E+00   -5.2009417208E+00
   -5.1886753564E+00   -5.1764667161E+00   -5.1643153932E+00   -5.1522209851E+00
   -5.1401830929E+00   -5.1282013213E+00   -5.1162752788E+00   -5.1044045775E+00
   -5.0925888331E+00   -5.0808276648E+00   -5.0691206954E+00   -5.0574675511E+00
   -5.0458678615E+00   -5.0343212597E+00   -5.0228273821E+00   -5.0113858684E+00
   -4.9999963615E+00   -4.9886585076E+00   -4.9773719563E+00   -4.9661363600E+00
   -4.9549513744E+00   -4.9438166585E+00   -4.9327318740E+00   -4.9216966858E+00
   -4.9107107619E+00   -4.8997737730E+00   -4.8888853930E+00   -4.8780452985E+00
   -4.8672531690E+00   -4.8565086868E+00   -4.8458115372E+00   -4.8351614081E+00
   -4.8245579901E+00   -4.8140009765E+00   -4.8034900635E+00   -4.7930249496E+00
   -4.7826053363E+00   -4.7722309274E+00   -4.7619014294E+00   -4.7516165514E+00
   -4.7413760047E+00   -4.7311795034E+00   -4.7210267640E+00   -4.7109175053E+00
   -4.7008514486E+00   -4.6908283176E+00   -4.6808478382E+00   -4.6709097389E+00
   -4.6610137502E+00   -4.6511596051E+00   -4.6413470387E+00   -4.6315757884E+00
   -4.6218455939E+00   -4.6121561969E+00   -4.6025073414E+00   -4.5928987734E+00
   -4.5833302413E+00   -4.5738014952E+00   -4.5643122875E+00   -4.5548623727E+00
   -4.5454515072E+00   -4.5360794495E+00   -4.5267459600E+00   -4.5174508011E+00
   -4.5081937372E+00   -4.4989745346E+00   -4.4897929615E+00   -4.4806487880E+00
   -4.4715417860E+00   -4.4624717293E+00   -4.4534383935E+00   -4.4444415562E+00
   -4.4354809965E+00   -4.4265564956E+00   -4.4176678361E+00   -4.4088148026E+00
   -4.3999971813E+00   -4.3912147601E+00   -4.3824673287E+00   -4.3737546784E+00
   -4.3650766023E+00   -4.3564328949E+00   -4.3478233524E+00   -4.3392477727E+00
   -4.3307059552E+00   -4.3221977009E+00   -4.3137228124E+00   -4.3052810939E+00
   -4.2968723508E+00   -4.2884963905E+00   -4.2801530215E+00   -4.2718420540E+00
   -4.2635632997E+00   -4.2553165716E+00   -4.2471016842E+00   -4.2389184535E+00
   -4.2307666968E+00   -4.2226462329E+00   -4.2145568820E+00   -4.2064984656E+00
   -4.1984708065E+00   -4.1904737291E+00   -4.1825070589E+00   -4.1745706228E+00
   -4.1666642491E+00   -4.1587877671E+00   -4.1509410078E+00   -4.1431238032E+00
   -4.1353359867E+00   -4.1275773927E+00   -4.1198478573E+00   -4.1121472173E+00
   -4.1044753112E+00   -4.0968319783E+00   -4.0892170593E+00   -4.0816303961E+00
   -4.0740718317E+00   -4.0665412103E+00   -4.0590383771E+00   -4.0515631788E+00
   -4.0441154629E+00   -4.0366950780E+00   -4.0293018741E+00   -4.0219357021E+00
   -4.0145964139E+00   -4.0072838627E+00   -3.9999979026E+00   -3.9927383888E+00
   -3.9855051777E+00   -3.9782981264E+00   -3.9711170935E+00   -3.9639619381E+00
   -3.9568325208E+00   -3.9497287027E+00   -3.9426503465E+00   -3.9355973152E+00
   -3.9285694734E+00   -3.9215666864E+00   -3.9145888202E+00   -3.9076357422E+00
   -3.9007073206E+00   -3.8938034243E+00   -3.8869239234E+00   -3.8800686888E+00
   -3.8732375924E+00   -3.8664305068E+00   -3.8596473057E+00   -3.8528878637E+00
   -3.8461520561E+00   -3.8394397591E+00   -3.8327508499E+00   -3.8260852064E+00
   -3.8194427076E+00   -3.8128232330E+00   -3.8062266631E+00   -3.7996528792E+00
   -3.7931017636E+00   -3.7865731991E+00   -3.7800670695E+00   -3.7735832594E+00
   -3.7671216541E+00   -3.7606821397E+00   -3.7542646031E+00   -3.7478689320E+00
   -3.7414950149E+00   -3.7351427410E+00   -3.7288120001E+00   -3.7225026830E+00
   -3.7162146811E+00   -3.7099478867E+00   -3.7037021925E+00   -3.6974774922E+00
   -3.6912736801E+00   -3.6850906512E+00   -3.6789283013E+00   -3.6727865269E+00
   -3.6666652249E+00   -3.6605642933E+00   -3.6544836306E+00   -3.6484231358E+00
   -3.6423827088E+00   -3.6363622501E+00   -3.6303616609E+00   -3.6243808429E+00
   -3.6184196986E+00   -3.6124781311E+00   -3.6065560440E+00   -3.6006533418E+00
   -3.5947699295E+00   -3.5889057125E+00   -3.5830605972E+00   -3.5772344903E+00
   -3.5714272992E+00   -3.5656389321E+00   -3.5598692975E+00   -3.5541183046E+00
   -3.5483858632E+00   -3.5426718838E+00   -3.5369762772E+00   -3.5312989550E+00
   -3.5256398292E+00   -3.5199988126E+00   -3.5143758184E+00   -3.5087707603E+00
   -3.5031835526E+00   -3.4976141102E+00   -3.4920623485E+00   -3.4865281834E+00
   -3.4810115315E+00   -3.4755123096E+00   -3.4700304354E+00   -3.4645658269E+00
   -3.4591184026E+00   -3.4536880816E+00   -3.4482747835E+00   -3.4428784284E+00
   -3.4374989367E+00   -3.4321362297E+00   -3.4267902289E+00   -3.4214608563E+00
   -3.4161480345E+00   -3.4108516865E+00   -3.4055717358E+00   -3.4003081063E+00
   -3.3950607226E+00   -3.3898295094E+00   -3.3846143922E+00   -3.3794152969E+00
   -3.3742321495E+00   -3.3690648770E+00   -3.3639134065E+00   -3.3587776656E+00
   -3.3536575823E+00   -3.3485530853E+00   -3.3434641033E+00   -3.3383905659E+00
   -3.3333324027E+00   -3.3282895441E+00   -3.3232619206E+00   -3.3182494633E+00
   -3.3132521037E+00   -3.3082697737E+00   -3.3033024056E+00   -3.2983499320E+00
   -3.2934122862E+00   -3.2884894016E+00   -3.2835812120E+00   -3.2786876519E+00
   -3.2738086559E+00   -3.2689441591E+00   -3.2640940969E+00   -3.2592584052E+00
   -3.2544370202E+00   -3.2496298786E+00   -3.2448369172E+00   -3.2400580735E+00
   -3.2352932852E+00   -3.2305424902E+00   -3.2258056272E+00   -3.2210826349E+00
   -3.2163734524E+00   -3.2116780193E+00   -3.2069962755E+00   -3.2023281611E+00
   -3.1976736168E+00   -3.1930325834E+00   -3.1884050022E+00   -3.1837908149E+00
   -3.1791899633E+00   -3.1746023897E+00   -3.1700280367E+00   -3.1654668473E+00
   -3.1609187647E+00   -3.1563837325E+00   -3.1518616946E+00   -3.1473525952E+00
   -3.1428563789E+00   -3.1383729906E+00   -3.1339023754E+00   -3.1294444789E+00
   -3.1249992468E+00   -3.1205666252E+00   -3.1161465605E+00   -3.1117389996E+00
   -3.1073438893E+00   -3.1029611771E+00   -3.0985908104E+00   -3.0942327373E+00
   -3.0898869059E+00   -3.0855532648E+00   -3.0812317627E+00   -3.0769223486E+00
   -3.0726249720E+00   -3.0683395824E+00   -3.0640661298E+00   -3.0598045644E+00
   -3.0555548366E+00   -3.0513168972E+00   -3.0470906972E+00   -3.0428761879E+00
   -3.0386733209E+00   -3.0344820479E+00   -3.0303023211E+00   -3.0261340929E+00
   -3.0219773158E+00   -3.0178319427E+00   -3.0136979267E+00   -3.0095752213E+00
   -3.0054637801E+00   -3.0013635570E+00   -2.9972745061E+00   -2.9931965818E+00
   -2.9891297389E+00   -2.9850739321E+00   -2.9810291167E+00   -2.9769952479E+00
   -2.9729722815E+00   -2.9689601732E+00   -2.9649588792E+00   -2.9609683559E+00
   -2.9569885597E+00   -2.9530194475E+00   -2.9490609764E+00   -2.9451131035E+00
   -2.9411757865E+00   -2.9372489829E+00   -2.9333326508E+00   -2.9294267483E+00
   -2.9255312339E+00   -2.9216460660E+00   -2.9177712037E+00   -2.9139066058E+00
   -2.9100522318E+00   -2.9062080410E+00   -2.9023739931E+00   -2.8985500482E+00
   -2.8947361662E+00   -2.8909323076E+00   -2.8871384329E+00   -2.8833545027E+00
   -2.8795804781E+00   -2.8758163203E+00   -2.8720619905E+00   -2.8683174503E+00
   -2.8645826616E+00   -2.8608575862E+00   -2.8571421863E+00   -2.8534364242E+00
   -2.8497402626E+00   -2.8460536641E+00   -2.8423765917E+00   -2.8387090086E+00
   -2.8350508779E+00   -2.8314021633E+00   -2.8277628284E+00   -2.8241328371E+00
   -2.8205121534E+00   -2.8169007417E+00   -2.8132985663E+00   -2.8097055919E+00
   -2.8061217832E+00   -2.8025471052E+00   -2.7989815231E+00   -2.7954250022E+00
   -2.7918775080E+00   -2.7883390061E+00   -2.7848094625E+00   -2.7812888432E+00
   -2.7777771143E+00   -2.7742742422E+00   -2.7707801935E+00   -2.7672949348E+00
   -2.7638184331E+00   -2.7603506553E+00   -2.7568915687E+00   -2.7534411406E+00
   -2.7499993387E+00   -2.7465661304E+00   -2.7431414838E+00   -2.7397253668E+00
   -2.7363177477E+00   -2.7329185946E+00   -2.7295278762E+00   -2.7261455611E+00
   -2.7227716180E+00   -2.7194060160E+00   -2.7160487240E+00   -2.7126997115E+00
   -2.7093589478E+00   -2.7060264024E+00   -2.7027020452E+00   -2.6993858458E+00
   -2.6960777744E+00   -2.6927778011E+00   -2.6894858962E+00   -2.6862020301E+00
   -2.6829261735E+00   -2.6796582970E+00   -2.6763983716E+00   -2.6731463683E+00
   -2.6699022581E+00   -2.6666660125E+00   -2.6634376028E+00   -2.6602170007E+00
   -2.6570041778E+00   -2.6537991060E+00   -2.6506017572E+00   -2.6474121037E+00
   -2.6442301175E+00   -2.6410557713E+00   -2.6378890373E+00   -2.6347298884E+00
   -2.6315782972E+00   -2.6284342368E+00   -2.6252976800E+00   -2.6221686002E+00
   -2.6190469705E+00   -2.6159327645E+00   -2.6128259557E+00   -2.6097265177E+00
   -2.6066344244E+00   -2.6035496496E+00   -2.6004721674E+00   -2.5974019521E+00
   -2.5943389778E+00   -2.5912832190E+00   -2.5882346502E+00   -2.5851932462E+00
   -2.5821589816E+00   -2.5791318313E+00   -2.5761117704E+00   -2.5730987739E+00
   -2.5700928172E+00   -2.5670938756E+00   -2.5641019245E+00   -2.5611169395E+00
   -2.5581388964E+00   -2.5551677709E+00   -2.5522035390E+00   -2.5492461767E+00
   -2.5462956602E+00   -2.5433519657E+00   -2.5404150695E+00   -2.5374849482E+00
   -2.5345615784E+00   -2.5316449367E+00   -2.5287349999E+00   -2.5258317450E+00
   -2.5229351489E+00   -2.5200451888E+00   -2.5171618418E+00   -2.5142850854E+00
   -2.5114148970E+00   -2.5085512540E+00   -2.5056941341E+00   -2.5028435151E+00
   -2.4999993747E+00   -2.4971616910E+00   -2.4943304420E+00   -2.4915056058E+00
   -2.4886871606E+00   -2.4858750848E+00   -2.4830693568E+00   -2.4802699551E+00
   -2.4774768584E+00   -2.4746900454E+00   -2.4719094949E+00   -2.4691351859E+00
   -2.4663670972E+00   -2.4636052081E+00   -2.4608494978E+00   -2.4580999454E+00
   -2.4553565305E+00   -2.4526192324E+00   -2.4498880308E+00   -2.4471629053E+00
   -2.4444438356E+00   -2.4417308016E+00   -2.4390237832E+00   -2.4363227604E+00
   -2.4336277134E+00   -2.4309386222E+00   -2.4282554673E+00   -2.4255782289E+00
   -2.4229068875E+00   -2.4202414237E+00   -2.4175818180E+00   -2.4149280513E+00
   -2.4122801042E+00   -2.4096379576E+00   -2.4070015926E+00   -2.4043709901E+00
   -2.4017461313E+00   -2.3991269973E+00   -2.3965135696E+00   -2.3939058294E+00
   -2.3913037583E+00   -2.3887073376E+00   -2.3861165492E+00   -2.3835313745E+00
   -2.3809517955E+00   -2.3783777940E+00   -2.3758093519E+00   -2.3732464512E+00
   -2.3706890740E+00   -2.3681372025E+00   -2.3655908189E+00   -2.3630499055E+00
   -2.3605144447E+00   -2.3579844189E+00   -2.3554598108E+00   -2.3529406030E+00
   -2.3504267781E+00   -2.3479183188E+00   -2.3454152081E+00   -2.3429174289E+00
   -2.3404249641E+00   -2.3379377967E+00   -2.3354559100E+00   -2.3329792871E+00
   -2.3305079113E+00   -2.3280417659E+00   -2.3255808344E+00   -2.3231251002E+00
   -2.3206745469E+00   -2.3182291580E+00   -2.3157889174E+00   -2.3133538087E+00
   -2.3109238158E+00   -2.3084989226E+00   -2.3060791131E+00   -2.3036643712E+00
   -2.3012546810E+00   -2.2988500268E+00   -2.2964503928E+00   -2.2940557632E+00
   -2.2916661224E+00   -2.2892814549E+00   -2.2869017451E+00   -2.2845269776E+00
   -2.2821571370E+00   -2.2797922080E+00   -2.2774321753E+00   -2.2750770238E+00
   -2.2727267383E+00   -2.2703813038E+00   -2.2680407052E+00   -2.2657049276E+00
   -2.2633739562E+00   -2.2610477760E+00   -2.2587263725E+00   -2.2564097307E+00
   -2.2540978362E+00   -2.2517906744E+00   -2.2494882307E+00   -2.2471904906E+00
   -2.2448974398E+00   -2.2426090640E+00   -2.2403253488E+00   -2.2380462800E+00
   -2.2357718435E+00   -2.2335020251E+00   -2.2312368108E+00   -2.2289761867E+00
   -2.2267201387E+00   -2.2244686529E+00   -2.2222217157E+00   -2.2199793131E+00
   -2.2177414315E+00   -2.2155080573E+00   -2.2132791767E+00   -2.2110547763E+00
   -2.2088348426E+00   -2.2066193621E+00   -2.2044083215E+00   -2.2022017073E+00
   -2.1999995064E+00   -2.1978017055E+00   -2.1956082915E+00   -2.1934192511E+00
   -2.1912345714E+00   -2.1890542393E+00   -2.1868782419E+00   -2.1847065662E+00
   -2.1825391994E+00   -2.1803761287E+00   -2.1782173413E+00   -2.1760628244E+00
   -2.1739125656E+00   -2.1717665520E+00   -2.1696247713E+00   -2.1674872107E+00
   -2.1653538580E+00   -2.1632247007E+00   -2.1610997264E+00   -2.1589789228E+00
   -2.1568622777E+00   -2.1547497787E+00   -2.1526414138E+00   -2.1505371709E+00
   -2.1484370378E+00   -2.1463410025E+00   -2.1442490531E+00   -2.1421611776E+00
   -2.1400773640E+00   -2.1379976007E+00   -2.1359218757E+00   -2.1338501774E+00
   -2.1317824940E+00   -2.1297188138E+00   -2.1276591253E+00   -2.1256034169E+00
   -2.1235516770E+00   -2.1215038942E+00   -2.1194600571E+00   -2.1174201541E+00
   -2.1153841741E+00   -2.1133521056E+00   -2.1113239375E+00   -2.1092996585E+00
   -2.1072792574E+00   -2.1052627231E+00   -2.1032500445E+00   -2.1012412106E+00
   -2.0992362103E+00   -2.0972350327E+00   -2.0952376669E+00   -2.0932441020E+00
   -2.0912543271E+00   -2.0892683315E+00   -2.0872861043E+00   -2.0853076350E+00
   -2.0833329127E+00   -2.0813619269E+00   -2.0793946670E+00   -2.0774311224E+00
   -2.0754712826E+00   -2.0735151371E+00   -2.0715626756E+00   -2.0696138875E+00
   -2.0676687625E+00   -2.0657272904E+00   -2.0637894608E+00   -2.0618552635E+00
   -2.0599246883E+00   -2.0579977250E+00   -2.0560743636E+00   -2.0541545938E+00
   -2.0522384057E+00   -2.0503257892E+00   -2.0484167345E+00   -2.0465112314E+00
   -2.0446092702E+00   -2.0427108409E+00   -2.0408159338E+00   -2.0389245390E+00
   -2.0370366468E+00   -2.0351522474E+00   -2.0332713313E+00   -2.0313938886E+00
   -2.0295199099E+00   -2.0276493855E+00   -2.0257823059E+00   -2.0239186616E+00
   -2.0220584431E+00   -2.0202016410E+00   -2.0183482459E+00   -2.0164982484E+00
   -2.0146516392E+00   -2.0128084089E+00   -2.0109685483E+00   -2.0091320483E+00
   -2.0072988994E+00   -2.0054690928E+00   -2.0036426190E+00   -2.0018194692E+00
   -1.9999996342E+00   -1.9981831050E+00   -1.9963698725E+00   -1.9945599279E+00
   -1.9927532622E+00   -1.9909498664E+00   -1.9891497318E+00   -1.9873528494E+00
   -1.9855592105E+00   -1.9837688063E+00   -1.9819816281E+00   -1.9801976671E+00
   -1.9784169146E+00   -1.9766393621E+00   -1.9748650009E+00   -1.9730938224E+00
   -1.9713258180E+00   -1.9695609793E+00   -1.9677992977E+00   -1.9660407647E+00
   -1.9642853720E+00   -1.9625331112E+00   -1.9607839738E+00   -1.9590379515E+00
   -1.9572950360E+00   -1.9555552190E+00   -1.9538184923E+00   -1.9520848477E+00
   -1.9503542768E+00   -1.9486267717E+00   -1.9469023240E+00   -1.9451809258E+00
   -1.9434625689E+00   -1.9417472453E+00   -1.9400349470E+00   -1.9383256659E+00
   -1.9366193942E+00   -1.9349161238E+00   -1.9332158468E+00   -1.9315185554E+00
   -1.9298242417E+00   -1.9281328979E+00   -1.9264445161E+00   -1.9247590887E+00
   -1.9230766077E+00   -1.9213970657E+00   -1.9197204547E+00   -1.9180467673E+00
   -1.9163759956E+00   -1.9147081322E+00   -1.9130431694E+00   -1.9113810997E+00
   -1.9097219155E+00   -1.9080656094E+00   -1.9064121738E+00   -1.9047616013E+00
   -1.9031138844E+00   -1.9014690158E+00   -1.8998269881E+00   -1.8981877939E+00
   -1.8965514259E+00   -1.8949178768E+00   -1.8932871393E+00   -1.8916592062E+00
   -1.8900340702E+00   -1.8884117241E+00   -1.8867921608E+00   -1.8851753731E+00
   -1.8835613539E+00   -1.8819500960E+00   -1.8803415924E+00   -1.8787358361E+00
   -1.8771328199E+00   -1.8755325369E+00   -1.8739349802E+00   -1.8723401427E+00
   -1.8707480175E+00   -1.8691585976E+00   -1.8675718763E+00   -1.8659878467E+00
   -1.8644065018E+00   -1.8628278349E+00   -1.8612518392E+00   -1.8596785078E+00
   -1.8581078342E+00   -1.8565398114E+00   -1.8549744329E+00   -1.8534116919E+00
   -1.8518515818E+00   -1.8502940959E+00   -1.8487392277E+00   -1.8471869705E+00
   -1.8456373177E+00   -1.8440902628E+00   -1.8425457994E+00   -1.8410039208E+00
   -1.8394646205E+00   -1.8379278923E+00   -1.8363937295E+00   -1.8348621257E+00
   -1.8333330747E+00   -1.8318065699E+00   -1.8302826051E+00   -1.8287611739E+00
   -1.8272422700E+00   -1.8257258871E+00   -1.8242120189E+00   -1.8227006592E+00
   -1.8211918017E+00   -1.8196854403E+00   -1.8181815688E+00   -1.8166801809E+00
   -1.8151812705E+00   -1.8136848316E+00   -1.8121908580E+00   -1.8106993435E+00
   -1.8092102823E+00   -1.8077236681E+00   -1.8062394950E+00   -1.8047577570E+00
   -1.8032784480E+00   -1.8018015622E+00   -1.8003270935E+00   -1.7988550360E+00
   -1.7973853839E+00   -1.7959181312E+00   -1.7944532721E+00   -1.7929908006E+00
   -1.7915307111E+00   -1.7900729976E+00   -1.7886176543E+00   -1.7871646756E+00
   -1.7857140556E+00   -1.7842657885E+00   -1.7828198688E+00   -1.7813762906E+00
   -1.7799350483E+00   -1.7784961362E+00   -1.7770595487E+00   -1.7756252802E+00
   -1.7741933249E+00   -1.7727636775E+00   -1.7713363321E+00   -1.7699112834E+00
   -1.7684885258E+00   -1.7670680537E+00   -1.7656498617E+00   -1.7642339443E+00
   -1.7628202959E+00   -1.7614089112E+00   -1.7599997847E+00   -1.7585929110E+00
   -1.7571882847E+00   -1.7557859004E+00   -1.7543857528E+00   -1.7529878364E+00
   -1.7515921461E+00   -1.7501986764E+00   -1.7488074221E+00   -1.7474183779E+00
   -1.7460315386E+00   -1.7446468988E+00   -1.7432644533E+00   -1.7418841971E+00
   -1.7405061247E+00   -1.7391302312E+00   -1.7377565112E+00   -1.7363849597E+00
   -1.7350155715E+00   -1.7336483416E+00   -1.7322832647E+00   -1.7309203359E+00
   -1.7295595501E+00   -1.7282009021E+00   -1.7268443871E+00   -1.7254899999E+00
   -1.7241377356E+00   -1.7227875892E+00   -1.7214395557E+00   -1.7200936301E+00
   -1.7187498075E+00   -1.7174080830E+00   -1.7160684517E+00   -1.7147309087E+00
   -1.7133954490E+00   -1.7120620679E+00   -1.7107307605E+00   -1.7094015219E+00
   -1.7080743474E+00   -1.7067492321E+00   -1.7054261712E+00   -1.7041051600E+00
   -1.7027861937E+00   -1.7014692676E+00   -1.7001543769E+00   -1.6988415169E+00
   -1.6975306830E+00   -1.6962218703E+00   -1.6949150744E+00   -1.6936102904E+00
   -1.6923075138E+00   -1.6910067399E+00   -1.6897079642E+00   -1.6884111819E+00
   -1.6871163886E+00   -1.6858235796E+00   -1.6845327505E+00   -1.6832438966E+00
   -1.6819570134E+00   -1.6806720964E+00   -1.6793891411E+00   -1.6781081431E+00
   -1.6768290977E+00   -1.6755520007E+00   -1.6742768475E+00   -1.6730036337E+00
   -1.6717323548E+00   -1.6704630065E+00   -1.6691955844E+00   -1.6679300841E+00
   -1.6666665012E+00   -1.6654048314E+00   -1.6641450703E+00   -1.6628872136E+00
   -1.6616312570E+00   -1.6603771962E+00   -1.6591250268E+00   -1.6578747447E+00
   -1.6566263456E+00   -1.6553798251E+00   -1.6541351791E+00   -1.6528924034E+00
   -1.6516514936E+00   -1.6504124457E+00   -1.6491752555E+00   -1.6479399187E+00
   -1.6467064312E+00   -1.6454747889E+00   -1.6442449876E+00   -1.6430170232E+00
   -1.6417908915E+00   -1.6405665886E+00   -1.6393441102E+00   -1.6381234524E+00
   -1.6369046110E+00   -1.6356875820E+00   -1.6344723614E+00   -1.6332589451E+00
   -1.6320473291E+00   -1.6308375095E+00   -1.6296294822E+00   -1.6284232432E+00
   -1.6272187886E+00   -1.6260161144E+00   -1.6248152167E+00   -1.6236160915E+00
   -1.6224187350E+00   -1.6212231431E+00   -1.6200293121E+00   -1.6188372380E+00
   -1.6176469169E+00   -1.6164583451E+00   -1.6152715185E+00   -1.6140864335E+00
   -1.6129030861E+00   -1.6117214725E+00   -1.6105415890E+00   -1.6093634317E+00
   -1.6081869969E+00   -1.6070122808E+00   -1.6058392795E+00   -1.6046679895E+00
   -1.6034984068E+00   -1.6023305278E+00   -1.6011643488E+00   -1.5999998661E+00
   -1.5988370759E+00   -1.5976759746E+00   -1.5965165585E+00   -1.5953588239E+00
   -1.5942027672E+00   -1.5930483847E+00   -1.5918956729E+00   -1.5907446280E+00
   -1.5895952464E+00   -1.5884475246E+00   -1.5873014590E+00   -1.5861570459E+00
   -1.5850142819E+00   -1.5838731633E+00   -1.5827336866E+00   -1.5815958483E+00
   -1.5804596448E+00   -1.5793250726E+00   -1.5781921281E+00   -1.5770608080E+00
   -1.5759311087E+00   -1.5748030267E+00   -1.5736765585E+00   -1.5725517008E+00
   -1.5714284499E+00   -1.5703068026E+00   -1.5691867553E+00   -1.5680683047E+00
   -1.5669514473E+00   -1.5658361798E+00   -1.5647224987E+00   -1.5636104006E+00
   -1.5624998822E+00   -1.5613909402E+00   -1.5602835711E+00   -1.5591777716E+00
   -1.5580735385E+00   -1.5569708682E+00   -1.5558697577E+00   -1.5547702034E+00
   -1.5536722023E+00   -1.5525757508E+00   -1.5514808459E+00   -1.5503874841E+00
   -1.5492956623E+00   -1.5482053772E+00   -1.5471166255E+00   -1.5460294041E+00
   -1.5449437096E+00   -1.5438595390E+00   -1.5427768889E+00   -1.5416957561E+00
   -1.5406161376E+00   -1.5395380301E+00   -1.5384614304E+00   -1.5373863354E+00
   -1.5363127420E+00   -1.5352406469E+00   -1.5341700471E+00   -1.5331009394E+00
   -1.5320333207E+00   -1.5309671879E+00   -1.5299025379E+00   -1.5288393676E+00
   -1.5277776739E+00   -1.5267174538E+00   -1.5256587042E+00   -1.5246014220E+00
   -1.5235456041E+00   -1.5224912477E+00   -1.5214383495E+00   -1.5203869066E+00
   -1.5193369160E+00   -1.5182883746E+00   -1.5172412795E+00   -1.5161956277E+00
   -1.5151514161E+00   -1.5141086419E+00   -1.5130673020E+00   -1.5120273935E+00
   -1.5109889135E+00   -1.5099518590E+00   -1.5089162270E+00   -1.5078820147E+00
   -1.5068492191E+00   -1.5058178374E+00   -1.5047878665E+00   -1.5037593037E+00
   -1.5027321460E+00   -1.5017063906E+00   -1.5006820346E+00   -1.4996590751E+00
   -1.4986375092E+00   -1.4976173342E+00   -1.4965985472E+00   -1.4955811454E+00
   -1.4945651259E+00   -1.4935504859E+00   -1.4925372227E+00   -1.4915253333E+00
   -1.4905148151E+00   -1.4895056652E+00   -1.4884978809E+00   -1.4874914594E+00
   -1.4864863979E+00   -1.4854826937E+00   -1.4844803439E+00   -1.4834793460E+00
   -1.4824796972E+00   -1.4814813946E+00   -1.4804844357E+00   -1.4794888177E+00
   -1.4784945378E+00   -1.4775015935E+00   -1.4765099820E+00   -1.4755197006E+00
   -1.4745307466E+00   -1.4735431175E+00   -1.4725568105E+00   -1.4715718229E+00
   -1.4705881522E+00   -1.4696057956E+00   -1.4686247507E+00   -1.4676450146E+00
   -1.4666665849E+00   -1.4656894589E+00   -1.4647136339E+00   -1.4637391075E+00
   -1.4627658770E+00   -1.4617939398E+00   -1.4608232933E+00   -1.4598539351E+00
   -1.4588858625E+00   -1.4579190729E+00   -1.4569535638E+00   -1.4559893327E+00
   -1.4550263771E+00   -1.4540646944E+00   -1.4531042820E+00   -1.4521451375E+00
   -1.4511872584E+00   -1.4502306422E+00   -1.4492752863E+00   -1.4483211882E+00
   -1.4473683456E+00   -1.4464167559E+00   -1.4454664166E+00   -1.4445173253E+00
   -1.4435694796E+00   -1.4426228769E+00   -1.4416775148E+00   -1.4407333910E+00
   -1.4397905029E+00   -1.4388488481E+00   -1.4379084243E+00   -1.4369692290E+00
   -1.4360312597E+00   -1.4350945142E+00   -1.4341589900E+00   -1.4332246847E+00
   -1.4322915960E+00   -1.4313597214E+00   -1.4304290586E+00   -1.4294996053E+00
   -1.4285713590E+00   -1.4276443175E+00   -1.4267184784E+00   -1.4257938393E+00
   -1.4248703979E+00   -1.4239481519E+00   -1.4230270990E+00   -1.4221072369E+00
   -1.4211885632E+00   -1.4202710756E+00   -1.4193547720E+00   -1.4184396498E+00
   -1.4175257070E+00   -1.4166129411E+00   -1.4157013500E+00   -1.4147909314E+00
   -1.4138816829E+00   -1.4129736025E+00   -1.4120666877E+00   -1.4111609363E+00
   -1.4102563462E+00   -1.4093529151E+00   -1.4084506407E+00   -1.4075495209E+00
   -1.4066495534E+00   -1.4057507360E+00   -1.4048530665E+00   -1.4039565427E+00
   -1.4030611625E+00   -1.4021669236E+00   -1.4012738239E+00   -1.4003818611E+00
   -1.3994910332E+00   -1.3986013379E+00   -1.3977127731E+00   -1.3968253366E+00
   -1.3959390263E+00   -1.3950538401E+00   -1.3941697758E+00   -1.3932868312E+00
   -1.3924050043E+00   -1.3915242930E+00   -1.3906446950E+00   -1.3897662084E+00
   -1.3888888309E+00   -1.3880125606E+00   -1.3871373952E+00   -1.3862633328E+00
   -1.3853903712E+00   -1.3845185084E+00   -1.3836477422E+00   -1.3827780707E+00
   -1.3819094917E+00   -1.3810420032E+00   -1.3801756031E+00   -1.3793102895E+00
   -1.3784460602E+00   -1.3775829132E+00   -1.3767208465E+00   -1.3758598580E+00
   -1.3749999458E+00   -1.3741411078E+00   -1.3732833420E+00   -1.3724266464E+00
   -1.3715710190E+00   -1.3707164578E+00   -1.3698629609E+00   -1.3690105261E+00
   -1.3681591516E+00   -1.3673088353E+00   -1.3664595754E+00   -1.3656113698E+00
   -1.3647642165E+00   -1.3639181136E+00   -1.3630730592E+00   -1.3622290513E+00
   -1.3613860880E+00   -1.3605441673E+00   -1.3597032873E+00   -1.3588634460E+00
   -1.3580246416E+00   -1.3571868721E+00   -1.3563501356E+00   -1.3555144302E+00
   -1.3546797540E+00   -1.3538461051E+00   -1.3530134816E+00   -1.3521818816E+00
   -1.3513513033E+00   -1.3505217446E+00   -1.3496932039E+00   -1.3488656791E+00
   -1.3480391684E+00   -1.3472136700E+00   -1.3463891821E+00   -1.3455657026E+00
   -1.3447432299E+00   -1.3439217620E+00   -1.3431012971E+00   -1.3422818334E+00
   -1.3414633690E+00   -1.3406459022E+00   -1.3398294310E+00   -1.3390139538E+00
   -1.3381994686E+00   -1.3373859736E+00   -1.3365734671E+00   -1.3357619473E+00
   -1.3349514123E+00   -1.3341418603E+00   -1.3333332897E+00   -1.3325256985E+00
   -1.3317190851E+00   -1.3309134475E+00   -1.3301087842E+00   -1.3293050933E+00
   -1.3285023730E+00   -1.3277006215E+00   -1.3268998372E+00   -1.3261000183E+00
   -1.3253011631E+00   -1.3245032697E+00   -1.3237063365E+00   -1.3229103617E+00
   -1.3221153436E+00   -1.3213212805E+00   -1.3205281706E+00   -1.3197360123E+00
   -1.3189448039E+00   -1.3181545435E+00   -1.3173652296E+00   -1.3165768603E+00
   -1.3157894341E+00   -1.3150029493E+00   -1.3142174041E+00   -1.3134327968E+00
   -1.3126491259E+00   -1.3118663895E+00   -1.3110845861E+00   -1.3103037139E+00
   -1.3095237714E+00   -1.3087447568E+00   -1.3079666685E+00   -1.3071895049E+00
   -1.3064132642E+00   -1.3056379450E+00   -1.3048635454E+00   -1.3040900639E+00
   -1.3033174988E+00   -1.3025458486E+00   -1.3017751115E+00   -1.3010052861E+00
   -1.3002363706E+00   -1.2994683634E+00   -1.2987012630E+00   -1.2979350677E+00
   -1.2971697760E+00   -1.2964053861E+00   -1.2956418966E+00   -1.2948793059E+00
   -1.2941176124E+00   -1.2933568144E+00   -1.2925969104E+00   -1.2918378988E+00
   -1.2910797782E+00   -1.2903225468E+00   -1.2895662031E+00   -1.2888107456E+00
   -1.2880561727E+00   -1.2873024829E+00   -1.2865496745E+00   -1.2857977462E+00
   -1.2850466962E+00   -1.2842965232E+00   -1.2835472254E+00   -1.2827988015E+00
   -1.2820512499E+00   -1.2813045691E+00   -1.2805587575E+00   -1.2798138136E+00
   -1.2790697360E+00   -1.2783265230E+00   -1.2775841732E+00   -1.2768426852E+00
   -1.2761020573E+00   -1.2753622881E+00   -1.2746233762E+00   -1.2738853199E+00
   -1.2731481179E+00   -1.2724117686E+00   -1.2716762706E+00   -1.2709416224E+00
   -1.2702078226E+00   -1.2694748695E+00   -1.2687427619E+00   -1.2680114982E+00
   -1.2672810770E+00   -1.2665514967E+00   -1.2658227561E+00   -1.2650948535E+00
   -1.2643677877E+00   -1.2636415570E+00   -1.2629161601E+00   -1.2621915956E+00
   -1.2614678621E+00   -1.2607449580E+00   -1.2600228819E+00   -1.2593016326E+00
   -1.2585812084E+00   -1.2578616081E+00   -1.2571428302E+00   -1.2564248732E+00
   -1.2557077359E+00   -1.2549914167E+00   -1.2542759143E+00   -1.2535612273E+00
   -1.2528473543E+00   -1.2521342939E+00   -1.2514220447E+00   -1.2507106054E+00
   -1.2499999745E+00   -1.2492901506E+00   -1.2485811325E+00   -1.2478729187E+00
   -1.2471655079E+00   -1.2464588987E+00
  </PP_LOCAL>
 <PP_NONLOCAL>
   <PP_BETA.1
       type="real"
       size="1766"
       columns="4"
       index="1"
       angular_momentum="0"
       cutoff_radius_index=" 244"
       cutoff_radius="    2.4300000000E+00" >
    1.5470402737E-12    4.3263345983E-02    8.6480318863E-02    1.2960460128E-01
    1.7258998735E-01    2.1539043828E-01    2.5796013800E-01    3.0025354859E-01
    3.4222546557E-01    3.8383107305E-01    4.2502599862E-01    4.6576636797E-01
    5.0600885930E-01    5.4571075722E-01    5.8483000642E-01    6.2332526482E-01
    6.6115595618E-01    6.9828232225E-01    7.3466547420E-01    7.7026744342E-01
    8.0505123154E-01    8.3898085962E-01    8.7202141641E-01    9.0413910566E-01
    9.3530129229E-01    9.6547654749E-01    9.9463469242E-01    1.0227468407E+00
    1.0497854396E+00    1.0757243089E+00    1.1005386794E+00    1.1242052288E+00
    1.1467021158E+00    1.1680090124E+00    1.1881071345E+00    1.2069792700E+00
    1.2246098046E+00    1.2409847456E+00    1.2560917432E+00    1.2699201095E+00
    1.2824608342E+00    1.2937065988E+00    1.3036517873E+00    1.3122924946E+00
    1.3196265313E+00    1.3256534268E+00    1.3303744286E+00    1.3337924990E+00
    1.3359123089E+00    1.3367402280E+00    1.3362843132E+00    1.3345542928E+00
    1.3315615484E+00    1.3273190934E+00    1.3218415491E+00    1.3151451175E+00
    1.3072475511E+00    1.2981681202E+00    1.2879275778E+00    1.2765481205E+00
    1.2640533486E+00    1.2504682222E+00    1.2358190158E+00    1.2201332703E+00
    1.2034397425E+00    1.1857683534E+00    1.1671501335E+00    1.1476171669E+00
    1.1272025341E+00    1.1059402520E+00    1.0838652140E+00    1.0610131278E+00
    1.0374204525E+00    1.0131243348E+00    9.8816254441E-01    9.6257340859E-01
    9.3639574643E-01    9.0966880281E-01    8.8243218206E-01    8.5472578164E-01
    8.2658972600E-01    7.9806430060E-01    7.6918988642E-01    7.4000689494E-01
    7.1055570385E-01    6.8087659348E-01    6.5100968425E-01    6.2099487501E-01
    5.9087178268E-01    5.6067968299E-01    5.3045745265E-01    5.0024351289E-01
    4.7007577458E-01    4.3999158483E-01    4.1002767537E-01    3.8022011258E-01
    3.5060424927E-01    3.2121467838E-01    2.9208518845E-01    2.6324872109E-01
    2.3473733032E-01    2.0658214392E-01    1.7881332675E-01    1.5146004611E-01
    1.2455043909E-01    9.8111581955E-02    7.2169461573E-02    4.6748948896E-02
    2.1873774445E-02   -2.4334941420E-03   -2.6151472551E-02   -4.9259978202E-02
   -7.1740046653E-02   -9.3573945990E-02   -1.1474518923E-01   -1.3523854476E-01
   -1.5504004475E-01   -1.7413699166E-01   -1.9251796277E-01   -2.1017281277E-01
   -2.2709267443E-01   -2.4326995732E-01   -2.5869834465E-01   -2.7337278816E-01
   -2.8728950119E-01   -3.0044594974E-01   -3.1284084176E-01   -3.2447411446E-01
   -3.3534691987E-01   -3.4546160838E-01   -3.5482171057E-01   -3.6343191709E-01
   -3.7129805675E-01   -3.7842707280E-01   -3.8482699731E-01   -3.9050692388E-01
   -3.9547697848E-01   -3.9974828861E-01   -4.0333295062E-01   -4.0624399552E-01
   -4.0849535293E-01   -4.1010181359E-01   -4.1107899017E-01   -4.1144327667E-01
   -4.1121180623E-01   -4.1040240773E-01   -4.0903356088E-01   -4.0712435017E-01
   -4.0469441769E-01   -4.0176391476E-01   -3.9835345272E-01   -3.9448405282E-01
   -3.9017709529E-01   -3.8545426792E-01   -3.8033751400E-01   -3.7484898001E-01
   -3.6901096301E-01   -3.6284585798E-01   -3.5637610521E-01   -3.4962413793E-01
   -3.4261233031E-01   -3.3536294601E-01   -3.2789808744E-01   -3.2023964590E-01
   -3.1240925274E-01   -3.0442823174E-01   -2.9631755292E-01   -2.8809778779E-01
   -2.7978906641E-01   -2.7141103628E-01   -2.6298282322E-01   -2.5452299446E-01
   -2.4604952407E-01   -2.3757976076E-01   -2.2913039837E-01   -2.2071744896E-01
   -2.1235621878E-01   -2.0406128709E-01   -1.9584648803E-01   -1.8772489549E-01
   -1.7970881115E-01   -1.7180975569E-01   -1.6403846317E-01   -1.5640487865E-01
   -1.4891815902E-01   -1.4158667704E-01   -1.3441802856E-01   -1.2741904285E-01
   -1.2059579599E-01   -1.1395362727E-01   -1.0749715849E-01   -1.0123031596E-01
   -9.5156355275E-02   -8.9277888514E-02   -8.3596913834E-02   -7.8114847263E-02
   -7.2832556493E-02   -6.7750396505E-02   -6.2868246809E-02   -5.8185550085E-02
   -5.3701352017E-02   -4.9414342072E-02   -4.5322895006E-02   -4.1425112840E-02
   -3.7718867074E-02   -3.4201840882E-02   -3.0871571045E-02   -2.7725489378E-02
   -2.4760963381E-02   -2.1975335791E-02   -1.9365963486E-02   -1.6930252494E-02
   -1.4665688572E-02   -1.2569863649E-02   -1.0640532520E-02   -8.8757728487E-03
   -7.2740033996E-03   -5.8335097436E-03   -4.5528556528E-03   -3.4309881265E-03
   -2.4672225913E-03   -1.6612664780E-03   -1.0135270905E-03   -5.2307556757E-04
   -1.9232170910E-04   -3.1224029200E-05    7.2269933604E-06   -6.7511525301E-07
   -1.0907264718E-06    3.7905951606E-07   -2.4081977790E-12   -2.8376102524E-14
    0.0000000000E+00    0.0000000000E+00    0.0000000000E+00    0.0000000000E+00
    0.0000000000E+00    0.0000000000E+00    0.0000000000E+00    0.0000000000E+00
    0.0000000000E+00    0.0000000000E+00    0.0000000000E+00    0.0000000000E+00
 0. 0. 0. 0.
 0. 0. 0. 0.
 0. 0. 0. 0.
 0. 0. 0. 0.
 0. 0. 0. 0.
 0. 0. 0. 0.
 0. 0. 0. 0.
 0. 0. 0. 0.
 0. 0. 0. 0.
 0. 0. 0. 0.
 0. 0. 0. 0.
 0. 0. 0. 0.
 0. 0. 0. 0.
 0. 0. 0. 0.
 0. 0. 0. 0.
 0. 0. 0. 0.
 0. 0. 0. 0.
 0. 0. 0. 0.
 0. 0. 0. 0.
 0. 0. 0. 0.
 0. 0. 0. 0.
 0. 0. 0. 0.
 0. 0. 0. 0.
 0. 0. 0. 0.
 0. 0. 0. 0.
 0. 0. 0. 0.
 0. 0. 0. 0.
 0. 0. 0. 0.
 0. 0. 0. 0.
 0. 0. 0. 0.
 0. 0. 0. 0.
 0. 0. 0. 0.
 0. 0. 0. 0.
 0. 0. 0. 0.
 0. 0. 0. 0.
 0. 0. 0. 0.
 0. 0. 0. 0.
 0. 0. 0. 0.
 0. 0. 0. 0.
 0. 0. 0. 0.
 0. 0. 0. 0.
 0. 0. 0. 0.
 0. 0. 0. 0.
 0. 0. 0. 0.
 0. 0. 0. 0.
 0. 0. 0. 0.
 0. 0. 0. 0.
 0. 0. 0. 0.
 0. 0. 0. 0.
 0. 0. 0. 0.
 0. 0. 0. 0.
 0. 0. 0. 0.
 0. 0. 0. 0.
 0. 0. 0. 0.
 0. 0. 0. 0.
 0. 0. 0. 0.
 0. 0. 0. 0.
 0. 0. 0. 0.
 0. 0. 0. 0.
 0. 0. 0. 0.
 0. 0. 0. 0.
 0. 0. 0. 0.
 0. 0. 0. 0.
 0. 0. 0. 0.
 0. 0. 0. 0.
 0. 0. 0. 0.
 0. 0. 0. 0.
 0. 0. 0. 0.
 0. 0. 0. 0.
 0. 0. 0. 0.
 0. 0. 0. 0.
 0. 0. 0. 0.
 0. 0. 0. 0.
 0. 0. 0. 0.
 0. 0. 0. 0.
 0. 0. 0. 0.
 0. 0. 0. 0.
 0. 0. 0. 0.
 0. 0. 0. 0.
 0. 0. 0. 0.
 0. 0. 0. 0.
 0. 0. 0. 0.
 0. 0. 0. 0.
 0. 0. 0. 0.
 0. 0. 0. 0.
 0. 0. 0. 0.
 0. 0. 0. 0.
 0. 0. 0. 0.
 0. 0. 0. 0.
 0. 0. 0. 0.
 0. 0. 0. 0.
 0. 0. 0. 0.
 0. 0. 0. 0.
 0. 0. 0. 0.
 0. 0. 0. 0.
 0. 0. 0. 0.
 0. 0. 0. 0.
 0. 0. 0. 0.
 0. 0. 0. 0.
 0. 0. 0. 0.
 0. 0. 0. 0.
 0. 0. 0. 0.
 0. 0. 0. 0.
 0. 0. 0. 0.
 0. 0. 0. 0.
 0. 0. 0. 0.
 0. 0. 0. 0.
 0. 0. 0. 0.
 0. 0. 0. 0.
 0. 0. 0. 0.
 0. 0. 0. 0.
 0. 0. 0. 0.
 0. 0. 0. 0.
 0. 0. 0. 0.
 0. 0. 0. 0.
 0. 0. 0. 0.
 0. 0. 0. 0.
 0. 0. 0. 0.
 0. 0. 0. 0.
 0. 0. 0. 0.
 0. 0. 0. 0.
 0. 0. 0. 0.
 0. 0. 0. 0.
 0. 0. 0. 0.
 0. 0. 0. 0.
 0. 0. 0. 0.
 0. 0. 0. 0.
 0. 0. 0. 0.
 0. 0. 0. 0.
 0. 0. 0. 0.
 0. 0. 0. 0.
 0. 0. 0. 0.
 0. 0. 0. 0.
 0. 0. 0. 0.
 0. 0. 0. 0.
 0. 0. 0. 0.
 0. 0. 0. 0.
 0. 0. 0. 0.
 0. 0. 0. 0.
 0. 0. 0. 0.
 0. 0. 0. 0.
 0. 0. 0. 0.
 0. 0. 0. 0.
 0. 0. 0. 0.
 0. 0. 0. 0.
 0. 0. 0. 0.
 0. 0. 0. 0.
 0. 0. 0. 0.
 0. 0. 0. 0.
 0. 0. 0. 0.
 0. 0. 0. 0.
 0. 0. 0. 0.
 0. 0. 0. 0.
 0. 0. 0. 0.
 0. 0. 0. 0.
 0. 0. 0. 0.
 0. 0. 0. 0.
 0. 0. 0. 0.
 0. 0. 0. 0.
 0. 0. 0. 0.
 0. 0. 0. 0.
 0. 0. 0. 0.
 0. 0. 0. 0.
 0. 0. 0. 0.
 0. 0. 0. 0.
 0. 0. 0. 0.
 0. 0. 0. 0.
 0. 0. 0. 0.
 0. 0. 0. 0.
 0. 0. 0. 0.
 0. 0. 0. 0.
 0. 0. 0. 0.
 0. 0. 0. 0.
 0. 0. 0. 0.
 0. 0. 0. 0.
 0. 0. 0. 0.
 0. 0. 0. 0.
 0. 0. 0. 0.
 0. 0. 0. 0.
 0. 0. 0. 0.
 0. 0. 0. 0.
 0. 0. 0. 0.
 0. 0. 0. 0.
 0. 0. 0. 0.
 0. 0. 0. 0.
 0. 0. 0. 0.
 0. 0. 0. 0.
 0. 0. 0. 0.
 0. 0. 0. 0.
 0. 0. 0. 0.
 0. 0. 0. 0.
 0. 0. 0. 0.
 0. 0. 0. 0.
 0. 0. 0. 0.
 0. 0. 0. 0.
 0. 0. 0. 0.
 0. 0. 0. 0.
 0. 0. 0. 0.
 0. 0. 0. 0.
 0. 0. 0. 0.
 0. 0. 0. 0.
 0. 0. 0. 0.
 0. 0. 0. 0.
 0. 0. 0. 0.
 0. 0. 0. 0.
 0. 0. 0. 0.
 0. 0. 0. 0.
 0. 0. 0. 0.
 0. 0. 0. 0.
 0. 0. 0. 0.
 0. 0. 0. 0.
 0. 0. 0. 0.
 0. 0. 0. 0.
 0. 0. 0. 0.
 0. 0. 0. 0.
 0. 0. 0. 0.
 0. 0. 0. 0.
 0. 0. 0. 0.
 0. 0. 0. 0.
 0. 0. 0. 0.
 0. 0. 0. 0.
 0. 0. 0. 0.
 0. 0. 0. 0.
 0. 0. 0. 0.
 0. 0. 0. 0.
 0. 0. 0. 0.
 0. 0. 0. 0.
 0. 0. 0. 0.
 0. 0. 0. 0.
 0. 0. 0. 0.
 0. 0. 0. 0.
 0. 0. 0. 0.
 0. 0. 0. 0.
 0. 0. 0. 0.
 0. 0. 0. 0.
 0. 0. 0. 0.
 0. 0. 0. 0.
 0. 0. 0. 0.
 0. 0. 0. 0.
 0. 0. 0. 0.
 0. 0. 0. 0.
 0. 0. 0. 0.
 0. 0. 0. 0.
 0. 0. 0. 0.
 0. 0. 0. 0.
 0. 0. 0. 0.
 0. 0. 0. 0.
 0. 0. 0. 0.
 0. 0. 0. 0.
 0. 0. 0. 0.
 0. 0. 0. 0.
 0. 0. 0. 0.
 0. 0. 0. 0.
 0. 0. 0. 0.
 0. 0. 0. 0.
 0. 0. 0. 0.
 0. 0. 0. 0.
 0. 0. 0. 0.
 0. 0. 0. 0.
 0. 0. 0. 0.
 0. 0. 0. 0.
 0. 0. 0. 0.
 0. 0. 0. 0.
 0. 0. 0. 0.
 0. 0. 0. 0.
 0. 0. 0. 0.
 0. 0. 0. 0.
 0. 0. 0. 0.
 0. 0. 0. 0.
 0. 0. 0. 0.
 0. 0. 0. 0.
 0. 0. 0. 0.
 0. 0. 0. 0.
 0. 0. 0. 0.
 0. 0. 0. 0.
 0. 0. 0. 0.
 0. 0. 0. 0.
 0. 0. 0. 0.
 0. 0. 0. 0.
 0. 0. 0. 0.
 0. 0. 0. 0.
 0. 0. 0. 0.
 0. 0. 0. 0.
 0. 0. 0. 0.
 0. 0. 0. 0.
 0. 0. 0. 0.
 0. 0. 0. 0.
 0. 0. 0. 0.
 0. 0. 0. 0.
 0. 0. 0. 0.
 0. 0. 0. 0.
 0. 0. 0. 0.
 0. 0. 0. 0.
 0. 0. 0. 0.
 0. 0. 0. 0.
 0. 0. 0. 0.
 0. 0. 0. 0.
 0. 0. 0. 0.
 0. 0. 0. 0.
 0. 0. 0. 0.
 0. 0. 0. 0.
 0. 0. 0. 0.
 0. 0. 0. 0.
 0. 0. 0. 0.
 0. 0. 0. 0.
 0. 0. 0. 0.
 0. 0. 0. 0.
 0. 0. 0. 0.
 0. 0. 0. 0.
 0. 0. 0. 0.
 0. 0. 0. 0.
 0. 0. 0. 0.
 0. 0. 0. 0.
 0. 0. 0. 0.
 0. 0. 0. 0.
 0. 0. 0. 0.
 0. 0. 0. 0.
 0. 0. 0. 0.
 0. 0. 0. 0.
 0. 0. 0. 0.
 0. 0. 0. 0.
 0. 0. 0. 0.
 0. 0. 0. 0.
 0. 0. 0. 0.
 0. 0. 0. 0.
 0. 0. 0. 0.
 0. 0. 0. 0.
 0. 0. 0. 0.
 0. 0. 0. 0.
 0. 0. 0. 0.
 0. 0. 0. 0.
 0. 0. 0. 0.
 0. 0. 0. 0.
 0. 0. 0. 0.
 0. 0. 0. 0.
 0. 0. 0. 0.
 0. 0. 0. 0.
 0. 0. 0. 0.
 0. 0. 0. 0.
 0. 0. 0. 0.
 0. 0. 0. 0.
 0. 0. 0. 0.
 0. 0. 0. 0.
 0. 0. 0. 0.
 0. 0. 0. 0.
 0. 0. 0. 0.
 0. 0. 0. 0.
 0. 0. 0. 0.
 0. 0. 0. 0.
 0. 0. 0. 0.
 0. 0. 0. 0.
 0. 0. 0. 0.
 0. 0. 0. 0.
 0. 0. 0. 0.
 0. 0. 0. 0.
 0. 0. 0. 0.
 0. 0. 0. 0.
 0. 0. 0. 0.
 0. 0. 0. 0.
 0. 0. 0. 0.
 0. 0. 0. 0.
 0. 0. 0. 0.
 0. 0. 0. 0.
 0. 0. 0. 0.
 0. 0. 0. 0.
 0. 0. 0. 0.
 0. 0. 0. 0.
 0. 0. 0. 0.
 0. 0. 0. 0.
 0. 0. 0. 0.
 0. 0. 0. 0.
 0. 0. 0. 0.
 0. 0. 0. 0.
 0. 0. 0. 0.
 0. 0. 0. 0.
 0. 0. 0. 0.
 0. 0. 0. 0.
 0. 0. 0. 0.
 0. 0. 0. 0.
 0. 0. 0. 0.
 0. 0.
   </PP_BETA.1>
   <PP_BETA.2
       type="real"
       size="1766"
       columns="4"
       index="2"
       angular_momentum="0"
       cutoff_radius_index=" 244"
       cutoff_radius="    2.4300000000E+00" >
    8.4951823354E-11    2.6704719595E-02    5.3371547041E-02    7.9962446106E-02
    1.0643909468E-01    1.3276274753E-01    1.5889410577E-01    1.8479319532E-01
    2.1041925630E-01    2.3573064535E-01    2.6068475280E-01    2.8523793623E-01
    3.0934547217E-01    3.3296152710E-01    3.5603914901E-01    3.7853028060E-01
    4.0038579472E-01    4.2155555268E-01    4.4198848580E-01    4.6163270022E-01
    4.8043560486E-01    4.9834406218E-01    5.1530456116E-01    5.3126341154E-01
    5.4616695845E-01    5.5996181604E-01    5.7259511867E-01    5.8401478799E-01
    5.9416981406E-01    6.0301054849E-01    6.1048900746E-01    6.1655918220E-01
    6.2117735470E-01    6.2430241600E-01    6.2589618446E-01    6.2592372149E-01
    6.2435364196E-01    6.2115841670E-01    6.1631466429E-01    6.0980342974E-01
    6.0161044723E-01    5.9172638473E-01    5.8014706784E-01    5.6687368078E-01
    5.5191294242E-01    5.3527725538E-01    5.1698482636E-01    4.9705975639E-01
    4.7553209942E-01    4.5243788829E-01    4.2781912709E-01    4.0172374950E-01
    3.7420554244E-01    3.4532403523E-01    3.1514435421E-01    2.8373704334E-01
    2.5117785144E-01    2.1754748706E-01    1.8293134207E-01    1.4741918560E-01
    1.1110482984E-01    7.4085769756E-02    3.6462798719E-02   -1.6603975164E-03
   -4.0177666053E-02   -7.8980828638E-02   -1.1796013718E-01   -1.5700474011E-01
   -1.9600315653E-01   -2.3484375508E-01   -2.7341523446E-01   -3.1160710232E-01
   -3.4931014945E-01   -3.8641691612E-01   -4.2282214758E-01   -4.5842323546E-01
   -4.9312064258E-01   -5.2681830794E-01   -5.5942402968E-01   -5.9084982327E-01
   -6.2101225271E-01   -6.4983273284E-01   -6.7723780065E-01   -7.0315935425E-01
   -7.2753485798E-01   -7.5030751258E-01   -7.7142638974E-01   -7.9084653034E-01
   -8.0852900617E-01   -8.2444094527E-01   -8.3855552100E-01   -8.5085190565E-01
   -8.6131518932E-01   -8.6993626532E-01   -8.7671168338E-01   -8.8164347250E-01
   -8.8473893514E-01   -8.8601041499E-01   -8.8547504061E-01   -8.8315444740E-01
   -8.7907448056E-01   -8.7326488184E-01   -8.6575896307E-01   -8.5659326922E-01
   -8.4580723439E-01   -8.3344283345E-01   -8.1954423279E-01   -8.0415744299E-01
   -7.8732997655E-01   -7.6911051375E-01   -7.4954857928E-01   -7.2869423268E-01
   -7.0659777488E-01   -6.8330947359E-01   -6.5887930955E-01   -6.3335674574E-01
   -6.0679052146E-01   -5.7922847261E-01   -5.5071737976E-01   -5.2130284473E-01
   -4.9102919666E-01   -4.5993942785E-01   -4.2807515969E-01   -3.9547663838E-01
   -3.6218276007E-01   -3.2823112470E-01   -2.9365811752E-01   -2.5849901692E-01
   -2.2278812709E-01   -1.8655893362E-01   -1.4984427996E-01   -1.1267656248E-01
   -7.5087941657E-02   -3.7110566568E-02    1.2231899558E-03    3.9880488655E-02
    7.8827776649E-02    1.1803053891E-01    1.5745305161E-01    1.9705814062E-01
    2.3680694834E-01    2.7665871207E-01    3.1657055708E-01    3.5649730740E-01
    3.9639131722E-01    4.3620232564E-01    4.7587733747E-01    5.1536053224E-01
    5.5459320380E-01    5.9351373218E-01    6.3205758955E-01    6.7015738140E-01
    7.0774292414E-01    7.4474135973E-01    7.8107730773E-01    8.1667305490E-01
    8.5144878188E-01    8.8532282647E-01    9.1821198248E-01    9.5003183273E-01
    9.8069711469E-01    1.0101221167E+00    1.0382211022E+00    1.0649087605E+00
    1.0901006789E+00    1.1137138362E+00    1.1356671114E+00    1.1558818053E+00
    1.1742821719E+00    1.1907959538E+00    1.2053549196E+00    1.2178953979E+00
    1.2283588039E+00    1.2366921552E+00    1.2428485710E+00    1.2467877531E+00
    1.2484764413E+00    1.2478888424E+00    1.2450070273E+00    1.2398212922E+00
    1.2323304827E+00    1.2225422744E+00    1.2104734103E+00    1.1961498901E+00
    1.1796071105E+00    1.1608899537E+00    1.1400528229E+00    1.1171596242E+00
    1.0922836929E+00    1.0655076646E+00    1.0369232914E+00    1.0066312026E+00
    9.7474061249E-01    9.4136897442E-01    9.0664158460E-01    8.7069113699E-01
    8.3365723183E-01    7.9568584088E-01    7.5692873249E-01    7.1754286017E-01
    6.7768971853E-01    6.3753467080E-01    5.9724625238E-01    5.5699545513E-01
    5.1695499727E-01    4.7729858389E-01    4.3820016330E-01    3.9983318546E-01
    3.6236986741E-01    3.2598042345E-01    2.9083253141E-01    2.5709007819E-01
    2.2491039302E-01    1.9444176448E-01    1.6582211854E-01    1.3917427541E-01
    1.1460533219E-01    9.2222381899E-02    7.2121140964E-02    5.4383127809E-02
    3.9076162106E-02    2.6253835335E-02    1.5959701566E-02    8.1959670454E-03
    2.9944888406E-03    4.8214468311E-04   -1.1115594321E-04    1.0434058037E-05
    1.6843265856E-05   -5.8908127615E-06   -1.6127810808E-10   -1.9003605807E-12
    0.0000000000E+00    0.0000000000E+00    0.0000000000E+00    0.0000000000E+00
    0.0000000000E+00    0.0000000000E+00    0.0000000000E+00    0.0000000000E+00
    0.0000000000E+00    0.0000000000E+00    0.0000000000E+00    0.0000000000E+00
 0. 0. 0. 0.
 0. 0. 0. 0.
 0. 0. 0. 0.
 0. 0. 0. 0.
 0. 0. 0. 0.
 0. 0. 0. 0.
 0. 0. 0. 0.
 0. 0. 0. 0.
 0. 0. 0. 0.
 0. 0. 0. 0.
 0. 0. 0. 0.
 0. 0. 0. 0.
 0. 0. 0. 0.
 0. 0. 0. 0.
 0. 0. 0. 0.
 0. 0. 0. 0.
 0. 0. 0. 0.
 0. 0. 0. 0.
 0. 0. 0. 0.
 0. 0. 0. 0.
 0. 0. 0. 0.
 0. 0. 0. 0.
 0. 0. 0. 0.
 0. 0. 0. 0.
 0. 0. 0. 0.
 0. 0. 0. 0.
 0. 0. 0. 0.
 0. 0. 0. 0.
 0. 0. 0. 0.
 0. 0. 0. 0.
 0. 0. 0. 0.
 0. 0. 0. 0.
 0. 0. 0. 0.
 0. 0. 0. 0.
 0. 0. 0. 0.
 0. 0. 0. 0.
 0. 0. 0. 0.
 0. 0. 0. 0.
 0. 0. 0. 0.
 0. 0. 0. 0.
 0. 0. 0. 0.
 0. 0. 0. 0.
 0. 0. 0. 0.
 0. 0. 0. 0.
 0. 0. 0. 0.
 0. 0. 0. 0.
 0. 0. 0. 0.
 0. 0. 0. 0.
 0. 0. 0. 0.
 0. 0. 0. 0.
 0. 0. 0. 0.
 0. 0. 0. 0.
 0. 0. 0. 0.
 0. 0. 0. 0.
 0. 0. 0. 0.
 0. 0. 0. 0.
 0. 0. 0. 0.
 0. 0. 0. 0.
 0. 0. 0. 0.
 0. 0. 0. 0.
 0. 0. 0. 0.
 0. 0. 0. 0.
 0. 0. 0. 0.
 0. 0. 0. 0.
 0. 0. 0. 0.
 0. 0. 0. 0.
 0. 0. 0. 0.
 0. 0. 0. 0.
 0. 0. 0. 0.
 0. 0. 0. 0.
 0. 0. 0. 0.
 0. 0. 0. 0.
 0. 0. 0. 0.
 0. 0. 0. 0.
 0. 0. 0. 0.
 0. 0. 0. 0.
 0. 0. 0. 0.
 0. 0. 0. 0.
 0. 0. 0. 0.
 0. 0. 0. 0.
 0. 0. 0. 0.
 0. 0. 0. 0.
 0. 0. 0. 0.
 0. 0. 0. 0.
 0. 0. 0. 0.
 0. 0. 0. 0.
 0. 0. 0. 0.
 0. 0. 0. 0.
 0. 0. 0. 0.
 0. 0. 0. 0.
 0. 0. 0. 0.
 0. 0. 0. 0.
 0. 0. 0. 0.
 0. 0. 0. 0.
 0. 0. 0. 0.
 0. 0. 0. 0.
 0. 0. 0. 0.
 0. 0. 0. 0.
 0. 0. 0. 0.
 0. 0. 0. 0.
 0. 0. 0. 0.
 0. 0. 0. 0.
 0. 0. 0. 0.
 0. 0. 0. 0.
 0. 0. 0. 0.
 0. 0. 0. 0.
 0. 0. 0. 0.
 0. 0. 0. 0.
 0. 0. 0. 0.
 0. 0. 0. 0.
 0. 0. 0. 0.
 0. 0. 0. 0.
 0. 0. 0. 0.
 0. 0. 0. 0.
 0. 0. 0. 0.
 0. 0. 0. 0.
 0. 0. 0. 0.
 0. 0. 0. 0.
 0. 0. 0. 0.
 0. 0. 0. 0.
 0. 0. 0. 0.
 0. 0. 0. 0.
 0. 0. 0. 0.
 0. 0. 0. 0.
 0. 0. 0. 0.
 0. 0. 0. 0.
 0. 0. 0. 0.
 0. 0. 0. 0.
 0. 0. 0. 0.
 0. 0. 0. 0.
 0. 0. 0. 0.
 0. 0. 0. 0.
 0. 0. 0. 0.
 0. 0. 0. 0.
 0. 0. 0. 0.
 0. 0. 0. 0.
 0. 0. 0. 0.
 0. 0. 0. 0.
 0. 0. 0. 0.
 0. 0. 0. 0.
 0. 0. 0. 0.
 0. 0. 0. 0.
 0. 0. 0. 0.
 0. 0. 0. 0.
 0. 0. 0. 0.
 0. 0. 0. 0.
 0. 0. 0. 0.
 0. 0. 0. 0.
 0. 0. 0. 0.
 0. 0. 0. 0.
 0. 0. 0. 0.
 0. 0. 0. 0.
 0. 0. 0. 0.
 0. 0. 0. 0.
 0. 0. 0. 0.
 0. 0. 0. 0.
 0. 0. 0. 0.
 0. 0. 0. 0.
 0. 0. 0. 0.
 0. 0. 0. 0.
 0. 0. 0. 0.
 0. 0. 0. 0.
 0. 0. 0. 0.
 0. 0. 0. 0.
 0. 0. 0. 0.
 0. 0. 0. 0.
 0. 0. 0. 0.
 0. 0. 0. 0.
 0. 0. 0. 0.
 0. 0. 0. 0.
 0. 0. 0. 0.
 0. 0. 0. 0.
 0. 0. 0. 0.
 0. 0. 0. 0.
 0. 0. 0. 0.
 0. 0. 0. 0.
 0. 0. 0. 0.
 0. 0. 0. 0.
 0. 0. 0. 0.
 0. 0. 0. 0.
 0. 0. 0. 0.
 0. 0. 0. 0.
 0. 0. 0. 0.
 0. 0. 0. 0.
 0. 0. 0. 0.
 0. 0. 0. 0.
 0. 0. 0. 0.
 0. 0. 0. 0.
 0. 0. 0. 0.
 0. 0. 0. 0.
 0. 0. 0. 0.
 0. 0. 0. 0.
 0. 0. 0. 0.
 0. 0. 0. 0.
 0. 0. 0. 0.
 0. 0. 0. 0.
 0. 0. 0. 0.
 0. 0. 0. 0.
 0. 0. 0. 0.
 0. 0. 0. 0.
 0. 0. 0. 0.
 0. 0. 0. 0.
 0. 0. 0. 0.
 0. 0. 0. 0.
 0. 0. 0. 0.
 0. 0. 0. 0.
 0. 0. 0. 0.
 0. 0. 0. 0.
 0. 0. 0. 0.
 0. 0. 0. 0.
 0. 0. 0. 0.
 0. 0. 0. 0.
 0. 0. 0. 0.
 0. 0. 0. 0.
 0. 0. 0. 0.
 0. 0. 0. 0.
 0. 0. 0. 0.
 0. 0. 0. 0.
 0. 0. 0. 0.
 0. 0. 0. 0.
 0. 0. 0. 0.
 0. 0. 0. 0.
 0. 0. 0. 0.
 0. 0. 0. 0.
 0. 0. 0. 0.
 0. 0. 0. 0.
 0. 0. 0. 0.
 0. 0. 0. 0.
 0. 0. 0. 0.
 0. 0. 0. 0.
 0. 0. 0. 0.
 0. 0. 0. 0.
 0. 0. 0. 0.
 0. 0. 0. 0.
 0. 0. 0. 0.
 0. 0. 0. 0.
 0. 0. 0. 0.
 0. 0. 0. 0.
 0. 0. 0. 0.
 0. 0. 0. 0.
 0. 0. 0. 0.
 0. 0. 0. 0.
 0. 0. 0. 0.
 0. 0. 0. 0.
 0. 0. 0. 0.
 0. 0. 0. 0.
 0. 0. 0. 0.
 0. 0. 0. 0.
 0. 0. 0. 0.
 0. 0. 0. 0.
 0. 0. 0. 0.
 0. 0. 0. 0.
 0. 0. 0. 0.
 0. 0. 0. 0.
 0. 0. 0. 0.
 0. 0. 0. 0.
 0. 0. 0. 0.
 0. 0. 0. 0.
 0. 0. 0. 0.
 0. 0. 0. 0.
 0. 0. 0. 0.
 0. 0. 0. 0.
 0. 0. 0. 0.
 0. 0. 0. 0.
 0. 0. 0. 0.
 0. 0. 0. 0.
 0. 0. 0. 0.
 0. 0. 0. 0.
 0. 0. 0. 0.
 0. 0. 0. 0.
 0. 0. 0. 0.
 0. 0. 0. 0.
 0. 0. 0. 0.
 0. 0. 0. 0.
 0. 0. 0. 0.
 0. 0. 0. 0.
 0. 0. 0. 0.
 0. 0. 0. 0.
 0. 0. 0. 0.
 0. 0. 0. 0.
 0. 0. 0. 0.
 0. 0. 0. 0.
 0. 0. 0. 0.
 0. 0. 0. 0.
 0. 0. 0. 0.
 0. 0. 0. 0.
 0. 0. 0. 0.
 0. 0. 0. 0.
 0. 0. 0. 0.
 0. 0. 0. 0.
 0. 0. 0. 0.
 0. 0. 0. 0.
 0. 0. 0. 0.
 0. 0. 0. 0.
 0. 0. 0. 0.
 0. 0. 0. 0.
 0. 0. 0. 0.
 0. 0. 0. 0.
 0. 0. 0. 0.
 0. 0. 0. 0.
 0. 0. 0. 0.
 0. 0. 0. 0.
 0. 0. 0. 0.
 0. 0. 0. 0.
 0. 0. 0. 0.
 0. 0. 0. 0.
 0. 0. 0. 0.
 0. 0. 0. 0.
 0. 0. 0. 0.
 0. 0. 0. 0.
 0. 0. 0. 0.
 0. 0. 0. 0.
 0. 0. 0. 0.
 0. 0. 0. 0.
 0. 0. 0. 0.
 0. 0. 0. 0.
 0. 0. 0. 0.
 0. 0. 0. 0.
 0. 0. 0. 0.
 0. 0. 0. 0.
 0. 0. 0. 0.
 0. 0. 0. 0.
 0. 0. 0. 0.
 0. 0. 0. 0.
 0. 0. 0. 0.
 0. 0. 0. 0.
 0. 0. 0. 0.
 0. 0. 0. 0.
 0. 0. 0. 0.
 0. 0. 0. 0.
 0. 0. 0. 0.
 0. 0. 0. 0.
 0. 0. 0. 0.
 0. 0. 0. 0.
 0. 0. 0. 0.
 0. 0. 0. 0.
 0. 0. 0. 0.
 0. 0. 0. 0.
 0. 0. 0. 0.
 0. 0. 0. 0.
 0. 0. 0. 0.
 0. 0. 0. 0.
 0. 0. 0. 0.
 0. 0. 0. 0.
 0. 0. 0. 0.
 0. 0. 0. 0.
 0. 0. 0. 0.
 0. 0. 0. 0.
 0. 0. 0. 0.
 0. 0. 0. 0.
 0. 0. 0. 0.
 0. 0. 0. 0.
 0. 0. 0. 0.
 0. 0. 0. 0.
 0. 0. 0. 0.
 0. 0. 0. 0.
 0. 0. 0. 0.
 0. 0. 0. 0.
 0. 0. 0. 0.
 0. 0. 0. 0.
 0. 0. 0. 0.
 0. 0. 0. 0.
 0. 0. 0. 0.
 0. 0. 0. 0.
 0. 0. 0. 0.
 0. 0. 0. 0.
 0. 0. 0. 0.
 0. 0. 0. 0.
 0. 0. 0. 0.
 0. 0. 0. 0.
 0. 0. 0. 0.
 0. 0. 0. 0.
 0. 0. 0. 0.
 0. 0. 0. 0.
 0. 0. 0. 0.
 0. 0. 0. 0.
 0. 0. 0. 0.
 0. 0. 0. 0.
 0. 0. 0. 0.
 0. 0. 0. 0.
 0. 0.
   </PP_BETA.2>
   <PP_BETA.3
       type="real"
       size="1766"
       columns="4"
       index="3"
       angular_momentum="1"
       cutoff_radius_index=" 244"
       cutoff_radius="    2.4300000000E+00" >
    7.4173080178E-10    1.0077938639E-03    4.0271590668E-03    9.0460784321E-03
    1.6044629545E-02    2.4995142609E-02    3.5862418546E-02    4.8604004483E-02
    6.3170523035E-02    7.9506051116E-02    9.7548543344E-02    1.1723029462E-01
    1.3847843589E-01    1.6121545690E-01    1.8535974912E-01    2.1082616229E-01
    2.3752656752E-01    2.6537042011E-01    2.9426531531E-01    3.2411753052E-01
    3.5483254751E-01    3.8631554895E-01    4.1847188382E-01    4.5120749682E-01
    4.8442931766E-01    5.1804560665E-01    5.5196625395E-01    5.8610303032E-01
    6.2036978833E-01    6.5468261357E-01    6.8895992640E-01    7.2312253534E-01
    7.5709364434E-01    7.9079881656E-01    8.2416589824E-01    8.5712490671E-01
    8.8960788732E-01    9.2154874448E-01    9.5288305238E-01    9.8354785132E-01
    1.0134814359E+00    1.0426231413E+00    1.0709131337E+00    1.0982922116E+00
    1.1247016237E+00    1.1500829087E+00    1.1743777635E+00    1.1975279433E+00
    1.2194751991E+00    1.2401612555E+00    1.2595278318E+00    1.2775167097E+00
    1.2940698474E+00    1.3091295415E+00    1.3226386369E+00    1.3345407830E+00
    1.3447807334E+00    1.3533046883E+00    1.3600606743E+00    1.3649989573E+00
    1.3680724848E+00    1.3692373499E+00    1.3684532725E+00    1.3656840898E+00
    1.3608982495E+00    1.3540692985E+00    1.3451763589E+00    1.3342045845E+00
    1.3211455899E+00    1.3059978450E+00    1.2887670283E+00    1.2694663308E+00
    1.2481167073E+00    1.2247470669E+00    1.1993943991E+00    1.1721038321E+00
    1.1429286185E+00    1.1119300485E+00    1.0791772869E+00    1.0447471357E+00
    1.0087237218E+00    9.7119811221E-01    9.3226785903E-01    8.9203647885E-01
    8.5061287021E-01    8.0811067549E-01    7.6464759332E-01    7.2034464882E-01
    6.7532542929E-01    6.2971529394E-01    5.8364056623E-01    5.3722771812E-01
    4.9060255537E-01    4.4388941340E-01    3.9721037294E-01    3.5068450467E-01
    3.0442715147E-01    2.5854925692E-01    2.1315674757E-01    1.6834997622E-01
    1.2422323257E-01    8.0864326498E-02    3.8354248765E-02   -3.2330877163E-03
   -4.3831023449E-02   -8.3380243606E-02   -1.2182878483E-01   -1.5913195865E-01
   -1.9525219372E-01   -2.3015880017E-01   -2.6382766050E-01   -2.9624085252E-01
   -3.2738621056E-01   -3.5725683240E-01   -3.8585053977E-01   -4.1316930126E-01
   -4.3921862674E-01   -4.6400694296E-01   -4.8754496029E-01   -5.0984504047E-01
   -5.3092057554E-01   -5.5078538772E-01   -5.6945315973E-01   -5.8693690476E-01
   -6.0324848443E-01   -6.1839818276E-01   -6.3239434283E-01   -6.4524307239E-01
   -6.5694802327E-01   -6.6751024847E-01   -6.7692813964E-01   -6.8519744638E-01
   -6.9231137755E-01   -6.9826078340E-01   -7.0303441633E-01   -7.0661926636E-01
   -7.0900096681E-01   -7.1016426386E-01   -7.1009354308E-01   -7.0877340487E-01
   -7.0618927976E-01   -7.0232807397E-01   -6.9717883476E-01   -6.9073342493E-01
   -6.8298719518E-01   -6.7393964310E-01   -6.6359504738E-01   -6.5196306621E-01
   -6.3905928892E-01   -6.2490573052E-01   -6.0953125944E-01   -5.9297194959E-01
   -5.7527134860E-01   -5.5648065553E-01   -5.3665880197E-01   -5.1587243243E-01
   -4.9419578052E-01   -4.7171043946E-01   -4.4850502658E-01   -4.2467474311E-01
   -4.0032083197E-01   -3.7554993787E-01   -3.5047337536E-01   -3.2520631204E-01
   -2.9986687516E-01   -2.7457519144E-01   -2.4945237073E-01   -2.2461944532E-01
   -2.0019627738E-01   -1.7630044794E-01   -1.5304614095E-01   -1.3054303665E-01
   -1.0889522851E-01   -8.8200177789E-02   -6.8547719827E-02   -5.0019135541E-02
   -3.2686301065E-02   -1.6610927715E-02   -1.8439034601E-03    1.1575253998E-02
    2.3618823727E-02    3.4271180208E-02    4.3528958180E-02    5.1401079390E-02
    5.7908638567E-02    6.3084647724E-02    6.6973639619E-02    6.9631132990E-02
    7.1122963934E-02    7.1524489517E-02    7.0919671354E-02    6.9400048495E-02
    6.7063610382E-02    6.4013582049E-02    6.0357134892E-02    5.6204037419E-02
    5.1665261238E-02    4.6851569677E-02    4.1872001675E-02    3.6832665784E-02
    3.1835054368E-02    2.6972431168E-02    2.2319798940E-02    1.7956264187E-02
    1.3959727397E-02    1.0394875183E-02    7.3143896575E-03    4.7577872090E-03
    2.7517103468E-03    1.3000757325E-03    4.1903597621E-04    8.1054973516E-05
    5.0385624483E-06    7.4694150505E-08    1.8942410229E-07    1.0542438181E-09
   -9.3504951625E-08    0.0000000000E+00    0.0000000000E+00    0.0000000000E+00
    0.0000000000E+00    0.0000000000E+00    0.0000000000E+00    0.0000000000E+00
    0.0000000000E+00    0.0000000000E+00    0.0000000000E+00    0.0000000000E+00
    0.0000000000E+00    0.0000000000E+00    0.0000000000E+00    0.0000000000E+00
    0.0000000000E+00    0.0000000000E+00    0.0000000000E+00    0.0000000000E+00
    0.0000000000E+00    0.0000000000E+00    0.0000000000E+00    0.0000000000E+00
    0.0000000000E+00    0.0000000000E+00    0.0000000000E+00    0.0000000000E+00
 0. 0. 0. 0.
 0. 0. 0. 0.
 0. 0. 0. 0.
 0. 0. 0. 0.
 0. 0. 0. 0.
 0. 0. 0. 0.
 0. 0. 0. 0.
 0. 0. 0. 0.
 0. 0. 0. 0.
 0. 0. 0. 0.
 0. 0. 0. 0.
 0. 0. 0. 0.
 0. 0. 0. 0.
 0. 0. 0. 0.
 0. 0. 0. 0.
 0. 0. 0. 0.
 0. 0. 0. 0.
 0. 0. 0. 0.
 0. 0. 0. 0.
 0. 0. 0. 0.
 0. 0. 0. 0.
 0. 0. 0. 0.
 0. 0. 0. 0.
 0. 0. 0. 0.
 0. 0. 0. 0.
 0. 0. 0. 0.
 0. 0. 0. 0.
 0. 0. 0. 0.
 0. 0. 0. 0.
 0. 0. 0. 0.
 0. 0. 0. 0.
 0. 0. 0. 0.
 0. 0. 0. 0.
 0. 0. 0. 0.
 0. 0. 0. 0.
 0. 0. 0. 0.
 0. 0. 0. 0.
 0. 0. 0. 0.
 0. 0. 0. 0.
 0. 0. 0. 0.
 0. 0. 0. 0.
 0. 0. 0. 0.
 0. 0. 0. 0.
 0. 0. 0. 0.
 0. 0. 0. 0.
 0. 0. 0. 0.
 0. 0. 0. 0.
 0. 0. 0. 0.
 0. 0. 0. 0.
 0. 0. 0. 0.
 0. 0. 0. 0.
 0. 0. 0. 0.
 0. 0. 0. 0.
 0. 0. 0. 0.
 0. 0. 0. 0.
 0. 0. 0. 0.
 0. 0. 0. 0.
 0. 0. 0. 0.
 0. 0. 0. 0.
 0. 0. 0. 0.
 0. 0. 0. 0.
 0. 0. 0. 0.
 0. 0. 0. 0.
 0. 0. 0. 0.
 0. 0. 0. 0.
 0. 0. 0. 0.
 0. 0. 0. 0.
 0. 0. 0. 0.
 0. 0. 0. 0.
 0. 0. 0. 0.
 0. 0. 0. 0.
 0. 0. 0. 0.
 0. 0. 0. 0.
 0. 0. 0. 0.
 0. 0. 0. 0.
 0. 0. 0. 0.
 0. 0. 0. 0.
 0. 0. 0. 0.
 0. 0. 0. 0.
 0. 0. 0. 0.
 0. 0. 0. 0.
 0. 0. 0. 0.
 0. 0. 0. 0.
 0. 0. 0. 0.
 0. 0. 0. 0.
 0. 0. 0. 0.
 0. 0. 0. 0.
 0. 0. 0. 0.
 0. 0. 0. 0.
 0. 0. 0. 0.
 0. 0. 0. 0.
 0. 0. 0. 0.
 0. 0. 0. 0.
 0. 0. 0. 0.
 0. 0. 0. 0.
 0. 0. 0. 0.
 0. 0. 0. 0.
 0. 0. 0. 0.
 0. 0. 0. 0.
 0. 0. 0. 0.
 0. 0. 0. 0.
 0. 0. 0. 0.
 0. 0. 0. 0.
 0. 0. 0. 0.
 0. 0. 0. 0.
 0. 0. 0. 0.
 0. 0. 0. 0.
 0. 0. 0. 0.
 0. 0. 0. 0.
 0. 0. 0. 0.
 0. 0. 0. 0.
 0. 0. 0. 0.
 0. 0. 0. 0.
 0. 0. 0. 0.
 0. 0. 0. 0.
 0. 0. 0. 0.
 0. 0. 0. 0.
 0. 0. 0. 0.
 0. 0. 0. 0.
 0. 0. 0. 0.
 0. 0. 0. 0.
 0. 0. 0. 0.
 0. 0. 0. 0.
 0. 0. 0. 0.
 0. 0. 0. 0.
 0. 0. 0. 0.
 0. 0. 0. 0.
 0. 0. 0. 0.
 0. 0. 0. 0.
 0. 0. 0. 0.
 0. 0. 0. 0.
 0. 0. 0. 0.
 0. 0. 0. 0.
 0. 0. 0. 0.
 0. 0. 0. 0.
 0. 0. 0. 0.
 0. 0. 0. 0.
 0. 0. 0. 0.
 0. 0. 0. 0.
 0. 0. 0. 0.
 0. 0. 0. 0.
 0. 0. 0. 0.
 0. 0. 0. 0.
 0. 0. 0. 0.
 0. 0. 0. 0.
 0. 0. 0. 0.
 0. 0. 0. 0.
 0. 0. 0. 0.
 0. 0. 0. 0.
 0. 0. 0. 0.
 0. 0. 0. 0.
 0. 0. 0. 0.
 0. 0. 0. 0.
 0. 0. 0. 0.
 0. 0. 0. 0.
 0. 0. 0. 0.
 0. 0. 0. 0.
 0. 0. 0. 0.
 0. 0. 0. 0.
 0. 0. 0. 0.
 0. 0. 0. 0.
 0. 0. 0. 0.
 0. 0. 0. 0.
 0. 0. 0. 0.
 0. 0. 0. 0.
 0. 0. 0. 0.
 0. 0. 0. 0.
 0. 0. 0. 0.
 0. 0. 0. 0.
 0. 0. 0. 0.
 0. 0. 0. 0.
 0. 0. 0. 0.
 0. 0. 0. 0.
 0. 0. 0. 0.
 0. 0. 0. 0.
 0. 0. 0. 0.
 0. 0. 0. 0.
 0. 0. 0. 0.
 0. 0. 0. 0.
 0. 0. 0. 0.
 0. 0. 0. 0.
 0. 0. 0. 0.
 0. 0. 0. 0.
 0. 0. 0. 0.
 0. 0. 0. 0.
 0. 0. 0. 0.
 0. 0. 0. 0.
 0. 0. 0. 0.
 0. 0. 0. 0.
 0. 0. 0. 0.
 0. 0. 0. 0.
 0. 0. 0. 0.
 0. 0. 0. 0.
 0. 0. 0. 0.
 0. 0. 0. 0.
 0. 0. 0. 0.
 0. 0. 0. 0.
 0. 0. 0. 0.
 0. 0. 0. 0.
 0. 0. 0. 0.
 0. 0. 0. 0.
 0. 0. 0. 0.
 0. 0. 0. 0.
 0. 0. 0. 0.
 0. 0. 0. 0.
 0. 0. 0. 0.
 0. 0. 0. 0.
 0. 0. 0. 0.
 0. 0. 0. 0.
 0. 0. 0. 0.
 0. 0. 0. 0.
 0. 0. 0. 0.
 0. 0. 0. 0.
 0. 0. 0. 0.
 0. 0. 0. 0.
 0. 0. 0. 0.
 0. 0. 0. 0.
 0. 0. 0. 0.
 0. 0. 0. 0.
 0. 0. 0. 0.
 0. 0. 0. 0.
 0. 0. 0. 0.
 0. 0. 0. 0.
 0. 0. 0. 0.
 0. 0. 0. 0.
 0. 0. 0. 0.
 0. 0. 0. 0.
 0. 0. 0. 0.
 0. 0. 0. 0.
 0. 0. 0. 0.
 0. 0. 0. 0.
 0. 0. 0. 0.
 0. 0. 0. 0.
 0. 0. 0. 0.
 0. 0. 0. 0.
 0. 0. 0. 0.
 0. 0. 0. 0.
 0. 0. 0. 0.
 0. 0. 0. 0.
 0. 0. 0. 0.
 0. 0. 0. 0.
 0. 0. 0. 0.
 0. 0. 0. 0.
 0. 0. 0. 0.
 0. 0. 0. 0.
 0. 0. 0. 0.
 0. 0. 0. 0.
 0. 0. 0. 0.
 0. 0. 0. 0.
 0. 0. 0. 0.
 0. 0. 0. 0.
 0. 0. 0. 0.
 0. 0. 0. 0.
 0. 0. 0. 0.
 0. 0. 0. 0.
 0. 0. 0. 0.
 0. 0. 0. 0.
 0. 0. 0. 0.
 0. 0. 0. 0.
 0. 0. 0. 0.
 0. 0. 0. 0.
 0. 0. 0. 0.
 0. 0. 0. 0.
 0. 0. 0. 0.
 0. 0. 0. 0.
 0. 0. 0. 0.
 0. 0. 0. 0.
 0. 0. 0. 0.
 0. 0. 0. 0.
 0. 0. 0. 0.
 0. 0. 0. 0.
 0. 0. 0. 0.
 0. 0. 0. 0.
 0. 0. 0. 0.
 0. 0. 0. 0.
 0. 0. 0. 0.
 0. 0. 0. 0.
 0. 0. 0. 0.
 0. 0. 0. 0.
 0. 0. 0. 0.
 0. 0. 0. 0.
 0. 0. 0. 0.
 0. 0. 0. 0.
 0. 0. 0. 0.
 0. 0. 0. 0.
 0. 0. 0. 0.
 0. 0. 0. 0.
 0. 0. 0. 0.
 0. 0. 0. 0.
 0. 0. 0. 0.
 0. 0. 0. 0.
 0. 0. 0. 0.
 0. 0. 0. 0.
 0. 0. 0. 0.
 0. 0. 0. 0.
 0. 0. 0. 0.
 0. 0. 0. 0.
 0. 0. 0. 0.
 0. 0. 0. 0.
 0. 0. 0. 0.
 0. 0. 0. 0.
 0. 0. 0. 0.
 0. 0. 0. 0.
 0. 0. 0. 0.
 0. 0. 0. 0.
 0. 0. 0. 0.
 0. 0. 0. 0.
 0. 0. 0. 0.
 0. 0. 0. 0.
 0. 0. 0. 0.
 0. 0. 0. 0.
 0. 0. 0. 0.
 0. 0. 0. 0.
 0. 0. 0. 0.
 0. 0. 0. 0.
 0. 0. 0. 0.
 0. 0. 0. 0.
 0. 0. 0. 0.
 0. 0. 0. 0.
 0. 0. 0. 0.
 0. 0. 0. 0.
 0. 0. 0. 0.
 0. 0. 0. 0.
 0. 0. 0. 0.
 0. 0. 0. 0.
 0. 0. 0. 0.
 0. 0. 0. 0.
 0. 0. 0. 0.
 0. 0. 0. 0.
 0. 0. 0. 0.
 0. 0. 0. 0.
 0. 0. 0. 0.
 0. 0. 0. 0.
 0. 0. 0. 0.
 0. 0. 0. 0.
 0. 0. 0. 0.
 0. 0. 0. 0.
 0. 0. 0. 0.
 0. 0. 0. 0.
 0. 0. 0. 0.
 0. 0. 0. 0.
 0. 0. 0. 0.
 0. 0. 0. 0.
 0. 0. 0. 0.
 0. 0. 0. 0.
 0. 0. 0. 0.
 0. 0. 0. 0.
 0. 0. 0. 0.
 0. 0. 0. 0.
 0. 0. 0. 0.
 0. 0. 0. 0.
 0. 0. 0. 0.
 0. 0. 0. 0.
 0. 0. 0. 0.
 0. 0. 0. 0.
 0. 0. 0. 0.
 0. 0. 0. 0.
 0. 0. 0. 0.
 0. 0. 0. 0.
 0. 0. 0. 0.
 0. 0. 0. 0.
 0. 0. 0. 0.
 0. 0. 0. 0.
 0. 0. 0. 0.
 0. 0. 0. 0.
 0. 0. 0. 0.
 0. 0. 0. 0.
 0. 0. 0. 0.
 0. 0. 0. 0.
 0. 0. 0. 0.
 0. 0. 0. 0.
 0. 0. 0. 0.
 0. 0. 0. 0.
 0. 0. 0. 0.
 0. 0. 0. 0.
 0. 0. 0. 0.
 0. 0. 0. 0.
 0. 0. 0. 0.
 0. 0. 0. 0.
 0. 0. 0. 0.
 0. 0.
   </PP_BETA.3>
   <PP_BETA.4
       type="real"
       size="1766"
       columns="4"
       index="4"
       angular_momentum="1"
       cutoff_radius_index=" 244"
       cutoff_radius="    2.4300000000E+00" >
    6.5178176745E-10    9.7909582756E-04    3.9126721898E-03    8.7896241445E-03
    1.5591537816E-02    2.4292830652E-02    3.4860945235E-02    4.7256594134E-02
    6.1434052658E-02    7.7341495726E-02    9.4921374561E-02    1.1411082840E-01
    1.3484212599E-01    1.5704313140E-01    1.8063778818E-01    2.0554661606E-01
    2.3168721405E-01    2.5897476384E-01    2.8732252761E-01    3.1664233449E-01
    3.4684505002E-01    3.7784102360E-01    4.0954050915E-01    4.4185405461E-01
    4.7469285675E-01    5.0796907808E-01    5.4159612342E-01    5.7548887442E-01
    6.0956388089E-01    6.4373950864E-01    6.7793604422E-01    7.1207575749E-01
    7.4608292400E-01    7.7988380948E-01    8.1340661935E-01    8.4658141718E-01
    8.7934001579E-01    9.1161584585E-01    9.4334380672E-01    9.7446010471E-01
    1.0049020842E+00    1.0346080568E+00    1.0635171350E+00    1.0915690740E+00
    1.1187041287E+00    1.1448629300E+00    1.1699863854E+00    1.1940156072E+00
    1.2168918737E+00    1.2385566255E+00    1.2589514992E+00    1.2780184015E+00
    1.2956996241E+00    1.3119379997E+00    1.3266771002E+00    1.3398614740E+00
    1.3514369226E+00    1.3613508121E+00    1.3695524187E+00    1.3759933018E+00
    1.3806277019E+00    1.3834129581E+00    1.3843099384E+00    1.3832834791E+00
    1.3803028242E+00    1.3753420614E+00    1.3683805451E+00    1.3594033025E+00
    1.3484014139E+00    1.3353723624E+00    1.3203203456E+00    1.3032565451E+00
    1.2841993464E+00    1.2631745059E+00    1.2402152611E+00    1.2153623785E+00
    1.1886641388E+00    1.1601762559E+00    1.1299617296E+00    1.0980906310E+00
    1.0646398215E+00    1.0296926075E+00    9.9333833286E-01    9.5567191198E-01
    9.1679330867E-01    8.7680696488E-01    8.3582118545E-01    7.9394748492E-01
    7.5129990349E-01    7.0799429931E-01    6.6414762503E-01    6.1987719647E-01
    5.7529996184E-01    5.3053177956E-01    4.8568671307E-01    4.4087635054E-01
    3.9620915746E-01    3.5178986928E-01    3.0771893110E-01    2.6409199073E-01
    2.2099945063E-01    1.7852608371E-01    1.3675071685E-01    9.5745985318E-02
    5.5578160206E-02    1.6307050062E-02   -2.2014023175E-02   -5.9338174766E-02
   -9.5624836190E-02   -1.3083956544E-01   -1.6495379245E-01   -1.9794450430E-01
   -2.2979387585E-01   -2.6048885211E-01   -2.9002068923E-01   -3.1838446195E-01
   -3.4557854527E-01   -3.7160407897E-01   -3.9646442360E-01   -4.2016461663E-01
   -4.4271083760E-01   -4.6410989092E-01   -4.8436871455E-01   -5.0349392270E-01
   -5.2149138990E-01   -5.3836588322E-01   -5.5412074896E-01   -5.6875765885E-01
   -5.8227642033E-01   -5.9467485415E-01   -6.0594874185E-01   -6.1609184418E-01
   -6.2509599075E-01   -6.3295124004E-01   -6.3964610748E-01   -6.4516785863E-01
   -6.4950286314E-01   -6.5263700423E-01   -6.5455613750E-01   -6.5524659213E-01
   -6.5469570636E-01   -6.5289238908E-01   -6.4982769825E-01   -6.4549542675E-01
   -6.3989268595E-01   -6.3302047703E-01   -6.2488424015E-01   -6.1549437169E-01
   -6.0486670008E-01   -5.9302291117E-01   -5.7999091455E-01   -5.6580514308E-01
   -5.5050677861E-01   -5.3414389782E-01   -5.1677153311E-01   -4.9845164470E-01
   -4.7925300112E-01   -4.5925096667E-01   -4.3852719566E-01   -4.1716923454E-01
   -3.9527003440E-01   -3.7292737753E-01   -3.5024322317E-01   -3.2732297863E-01
   -3.0427470319E-01   -2.8120825339E-01   -2.5823437896E-01   -2.3546378001E-01
   -2.1300613624E-01   -1.9096912012E-01   -1.6945740590E-01   -1.4857168710E-01
   -1.2840771475E-01   -1.0905536916E-01   -9.0597777298E-02   -7.3110487780E-02
   -5.6660714950E-02   -4.1306662627E-02   -2.7096937481E-02   -1.4070060901E-02
   -2.2540871281E-03    8.3336657658E-03    1.7686766840E-02    2.5809701355E-02
    3.2717775596E-02    3.8436896644E-02    4.3003227797E-02    4.6462721930E-02
    4.8870536641E-02    5.0290336506E-02    5.0793489253E-02    5.0458164062E-02
    4.9368341466E-02    4.7612745546E-02    4.5283710163E-02    4.2475991910E-02
    3.9285543226E-02    3.5808269547E-02    3.2138695775E-02    2.8368898767E-02
    2.4587028315E-02    2.0874171371E-02    1.7295673430E-02    1.3920348964E-02
    1.0815915251E-02    8.0386539106E-03    5.6344198583E-03    3.6376205729E-03
    2.0712069991E-03    9.4071142028E-04    2.5394156446E-04   -1.0103620380E-05
   -1.9200154393E-05    7.1532830994E-06   -9.8031210326E-07   -9.4874718721E-09
    3.9747375381E-08    0.0000000000E+00    0.0000000000E+00    0.0000000000E+00
    0.0000000000E+00    0.0000000000E+00    0.0000000000E+00    0.0000000000E+00
    0.0000000000E+00    0.0000000000E+00    0.0000000000E+00    0.0000000000E+00
    0.0000000000E+00    0.0000000000E+00    0.0000000000E+00    0.0000000000E+00
    0.0000000000E+00    0.0000000000E+00    0.0000000000E+00    0.0000000000E+00
    0.0000000000E+00    0.0000000000E+00    0.0000000000E+00    0.0000000000E+00
    0.0000000000E+00    0.0000000000E+00    0.0000000000E+00    0.0000000000E+00
 0. 0. 0. 0.
 0. 0. 0. 0.
 0. 0. 0. 0.
 0. 0. 0. 0.
 0. 0. 0. 0.
 0. 0. 0. 0.
 0. 0. 0. 0.
 0. 0. 0. 0.
 0. 0. 0. 0.
 0. 0. 0. 0.
 0. 0. 0. 0.
 0. 0. 0. 0.
 0. 0. 0. 0.
 0. 0. 0. 0.
 0. 0. 0. 0.
 0. 0. 0. 0.
 0. 0. 0. 0.
 0. 0. 0. 0.
 0. 0. 0. 0.
 0. 0. 0. 0.
 0. 0. 0. 0.
 0. 0. 0. 0.
 0. 0. 0. 0.
 0. 0. 0. 0.
 0. 0. 0. 0.
 0. 0. 0. 0.
 0. 0. 0. 0.
 0. 0. 0. 0.
 0. 0. 0. 0.
 0. 0. 0. 0.
 0. 0. 0. 0.
 0. 0. 0. 0.
 0. 0. 0. 0.
 0. 0. 0. 0.
 0. 0. 0. 0.
 0. 0. 0. 0.
 0. 0. 0. 0.
 0. 0. 0. 0.
 0. 0. 0. 0.
 0. 0. 0. 0.
 0. 0. 0. 0.
 0. 0. 0. 0.
 0. 0. 0. 0.
 0. 0. 0. 0.
 0. 0. 0. 0.
 0. 0. 0. 0.
 0. 0. 0. 0.
 0. 0. 0. 0.
 0. 0. 0. 0.
 0. 0. 0. 0.
 0. 0. 0. 0.
 0. 0. 0. 0.
 0. 0. 0. 0.
 0. 0. 0. 0.
 0. 0. 0. 0.
 0. 0. 0. 0.
 0. 0. 0. 0.
 0. 0. 0. 0.
 0. 0. 0. 0.
 0. 0. 0. 0.
 0. 0. 0. 0.
 0. 0. 0. 0.
 0. 0. 0. 0.
 0. 0. 0. 0.
 0. 0. 0. 0.
 0. 0. 0. 0.
 0. 0. 0. 0.
 0. 0. 0. 0.
 0. 0. 0. 0.
 0. 0. 0. 0.
 0. 0. 0. 0.
 0. 0. 0. 0.
 0. 0. 0. 0.
 0. 0. 0. 0.
 0. 0. 0. 0.
 0. 0. 0. 0.
 0. 0. 0. 0.
 0. 0. 0. 0.
 0. 0. 0. 0.
 0. 0. 0. 0.
 0. 0. 0. 0.
 0. 0. 0. 0.
 0. 0. 0. 0.
 0. 0. 0. 0.
 0. 0. 0. 0.
 0. 0. 0. 0.
 0. 0. 0. 0.
 0. 0. 0. 0.
 0. 0. 0. 0.
 0. 0. 0. 0.
 0. 0. 0. 0.
 0. 0. 0. 0.
 0. 0. 0. 0.
 0. 0. 0. 0.
 0. 0. 0. 0.
 0. 0. 0. 0.
 0. 0. 0. 0.
 0. 0. 0. 0.
 0. 0. 0. 0.
 0. 0. 0. 0.
 0. 0. 0. 0.
 0. 0. 0. 0.
 0. 0. 0. 0.
 0. 0. 0. 0.
 0. 0. 0. 0.
 0. 0. 0. 0.
 0. 0. 0. 0.
 0. 0. 0. 0.
 0. 0. 0. 0.
 0. 0. 0. 0.
 0. 0. 0. 0.
 0. 0. 0. 0.
 0. 0. 0. 0.
 0. 0. 0. 0.
 0. 0. 0. 0.
 0. 0. 0. 0.
 0. 0. 0. 0.
 0. 0. 0. 0.
 0. 0. 0. 0.
 0. 0. 0. 0.
 0. 0. 0. 0.
 0. 0. 0. 0.
 0. 0. 0. 0.
 0. 0. 0. 0.
 0. 0. 0. 0.
 0. 0. 0. 0.
 0. 0. 0. 0.
 0. 0. 0. 0.
 0. 0. 0. 0.
 0. 0. 0. 0.
 0. 0. 0. 0.
 0. 0. 0. 0.
 0. 0. 0. 0.
 0. 0. 0. 0.
 0. 0. 0. 0.
 0. 0. 0. 0.
 0. 0. 0. 0.
 0. 0. 0. 0.
 0. 0. 0. 0.
 0. 0. 0. 0.
 0. 0. 0. 0.
 0. 0. 0. 0.
 0. 0. 0. 0.
 0. 0. 0. 0.
 0. 0. 0. 0.
 0. 0. 0. 0.
 0. 0. 0. 0.
 0. 0. 0. 0.
 0. 0. 0. 0.
 0. 0. 0. 0.
 0. 0. 0. 0.
 0. 0. 0. 0.
 0. 0. 0. 0.
 0. 0. 0. 0.
 0. 0. 0. 0.
 0. 0. 0. 0.
 0. 0. 0. 0.
 0. 0. 0. 0.
 0. 0. 0. 0.
 0. 0. 0. 0.
 0. 0. 0. 0.
 0. 0. 0. 0.
 0. 0. 0. 0.
 0. 0. 0. 0.
 0. 0. 0. 0.
 0. 0. 0. 0.
 0. 0. 0. 0.
 0. 0. 0. 0.
 0. 0. 0. 0.
 0. 0. 0. 0.
 0. 0. 0. 0.
 0. 0. 0. 0.
 0. 0. 0. 0.
 0. 0. 0. 0.
 0. 0. 0. 0.
 0. 0. 0. 0.
 0. 0. 0. 0.
 0. 0. 0. 0.
 0. 0. 0. 0.
 0. 0. 0. 0.
 0. 0. 0. 0.
 0. 0. 0. 0.
 0. 0. 0. 0.
 0. 0. 0. 0.
 0. 0. 0. 0.
 0. 0. 0. 0.
 0. 0. 0. 0.
 0. 0. 0. 0.
 0. 0. 0. 0.
 0. 0. 0. 0.
 0. 0. 0. 0.
 0. 0. 0. 0.
 0. 0. 0. 0.
 0. 0. 0. 0.
 0. 0. 0. 0.
 0. 0. 0. 0.
 0. 0. 0. 0.
 0. 0. 0. 0.
 0. 0. 0. 0.
 0. 0. 0. 0.
 0. 0. 0. 0.
 0. 0. 0. 0.
 0. 0. 0. 0.
 0. 0. 0. 0.
 0. 0. 0. 0.
 0. 0. 0. 0.
 0. 0. 0. 0.
 0. 0. 0. 0.
 0. 0. 0. 0.
 0. 0. 0. 0.
 0. 0. 0. 0.
 0. 0. 0. 0.
 0. 0. 0. 0.
 0. 0. 0. 0.
 0. 0. 0. 0.
 0. 0. 0. 0.
 0. 0. 0. 0.
 0. 0. 0. 0.
 0. 0. 0. 0.
 0. 0. 0. 0.
 0. 0. 0. 0.
 0. 0. 0. 0.
 0. 0. 0. 0.
 0. 0. 0. 0.
 0. 0. 0. 0.
 0. 0. 0. 0.
 0. 0. 0. 0.
 0. 0. 0. 0.
 0. 0. 0. 0.
 0. 0. 0. 0.
 0. 0. 0. 0.
 0. 0. 0. 0.
 0. 0. 0. 0.
 0. 0. 0. 0.
 0. 0. 0. 0.
 0. 0. 0. 0.
 0. 0. 0. 0.
 0. 0. 0. 0.
 0. 0. 0. 0.
 0. 0. 0. 0.
 0. 0. 0. 0.
 0. 0. 0. 0.
 0. 0. 0. 0.
 0. 0. 0. 0.
 0. 0. 0. 0.
 0. 0. 0. 0.
 0. 0. 0. 0.
 0. 0. 0. 0.
 0. 0. 0. 0.
 0. 0. 0. 0.
 0. 0. 0. 0.
 0. 0. 0. 0.
 0. 0. 0. 0.
 0. 0. 0. 0.
 0. 0. 0. 0.
 0. 0. 0. 0.
 0. 0. 0. 0.
 0. 0. 0. 0.
 0. 0. 0. 0.
 0. 0. 0. 0.
 0. 0. 0. 0.
 0. 0. 0. 0.
 0. 0. 0. 0.
 0. 0. 0. 0.
 0. 0. 0. 0.
 0. 0. 0. 0.
 0. 0. 0. 0.
 0. 0. 0. 0.
 0. 0. 0. 0.
 0. 0. 0. 0.
 0. 0. 0. 0.
 0. 0. 0. 0.
 0. 0. 0. 0.
 0. 0. 0. 0.
 0. 0. 0. 0.
 0. 0. 0. 0.
 0. 0. 0. 0.
 0. 0. 0. 0.
 0. 0. 0. 0.
 0. 0. 0. 0.
 0. 0. 0. 0.
 0. 0. 0. 0.
 0. 0. 0. 0.
 0. 0. 0. 0.
 0. 0. 0. 0.
 0. 0. 0. 0.
 0. 0. 0. 0.
 0. 0. 0. 0.
 0. 0. 0. 0.
 0. 0. 0. 0.
 0. 0. 0. 0.
 0. 0. 0. 0.
 0. 0. 0. 0.
 0. 0. 0. 0.
 0. 0. 0. 0.
 0. 0. 0. 0.
 0. 0. 0. 0.
 0. 0. 0. 0.
 0. 0. 0. 0.
 0. 0. 0. 0.
 0. 0. 0. 0.
 0. 0. 0. 0.
 0. 0. 0. 0.
 0. 0. 0. 0.
 0. 0. 0. 0.
 0. 0. 0. 0.
 0. 0. 0. 0.
 0. 0. 0. 0.
 0. 0. 0. 0.
 0. 0. 0. 0.
 0. 0. 0. 0.
 0. 0. 0. 0.
 0. 0. 0. 0.
 0. 0. 0. 0.
 0. 0. 0. 0.
 0. 0. 0. 0.
 0. 0. 0. 0.
 0. 0. 0. 0.
 0. 0. 0. 0.
 0. 0. 0. 0.
 0. 0. 0. 0.
 0. 0. 0. 0.
 0. 0. 0. 0.
 0. 0. 0. 0.
 0. 0. 0. 0.
 0. 0. 0. 0.
 0. 0. 0. 0.
 0. 0. 0. 0.
 0. 0. 0. 0.
 0. 0. 0. 0.
 0. 0. 0. 0.
 0. 0. 0. 0.
 0. 0. 0. 0.
 0. 0. 0. 0.
 0. 0. 0. 0.
 0. 0. 0. 0.
 0. 0. 0. 0.
 0. 0. 0. 0.
 0. 0. 0. 0.
 0. 0. 0. 0.
 0. 0. 0. 0.
 0. 0. 0. 0.
 0. 0. 0. 0.
 0. 0. 0. 0.
 0. 0. 0. 0.
 0. 0. 0. 0.
 0. 0. 0. 0.
 0. 0. 0. 0.
 0. 0. 0. 0.
 0. 0. 0. 0.
 0. 0. 0. 0.
 0. 0. 0. 0.
 0. 0. 0. 0.
 0. 0. 0. 0.
 0. 0. 0. 0.
 0. 0. 0. 0.
 0. 0. 0. 0.
 0. 0. 0. 0.
 0. 0. 0. 0.
 0. 0. 0. 0.
 0. 0. 0. 0.
 0. 0. 0. 0.
 0. 0. 0. 0.
 0. 0. 0. 0.
 0. 0. 0. 0.
 0. 0. 0. 0.
 0. 0. 0. 0.
 0. 0. 0. 0.
 0. 0. 0. 0.
 0. 0. 0. 0.
 0. 0. 0. 0.
 0. 0. 0. 0.
 0. 0. 0. 0.
 0. 0. 0. 0.
 0. 0. 0. 0.
 0. 0. 0. 0.
 0. 0. 0. 0.
 0. 0. 0. 0.
 0. 0. 0. 0.
 0. 0. 0. 0.
 0. 0.
   </PP_BETA.4>
   <PP_BETA.5
       type="real"
       size="1766"
       columns="4"
       index="5"
       angular_momentum="1"
       cutoff_radius_index=" 244"
       cutoff_radius="    2.4300000000E+00" >
    1.9678794184E-10    7.4952509410E-05    2.9970915514E-04    6.7397319879E-04
    1.1972696608E-03    1.8689743046E-03    2.6883534364E-03    3.6546137569E-03
    4.7669613049E-03    6.0246683526E-03    7.4271469463E-03    8.9740276490E-03
    1.0665241919E-02    1.2501106470E-02    1.4482407885E-02    1.6610485732E-02
    1.8887312405E-02    2.1315567949E-02    2.3898708165E-02    2.6641024382E-02
    2.9547693375E-02    3.2624816050E-02    3.5879443680E-02    3.9319590614E-02
    4.2954232643E-02    4.6793290356E-02    5.0847597085E-02    5.5128851254E-02
    5.9649553198E-02    6.4422926762E-02    6.9462826215E-02    7.4783629279E-02
    8.0400117280E-02    8.6327343642E-02    9.2580492169E-02    9.9174726701E-02
    1.0612503394E-01    1.1344606129E-01    1.2115195184E-01    1.2925617837E-01
    1.3777137874E-01    1.4670919465E-01    1.5608011597E-01    1.6589333273E-01
    1.7615659674E-01    1.8687609476E-01    1.9805633504E-01    2.0970004867E-01
    2.2180810735E-01    2.3437945857E-01    2.4741107938E-01    2.6089794916E-01
    2.7483304224E-01    2.8920734015E-01    3.0400986371E-01    3.1922772440E-01
    3.3484619451E-01    3.5084879506E-01    3.6721740041E-01    3.8393235811E-01
    4.0097262243E-01    4.1831589972E-01    4.3593880361E-01    4.5381701807E-01
    4.7192546581E-01    4.9023848004E-01    5.0872997697E-01    5.2737362684E-01
    5.4614302102E-01    5.6501183300E-01    5.8395397098E-01    6.0294372009E-01
    6.2195587223E-01    6.4096584191E-01    6.5994976651E-01    6.7888458975E-01
    6.9774812736E-01    7.1651911420E-01    7.3517723242E-01    7.5370312053E-01
    7.7207836353E-01    7.9028546463E-01    8.0830779921E-01    8.2612955222E-01
    8.4373564030E-01    8.6111162019E-01    8.7824358527E-01    8.9511805232E-01
    9.1172184066E-01    9.2804194608E-01    9.4406541200E-01    9.5977920044E-01
    9.7517006543E-01    9.9022443138E-01    1.0049282791E+00    1.0192670415E+00
    1.0332255124E+00    1.0467877690E+00    1.0599371114E+00    1.0726560207E+00
    1.0849261363E+00    1.0967282546E+00    1.1080423499E+00    1.1188476173E+00
    1.1291225392E+00    1.1388449734E+00    1.1479922646E+00    1.1565413765E+00
    1.1644690446E+00    1.1717519473E+00    1.1783668942E+00    1.1842910294E+00
    1.1895020464E+00    1.1939784134E+00    1.1976996051E+00    1.2006463381E+00
    1.2028008074E+00    1.2041469196E+00    1.2046705205E+00    1.2043596132E+00
    1.2032045639E+00    1.2011982913E+00    1.1983364378E+00    1.1946175189E+00
    1.1900430480E+00    1.1846176355E+00    1.1783490577E+00    1.1712482973E+00
    1.1633295504E+00    1.1546102025E+00    1.1451107699E+00    1.1348548095E+00
    1.1238687943E+00    1.1121819580E+00    1.0998261083E+00    1.0868354106E+00
    1.0732461460E+00    1.0590964431E+00    1.0444259890E+00    1.0292757215E+00
    1.0136875058E+00    9.9770379962E-01    9.8136731140E-01    9.6472065395E-01
    9.4780599929E-01    9.3066473799E-01    9.1333714757E-01    8.9586207392E-01
    8.7827662982E-01    8.6061591441E-01    8.4291275728E-01    8.2519749039E-01
    8.0749775096E-01    7.8983831806E-01    7.7224098492E-01    7.5472446905E-01
    7.3730436142E-01    7.1999311550E-01    7.0280007672E-01    6.8573155198E-01
    6.6879091879E-01    6.5197877269E-01    6.3529311140E-01    6.1872955341E-01
    6.0228158866E-01    5.8594085792E-01    5.6969745781E-01    5.5354026737E-01
    5.3745729228E-01    5.2143602239E-01    5.0546379790E-01    4.8952817969E-01
    4.7361731887E-01    4.5772032091E-01    4.4182759964E-01    4.2593121627E-01
    4.1002519931E-01    3.9410584087E-01    3.7817196547E-01    3.6222516790E-01
    3.4627001656E-01    3.3031421979E-01    3.1436875266E-01    2.9844794241E-01
    2.8256951118E-01    2.6675457532E-01    2.5102760096E-01    2.3541631618E-01
    2.1995158072E-01    2.0466721462E-01    1.8959978766E-01    1.7478837225E-01
    1.6027426255E-01    1.4610066326E-01    1.3231235190E-01    1.1895531858E-01
    1.0607638776E-01    9.3722828089E-02    8.1941942589E-02    7.0780690579E-02
    6.0285255528E-02    5.0500380034E-02    4.1467815983E-02    3.3228837023E-02
    2.5823519649E-02    1.9289157391E-02    1.3660183089E-02    8.9678541925E-03
    5.2419828497E-03    2.4925449911E-03    7.7684320733E-04    9.4904796971E-05
   -1.3219213581E-05    7.1979068746E-06   -6.9620119469E-07   -7.7276644593E-09
   -8.0822808450E-08    0.0000000000E+00    0.0000000000E+00    0.0000000000E+00
    0.0000000000E+00    0.0000000000E+00    0.0000000000E+00    0.0000000000E+00
    0.0000000000E+00    0.0000000000E+00    0.0000000000E+00    0.0000000000E+00
    0.0000000000E+00    0.0000000000E+00    0.0000000000E+00    0.0000000000E+00
    0.0000000000E+00    0.0000000000E+00    0.0000000000E+00    0.0000000000E+00
    0.0000000000E+00    0.0000000000E+00    0.0000000000E+00    0.0000000000E+00
    0.0000000000E+00    0.0000000000E+00    0.0000000000E+00    0.0000000000E+00
 0. 0. 0. 0.
 0. 0. 0. 0.
 0. 0. 0. 0.
 0. 0. 0. 0.
 0. 0. 0. 0.
 0. 0. 0. 0.
 0. 0. 0. 0.
 0. 0. 0. 0.
 0. 0. 0. 0.
 0. 0. 0. 0.
 0. 0. 0. 0.
 0. 0. 0. 0.
 0. 0. 0. 0.
 0. 0. 0. 0.
 0. 0. 0. 0.
 0. 0. 0. 0.
 0. 0. 0. 0.
 0. 0. 0. 0.
 0. 0. 0. 0.
 0. 0. 0. 0.
 0. 0. 0. 0.
 0. 0. 0. 0.
 0. 0. 0. 0.
 0. 0. 0. 0.
 0. 0. 0. 0.
 0. 0. 0. 0.
 0. 0. 0. 0.
 0. 0. 0. 0.
 0. 0. 0. 0.
 0. 0. 0. 0.
 0. 0. 0. 0.
 0. 0. 0. 0.
 0. 0. 0. 0.
 0. 0. 0. 0.
 0. 0. 0. 0.
 0. 0. 0. 0.
 0. 0. 0. 0.
 0. 0. 0. 0.
 0. 0. 0. 0.
 0. 0. 0. 0.
 0. 0. 0. 0.
 0. 0. 0. 0.
 0. 0. 0. 0.
 0. 0. 0. 0.
 0. 0. 0. 0.
 0. 0. 0. 0.
 0. 0. 0. 0.
 0. 0. 0. 0.
 0. 0. 0. 0.
 0. 0. 0. 0.
 0. 0. 0. 0.
 0. 0. 0. 0.
 0. 0. 0. 0.
 0. 0. 0. 0.
 0. 0. 0. 0.
 0. 0. 0. 0.
 0. 0. 0. 0.
 0. 0. 0. 0.
 0. 0. 0. 0.
 0. 0. 0. 0.
 0. 0. 0. 0.
 0. 0. 0. 0.
 0. 0. 0. 0.
 0. 0. 0. 0.
 0. 0. 0. 0.
 0. 0. 0. 0.
 0. 0. 0. 0.
 0. 0. 0. 0.
 0. 0. 0. 0.
 0. 0. 0. 0.
 0. 0. 0. 0.
 0. 0. 0. 0.
 0. 0. 0. 0.
 0. 0. 0. 0.
 0. 0. 0. 0.
 0. 0. 0. 0.
 0. 0. 0. 0.
 0. 0. 0. 0.
 0. 0. 0. 0.
 0. 0. 0. 0.
 0. 0. 0. 0.
 0. 0. 0. 0.
 0. 0. 0. 0.
 0. 0. 0. 0.
 0. 0. 0. 0.
 0. 0. 0. 0.
 0. 0. 0. 0.
 0. 0. 0. 0.
 0. 0. 0. 0.
 0. 0. 0. 0.
 0. 0. 0. 0.
 0. 0. 0. 0.
 0. 0. 0. 0.
 0. 0. 0. 0.
 0. 0. 0. 0.
 0. 0. 0. 0.
 0. 0. 0. 0.
 0. 0. 0. 0.
 0. 0. 0. 0.
 0. 0. 0. 0.
 0. 0. 0. 0.
 0. 0. 0. 0.
 0. 0. 0. 0.
 0. 0. 0. 0.
 0. 0. 0. 0.
 0. 0. 0. 0.
 0. 0. 0. 0.
 0. 0. 0. 0.
 0. 0. 0. 0.
 0. 0. 0. 0.
 0. 0. 0. 0.
 0. 0. 0. 0.
 0. 0. 0. 0.
 0. 0. 0. 0.
 0. 0. 0. 0.
 0. 0. 0. 0.
 0. 0. 0. 0.
 0. 0. 0. 0.
 0. 0. 0. 0.
 0. 0. 0. 0.
 0. 0. 0. 0.
 0. 0. 0. 0.
 0. 0. 0. 0.
 0. 0. 0. 0.
 0. 0. 0. 0.
 0. 0. 0. 0.
 0. 0. 0. 0.
 0. 0. 0. 0.
 0. 0. 0. 0.
 0. 0. 0. 0.
 0. 0. 0. 0.
 0. 0. 0. 0.
 0. 0. 0. 0.
 0. 0. 0. 0.
 0. 0. 0. 0.
 0. 0. 0. 0.
 0. 0. 0. 0.
 0. 0. 0. 0.
 0. 0. 0. 0.
 0. 0. 0. 0.
 0. 0. 0. 0.
 0. 0. 0. 0.
 0. 0. 0. 0.
 0. 0. 0. 0.
 0. 0. 0. 0.
 0. 0. 0. 0.
 0. 0. 0. 0.
 0. 0. 0. 0.
 0. 0. 0. 0.
 0. 0. 0. 0.
 0. 0. 0. 0.
 0. 0. 0. 0.
 0. 0. 0. 0.
 0. 0. 0. 0.
 0. 0. 0. 0.
 0. 0. 0. 0.
 0. 0. 0. 0.
 0. 0. 0. 0.
 0. 0. 0. 0.
 0. 0. 0. 0.
 0. 0. 0. 0.
 0. 0. 0. 0.
 0. 0. 0. 0.
 0. 0. 0. 0.
 0. 0. 0. 0.
 0. 0. 0. 0.
 0. 0. 0. 0.
 0. 0. 0. 0.
 0. 0. 0. 0.
 0. 0. 0. 0.
 0. 0. 0. 0.
 0. 0. 0. 0.
 0. 0. 0. 0.
 0. 0. 0. 0.
 0. 0. 0. 0.
 0. 0. 0. 0.
 0. 0. 0. 0.
 0. 0. 0. 0.
 0. 0. 0. 0.
 0. 0. 0. 0.
 0. 0. 0. 0.
 0. 0. 0. 0.
 0. 0. 0. 0.
 0. 0. 0. 0.
 0. 0. 0. 0.
 0. 0. 0. 0.
 0. 0. 0. 0.
 0. 0. 0. 0.
 0. 0. 0. 0.
 0. 0. 0. 0.
 0. 0. 0. 0.
 0. 0. 0. 0.
 0. 0. 0. 0.
 0. 0. 0. 0.
 0. 0. 0. 0.
 0. 0. 0. 0.
 0. 0. 0. 0.
 0. 0. 0. 0.
 0. 0. 0. 0.
 0. 0. 0. 0.
 0. 0. 0. 0.
 0. 0. 0. 0.
 0. 0. 0. 0.
 0. 0. 0. 0.
 0. 0. 0. 0.
 0. 0. 0. 0.
 0. 0. 0. 0.
 0. 0. 0. 0.
 0. 0. 0. 0.
 0. 0. 0. 0.
 0. 0. 0. 0.
 0. 0. 0. 0.
 0. 0. 0. 0.
 0. 0. 0. 0.
 0. 0. 0. 0.
 0. 0. 0. 0.
 0. 0. 0. 0.
 0. 0. 0. 0.
 0. 0. 0. 0.
 0. 0. 0. 0.
 0. 0. 0. 0.
 0. 0. 0. 0.
 0. 0. 0. 0.
 0. 0. 0. 0.
 0. 0. 0. 0.
 0. 0. 0. 0.
 0. 0. 0. 0.
 0. 0. 0. 0.
 0. 0. 0. 0.
 0. 0. 0. 0.
 0. 0. 0. 0.
 0. 0. 0. 0.
 0. 0. 0. 0.
 0. 0. 0. 0.
 0. 0. 0. 0.
 0. 0. 0. 0.
 0. 0. 0. 0.
 0. 0. 0. 0.
 0. 0. 0. 0.
 0. 0. 0. 0.
 0. 0. 0. 0.
 0. 0. 0. 0.
 0. 0. 0. 0.
 0. 0. 0. 0.
 0. 0. 0. 0.
 0. 0. 0. 0.
 0. 0. 0. 0.
 0. 0. 0. 0.
 0. 0. 0. 0.
 0. 0. 0. 0.
 0. 0. 0. 0.
 0. 0. 0. 0.
 0. 0. 0. 0.
 0. 0. 0. 0.
 0. 0. 0. 0.
 0. 0. 0. 0.
 0. 0. 0. 0.
 0. 0. 0. 0.
 0. 0. 0. 0.
 0. 0. 0. 0.
 0. 0. 0. 0.
 0. 0. 0. 0.
 0. 0. 0. 0.
 0. 0. 0. 0.
 0. 0. 0. 0.
 0. 0. 0. 0.
 0. 0. 0. 0.
 0. 0. 0. 0.
 0. 0. 0. 0.
 0. 0. 0. 0.
 0. 0. 0. 0.
 0. 0. 0. 0.
 0. 0. 0. 0.
 0. 0. 0. 0.
 0. 0. 0. 0.
 0. 0. 0. 0.
 0. 0. 0. 0.
 0. 0. 0. 0.
 0. 0. 0. 0.
 0. 0. 0. 0.
 0. 0. 0. 0.
 0. 0. 0. 0.
 0. 0. 0. 0.
 0. 0. 0. 0.
 0. 0. 0. 0.
 0. 0. 0. 0.
 0. 0. 0. 0.
 0. 0. 0. 0.
 0. 0. 0. 0.
 0. 0. 0. 0.
 0. 0. 0. 0.
 0. 0. 0. 0.
 0. 0. 0. 0.
 0. 0. 0. 0.
 0. 0. 0. 0.
 0. 0. 0. 0.
 0. 0. 0. 0.
 0. 0. 0. 0.
 0. 0. 0. 0.
 0. 0. 0. 0.
 0. 0. 0. 0.
 0. 0. 0. 0.
 0. 0. 0. 0.
 0. 0. 0. 0.
 0. 0. 0. 0.
 0. 0. 0. 0.
 0. 0. 0. 0.
 0. 0. 0. 0.
 0. 0. 0. 0.
 0. 0. 0. 0.
 0. 0. 0. 0.
 0. 0. 0. 0.
 0. 0. 0. 0.
 0. 0. 0. 0.
 0. 0. 0. 0.
 0. 0. 0. 0.
 0. 0. 0. 0.
 0. 0. 0. 0.
 0. 0. 0. 0.
 0. 0. 0. 0.
 0. 0. 0. 0.
 0. 0. 0. 0.
 0. 0. 0. 0.
 0. 0. 0. 0.
 0. 0. 0. 0.
 0. 0. 0. 0.
 0. 0. 0. 0.
 0. 0. 0. 0.
 0. 0. 0. 0.
 0. 0. 0. 0.
 0. 0. 0. 0.
 0. 0. 0. 0.
 0. 0. 0. 0.
 0. 0. 0. 0.
 0. 0. 0. 0.
 0. 0. 0. 0.
 0. 0. 0. 0.
 0. 0. 0. 0.
 0. 0. 0. 0.
 0. 0. 0. 0.
 0. 0. 0. 0.
 0. 0. 0. 0.
 0. 0. 0. 0.
 0. 0. 0. 0.
 0. 0. 0. 0.
 0. 0. 0. 0.
 0. 0. 0. 0.
 0. 0. 0. 0.
 0. 0. 0. 0.
 0. 0. 0. 0.
 0. 0. 0. 0.
 0. 0. 0. 0.
 0. 0. 0. 0.
 0. 0. 0. 0.
 0. 0. 0. 0.
 0. 0. 0. 0.
 0. 0. 0. 0.
 0. 0. 0. 0.
 0. 0. 0. 0.
 0. 0. 0. 0.
 0. 0. 0. 0.
 0. 0. 0. 0.
 0. 0. 0. 0.
 0. 0. 0. 0.
 0. 0. 0. 0.
 0. 0. 0. 0.
 0. 0. 0. 0.
 0. 0. 0. 0.
 0. 0. 0. 0.
 0. 0. 0. 0.
 0. 0. 0. 0.
 0. 0. 0. 0.
 0. 0. 0. 0.
 0. 0. 0. 0.
 0. 0. 0. 0.
 0. 0. 0. 0.
 0. 0. 0. 0.
 0. 0. 0. 0.
 0. 0. 0. 0.
 0. 0. 0. 0.
 0. 0.
   </PP_BETA.5>
   <PP_BETA.6
       type="real"
       size="1766"
       columns="4"
       index="6"
       angular_momentum="1"
       cutoff_radius_index=" 244"
       cutoff_radius="    2.4300000000E+00" >
    4.1462723185E-10    8.5975075393E-05    3.4330520010E-04    7.7021892407E-04
    1.3638097752E-03    2.1201043508E-03    3.0341560099E-03    4.1001625583E-03
    5.3116059084E-03    6.6614113067E-03    8.1421233829E-03    9.7460959657E-03
    1.1465692365E-02    1.3293492610E-02    1.5222504000E-02    1.7246371213E-02
    1.9359582235E-02    2.1557666341E-02    2.3837380519E-02    2.6196880828E-02
    2.8635875419E-02    3.1155756202E-02    3.3759706439E-02    3.6452781937E-02
    3.9241963863E-02    4.2136181684E-02    4.5146305148E-02    4.8285104735E-02
    5.1567180486E-02    5.5008859605E-02    5.8628063750E-02    6.2444147380E-02
    6.6477709042E-02    7.0750377864E-02    7.5284577990E-02    8.0103274035E-02
    8.5229700971E-02    9.0687082142E-02    9.6498339337E-02    1.0268579899E-01
    1.0927089875E-01    1.1627389858E-01    1.2371360068E-01    1.3160708236E-01
    1.3996944581E-01    1.4881358855E-01    1.5814999810E-01    1.6798657403E-01
    1.7832848018E-01    1.8917802946E-01    2.0053460312E-01    2.1239460595E-01
    2.2475145830E-01    2.3759562524E-01    2.5091468278E-01    2.6469342032E-01
    2.7891397813E-01    2.9355601793E-01    3.0859692447E-01    3.2401203504E-01
    3.3977489398E-01    3.5585752826E-01    3.7223074047E-01    3.8886441468E-01
    4.0572783097E-01    4.2278998373E-01    4.4001989925E-01    4.5738694764E-01
    4.7486114461E-01    4.9241343828E-01    5.1001597695E-01    5.2764235342E-01
    5.4526782230E-01    5.6286948676E-01    5.8042645186E-01    5.9791994193E-01
    6.1533338005E-01    6.3265242834E-01    6.4986498818E-01    6.6696116023E-01
    6.8393316482E-01    7.0077522350E-01    7.1748340378E-01    7.3405542907E-01
    7.5049045673E-01    7.6678882774E-01    7.8295179161E-01    7.9898121092E-01
    8.1487925026E-01    8.3064805428E-01    8.4628942024E-01    8.6180447032E-01
    8.7719332919E-01    8.9245481222E-01    9.0758612964E-01    9.2258261202E-01
    9.3743746183E-01    9.5214153580E-01    9.6668316233E-01    9.8104799775E-01
    9.9521892454E-01    1.0091759944E+00    1.0228964183E+00    1.0363546040E+00
    1.0495222436E+00    1.0623684487E+00    1.0748599348E+00    1.0869612512E+00
    1.0986350562E+00    1.1098424330E+00    1.1205432445E+00    1.1306965208E+00
    1.1402608763E+00    1.1491949503E+00    1.1574578660E+00    1.1650097004E+00
    1.1718119611E+00    1.1778280608E+00    1.1830237852E+00    1.1873677454E+00
    1.1908318104E+00    1.1933915113E+00    1.1950264121E+00    1.1957204416E+00
    1.1954621796E+00    1.1942450942E+00    1.1920677252E+00    1.1889338095E+00
    1.1848523470E+00    1.1798376042E+00    1.1739090538E+00    1.1670912508E+00
    1.1594136459E+00    1.1509103357E+00    1.1416197549E+00    1.1315843102E+00
    1.1208499633E+00    1.1094657645E+00    1.0974833453E+00    1.0849563729E+00
    1.0719399766E+00    1.0584901505E+00    1.0446631419E+00    1.0305148317E+00
    1.0161001170E+00    1.0014723015E+00    9.8668250439E-01    9.7177909356E-01
    9.5680715280E-01    9.4180798918E-01    9.2681868829E-01    9.1187172361E-01
    8.9699462585E-01    8.8220971748E-01    8.6753391663E-01    8.5297861389E-01
    8.3854962450E-01    8.2424721741E-01    8.1006622194E-01    7.9599621121E-01
    7.8202176128E-01    7.6812278302E-01    7.5427492357E-01    7.4045003266E-01
    7.2661668855E-01    7.1274077727E-01    6.9878611821E-01    6.8471512839E-01
    6.7048951710E-01    6.5607100206E-01    6.4142203820E-01    6.2650654939E-01
    6.1129065369E-01    5.9574337266E-01    5.7983731511E-01    5.6354932618E-01
    5.4686109291E-01    5.2975969791E-01    5.1223811329E-01    4.9429562787E-01
    4.7593820130E-01    4.5717873971E-01    4.3803728844E-01    4.1854113842E-01
    3.9872484384E-01    3.7863014993E-01    3.5830583062E-01    3.3780743731E-01
    3.1719696078E-01    2.9654240959E-01    2.7591730940E-01    2.5540012858E-01
    2.3507363649E-01    2.1502420169E-01    1.9534103820E-01    1.7611540857E-01
    1.5743979306E-01    1.3940703897E-01    1.2210946290E-01    1.0563805801E-01
    9.0081533924E-02    7.5524659638E-02    6.2044131685E-02    4.9716385166E-02
    3.8615535826E-02    2.8808819062E-02    2.0356697918E-02    1.3312183064E-02
    7.7230301862E-03    3.6070881312E-03    1.0402738581E-03    2.0760175333E-05
   -5.7797377819E-05    2.2434407203E-05   -2.9001909428E-06   -2.8544982622E-08
    6.5048859426E-08    0.0000000000E+00    0.0000000000E+00    0.0000000000E+00
    0.0000000000E+00    0.0000000000E+00    0.0000000000E+00    0.0000000000E+00
    0.0000000000E+00    0.0000000000E+00    0.0000000000E+00    0.0000000000E+00
    0.0000000000E+00    0.0000000000E+00    0.0000000000E+00    0.0000000000E+00
    0.0000000000E+00    0.0000000000E+00    0.0000000000E+00    0.0000000000E+00
    0.0000000000E+00    0.0000000000E+00    0.0000000000E+00    0.0000000000E+00
    0.0000000000E+00    0.0000000000E+00    0.0000000000E+00    0.0000000000E+00
 0. 0. 0. 0.
 0. 0. 0. 0.
 0. 0. 0. 0.
 0. 0. 0. 0.
 0. 0. 0. 0.
 0. 0. 0. 0.
 0. 0. 0. 0.
 0. 0. 0. 0.
 0. 0. 0. 0.
 0. 0. 0. 0.
 0. 0. 0. 0.
 0. 0. 0. 0.
 0. 0. 0. 0.
 0. 0. 0. 0.
 0. 0. 0. 0.
 0. 0. 0. 0.
 0. 0. 0. 0.
 0. 0. 0. 0.
 0. 0. 0. 0.
 0. 0. 0. 0.
 0. 0. 0. 0.
 0. 0. 0. 0.
 0. 0. 0. 0.
 0. 0. 0. 0.
 0. 0. 0. 0.
 0. 0. 0. 0.
 0. 0. 0. 0.
 0. 0. 0. 0.
 0. 0. 0. 0.
 0. 0. 0. 0.
 0. 0. 0. 0.
 0. 0. 0. 0.
 0. 0. 0. 0.
 0. 0. 0. 0.
 0. 0. 0. 0.
 0. 0. 0. 0.
 0. 0. 0. 0.
 0. 0. 0. 0.
 0. 0. 0. 0.
 0. 0. 0. 0.
 0. 0. 0. 0.
 0. 0. 0. 0.
 0. 0. 0. 0.
 0. 0. 0. 0.
 0. 0. 0. 0.
 0. 0. 0. 0.
 0. 0. 0. 0.
 0. 0. 0. 0.
 0. 0. 0. 0.
 0. 0. 0. 0.
 0. 0. 0. 0.
 0. 0. 0. 0.
 0. 0. 0. 0.
 0. 0. 0. 0.
 0. 0. 0. 0.
 0. 0. 0. 0.
 0. 0. 0. 0.
 0. 0. 0. 0.
 0. 0. 0. 0.
 0. 0. 0. 0.
 0. 0. 0. 0.
 0. 0. 0. 0.
 0. 0. 0. 0.
 0. 0. 0. 0.
 0. 0. 0. 0.
 0. 0. 0. 0.
 0. 0. 0. 0.
 0. 0. 0. 0.
 0. 0. 0. 0.
 0. 0. 0. 0.
 0. 0. 0. 0.
 0. 0. 0. 0.
 0. 0. 0. 0.
 0. 0. 0. 0.
 0. 0. 0. 0.
 0. 0. 0. 0.
 0. 0. 0. 0.
 0. 0. 0. 0.
 0. 0. 0. 0.
 0. 0. 0. 0.
 0. 0. 0. 0.
 0. 0. 0. 0.
 0. 0. 0. 0.
 0. 0. 0. 0.
 0. 0. 0. 0.
 0. 0. 0. 0.
 0. 0. 0. 0.
 0. 0. 0. 0.
 0. 0. 0. 0.
 0. 0. 0. 0.
 0. 0. 0. 0.
 0. 0. 0. 0.
 0. 0. 0. 0.
 0. 0. 0. 0.
 0. 0. 0. 0.
 0. 0. 0. 0.
 0. 0. 0. 0.
 0. 0. 0. 0.
 0. 0. 0. 0.
 0. 0. 0. 0.
 0. 0. 0. 0.
 0. 0. 0. 0.
 0. 0. 0. 0.
 0. 0. 0. 0.
 0. 0. 0. 0.
 0. 0. 0. 0.
 0. 0. 0. 0.
 0. 0. 0. 0.
 0. 0. 0. 0.
 0. 0. 0. 0.
 0. 0. 0. 0.
 0. 0. 0. 0.
 0. 0. 0. 0.
 0. 0. 0. 0.
 0. 0. 0. 0.
 0. 0. 0. 0.
 0. 0. 0. 0.
 0. 0. 0. 0.
 0. 0. 0. 0.
 0. 0. 0. 0.
 0. 0. 0. 0.
 0. 0. 0. 0.
 0. 0. 0. 0.
 0. 0. 0. 0.
 0. 0. 0. 0.
 0. 0. 0. 0.
 0. 0. 0. 0.
 0. 0. 0. 0.
 0. 0. 0. 0.
 0. 0. 0. 0.
 0. 0. 0. 0.
 0. 0. 0. 0.
 0. 0. 0. 0.
 0. 0. 0. 0.
 0. 0. 0. 0.
 0. 0. 0. 0.
 0. 0. 0. 0.
 0. 0. 0. 0.
 0. 0. 0. 0.
 0. 0. 0. 0.
 0. 0. 0. 0.
 0. 0. 0. 0.
 0. 0. 0. 0.
 0. 0. 0. 0.
 0. 0. 0. 0.
 0. 0. 0. 0.
 0. 0. 0. 0.
 0. 0. 0. 0.
 0. 0. 0. 0.
 0. 0. 0. 0.
 0. 0. 0. 0.
 0. 0. 0. 0.
 0. 0. 0. 0.
 0. 0. 0. 0.
 0. 0. 0. 0.
 0. 0. 0. 0.
 0. 0. 0. 0.
 0. 0. 0. 0.
 0. 0. 0. 0.
 0. 0. 0. 0.
 0. 0. 0. 0.
 0. 0. 0. 0.
 0. 0. 0. 0.
 0. 0. 0. 0.
 0. 0. 0. 0.
 0. 0. 0. 0.
 0. 0. 0. 0.
 0. 0. 0. 0.
 0. 0. 0. 0.
 0. 0. 0. 0.
 0. 0. 0. 0.
 0. 0. 0. 0.
 0. 0. 0. 0.
 0. 0. 0. 0.
 0. 0. 0. 0.
 0. 0. 0. 0.
 0. 0. 0. 0.
 0. 0. 0. 0.
 0. 0. 0. 0.
 0. 0. 0. 0.
 0. 0. 0. 0.
 0. 0. 0. 0.
 0. 0. 0. 0.
 0. 0. 0. 0.
 0. 0. 0. 0.
 0. 0. 0. 0.
 0. 0. 0. 0.
 0. 0. 0. 0.
 0. 0. 0. 0.
 0. 0. 0. 0.
 0. 0. 0. 0.
 0. 0. 0. 0.
 0. 0. 0. 0.
 0. 0. 0. 0.
 0. 0. 0. 0.
 0. 0. 0. 0.
 0. 0. 0. 0.
 0. 0. 0. 0.
 0. 0. 0. 0.
 0. 0. 0. 0.
 0. 0. 0. 0.
 0. 0. 0. 0.
 0. 0. 0. 0.
 0. 0. 0. 0.
 0. 0. 0. 0.
 0. 0. 0. 0.
 0. 0. 0. 0.
 0. 0. 0. 0.
 0. 0. 0. 0.
 0. 0. 0. 0.
 0. 0. 0. 0.
 0. 0. 0. 0.
 0. 0. 0. 0.
 0. 0. 0. 0.
 0. 0. 0. 0.
 0. 0. 0. 0.
 0. 0. 0. 0.
 0. 0. 0. 0.
 0. 0. 0. 0.
 0. 0. 0. 0.
 0. 0. 0. 0.
 0. 0. 0. 0.
 0. 0. 0. 0.
 0. 0. 0. 0.
 0. 0. 0. 0.
 0. 0. 0. 0.
 0. 0. 0. 0.
 0. 0. 0. 0.
 0. 0. 0. 0.
 0. 0. 0. 0.
 0. 0. 0. 0.
 0. 0. 0. 0.
 0. 0. 0. 0.
 0. 0. 0. 0.
 0. 0. 0. 0.
 0. 0. 0. 0.
 0. 0. 0. 0.
 0. 0. 0. 0.
 0. 0. 0. 0.
 0. 0. 0. 0.
 0. 0. 0. 0.
 0. 0. 0. 0.
 0. 0. 0. 0.
 0. 0. 0. 0.
 0. 0. 0. 0.
 0. 0. 0. 0.
 0. 0. 0. 0.
 0. 0. 0. 0.
 0. 0. 0. 0.
 0. 0. 0. 0.
 0. 0. 0. 0.
 0. 0. 0. 0.
 0. 0. 0. 0.
 0. 0. 0. 0.
 0. 0. 0. 0.
 0. 0. 0. 0.
 0. 0. 0. 0.
 0. 0. 0. 0.
 0. 0. 0. 0.
 0. 0. 0. 0.
 0. 0. 0. 0.
 0. 0. 0. 0.
 0. 0. 0. 0.
 0. 0. 0. 0.
 0. 0. 0. 0.
 0. 0. 0. 0.
 0. 0. 0. 0.
 0. 0. 0. 0.
 0. 0. 0. 0.
 0. 0. 0. 0.
 0. 0. 0. 0.
 0. 0. 0. 0.
 0. 0. 0. 0.
 0. 0. 0. 0.
 0. 0. 0. 0.
 0. 0. 0. 0.
 0. 0. 0. 0.
 0. 0. 0. 0.
 0. 0. 0. 0.
 0. 0. 0. 0.
 0. 0. 0. 0.
 0. 0. 0. 0.
 0. 0. 0. 0.
 0. 0. 0. 0.
 0. 0. 0. 0.
 0. 0. 0. 0.
 0. 0. 0. 0.
 0. 0. 0. 0.
 0. 0. 0. 0.
 0. 0. 0. 0.
 0. 0. 0. 0.
 0. 0. 0. 0.
 0. 0. 0. 0.
 0. 0. 0. 0.
 0. 0. 0. 0.
 0. 0. 0. 0.
 0. 0. 0. 0.
 0. 0. 0. 0.
 0. 0. 0. 0.
 0. 0. 0. 0.
 0. 0. 0. 0.
 0. 0. 0. 0.
 0. 0. 0. 0.
 0. 0. 0. 0.
 0. 0. 0. 0.
 0. 0. 0. 0.
 0. 0. 0. 0.
 0. 0. 0. 0.
 0. 0. 0. 0.
 0. 0. 0. 0.
 0. 0. 0. 0.
 0. 0. 0. 0.
 0. 0. 0. 0.
 0. 0. 0. 0.
 0. 0. 0. 0.
 0. 0. 0. 0.
 0. 0. 0. 0.
 0. 0. 0. 0.
 0. 0. 0. 0.
 0. 0. 0. 0.
 0. 0. 0. 0.
 0. 0. 0. 0.
 0. 0. 0. 0.
 0. 0. 0. 0.
 0. 0. 0. 0.
 0. 0. 0. 0.
 0. 0. 0. 0.
 0. 0. 0. 0.
 0. 0. 0. 0.
 0. 0. 0. 0.
 0. 0. 0. 0.
 0. 0. 0. 0.
 0. 0. 0. 0.
 0. 0. 0. 0.
 0. 0. 0. 0.
 0. 0. 0. 0.
 0. 0. 0. 0.
 0. 0. 0. 0.
 0. 0. 0. 0.
 0. 0. 0. 0.
 0. 0. 0. 0.
 0. 0. 0. 0.
 0. 0. 0. 0.
 0. 0. 0. 0.
 0. 0. 0. 0.
 0. 0. 0. 0.
 0. 0. 0. 0.
 0. 0. 0. 0.
 0. 0. 0. 0.
 0. 0. 0. 0.
 0. 0. 0. 0.
 0. 0. 0. 0.
 0. 0. 0. 0.
 0. 0. 0. 0.
 0. 0. 0. 0.
 0. 0. 0. 0.
 0. 0. 0. 0.
 0. 0. 0. 0.
 0. 0. 0. 0.
 0. 0. 0. 0.
 0. 0. 0. 0.
 0. 0. 0. 0.
 0. 0. 0. 0.
 0. 0. 0. 0.
 0. 0. 0. 0.
 0. 0. 0. 0.
 0. 0. 0. 0.
 0. 0. 0. 0.
 0. 0. 0. 0.
 0. 0. 0. 0.
 0. 0. 0. 0.
 0. 0. 0. 0.
 0. 0. 0. 0.
 0. 0. 0. 0.
 0. 0. 0. 0.
 0. 0. 0. 0.
 0. 0. 0. 0.
 0. 0. 0. 0.
 0. 0. 0. 0.
 0. 0. 0. 0.
 0. 0.
   </PP_BETA.6>
   <PP_BETA.7
       type="real"
       size="1766"
       columns="4"
       index="7"
       angular_momentum="2"
       cutoff_radius_index=" 244"
       cutoff_radius="    2.4300000000E+00" >
    2.8755601069E-10    6.1141521699E-06    4.8841674208E-05    1.6443934106E-04
    3.8845595184E-04    7.5539130253E-04    1.2983705042E-03    2.0488384193E-03
    3.0362787016E-03    4.2879615724E-03    5.8287240539E-03    7.6807859166E-03
    9.8636040797E-03    1.2393767653E-02    1.5284935216E-02    1.8547815324E-02
    2.2190190593E-02    2.6216985072E-02    3.0630374002E-02    3.5429934378E-02
    4.0612834191E-02    4.6174057565E-02    5.2106662525E-02    5.8402067569E-02
    6.5050362797E-02    7.2040640933E-02    7.9361343232E-02    8.7000614999E-02
    9.4946665257E-02    1.0318812495E-01    1.1171439803E-01    1.2051599982E-01
    1.2958487714E-01    1.3891470487E-01    1.4850115382E-01    1.5834212532E-01
    1.6843794802E-01    1.7879153324E-01    1.8940848532E-01    2.0029716441E-01
    2.1146869942E-01    2.2293694976E-01    2.3471841511E-01    2.4683209294E-01
    2.5929928477E-01    2.7214335224E-01    2.8538942526E-01    2.9906406489E-01
    3.1319488458E-01    3.2781013364E-01    3.4293824776E-01    3.5860737174E-01
    3.7484486013E-01    3.9167676178E-01    4.0912729484E-01    4.2721831883E-01
    4.4596881058E-01    4.6539435102E-01    4.8550662978E-01    5.0631297433E-01
    5.2781591039E-01    5.5001276003E-01    5.7289528336E-01    5.9644936957E-01
    6.2065478225E-01    6.4548496365E-01    6.7090690155E-01    6.9688106208E-01
    7.2336139077E-01    7.5029538338E-01    7.7762422748E-01    8.0528301450E-01
    8.3320102144E-01    8.6130206045E-01    8.8950489364E-01    9.1772370966E-01
    9.4586865791E-01    9.7384643526E-01    1.0015609198E+00    1.0289138450E+00
    1.0558055080E+00    1.0821355042E+00    1.1078034800E+00    1.1327098972E+00
    1.1567567992E+00    1.1798485708E+00    1.2018926848E+00    1.2228004247E+00
    1.2424875776E+00    1.2608750877E+00    1.2778896649E+00    1.2934643391E+00
    1.3075389565E+00    1.3200606101E+00    1.3309840002E+00    1.3402717214E+00
    1.3478944718E+00    1.3538311816E+00    1.3580690615E+00    1.3606035680E+00
    1.3614382882E+00    1.3605847443E+00    1.3580621194E+00    1.3538969107E+00
    1.3481225115E+00    1.3407787284E+00    1.3319112398E+00    1.3215710015E+00
    1.3098136081E+00    1.2966986161E+00    1.2822888392E+00    1.2666496234E+00
    1.2498481102E+00    1.2319524996E+00    1.2130313191E+00    1.1931527098E+00
    1.1723837389E+00    1.1507897450E+00    1.1284337273E+00    1.1053757848E+00
    1.0816726126E+00    1.0573770631E+00    1.0325377758E+00    1.0071988829E+00
    9.8139979154E-01    9.5517504906E-01    9.2855428957E-01    9.0156226521E-01
    8.7421896041E-01    8.4653978802E-01    8.1853586490E-01    7.9021436309E-01
    7.6157893220E-01    7.3263018726E-01    7.0336625542E-01    6.7378337437E-01
    6.4387653407E-01    6.1364015317E-01    5.8306878071E-01    5.5215781322E-01
    5.2090421723E-01    4.8930724673E-01    4.5736914522E-01    4.2509582198E-01
    3.9249749244E-01    3.5958927271E-01    3.2639171894E-01    2.9293130270E-01
    2.5924081406E-01    2.2535968531E-01    1.9133422856E-01    1.5721778200E-01
    1.2307076033E-01    8.8960606030E-02    5.4961639674E-02    2.1154808190E-02
   -1.2372668288E-02   -4.5527749321E-02   -7.8212123813E-02   -1.1032285214E-01
   -1.4175309528E-01   -1.7239292437E-01   -2.0213020282E-01   -2.3085153241E-01
   -2.5844325342E-01   -2.8479248859E-01   -3.0978821935E-01   -3.3332238274E-01
   -3.5529097661E-01   -3.7559516061E-01   -3.9414234012E-01   -4.1084722044E-01
   -4.2563281850E-01   -4.3843141986E-01   -4.4918546898E-01   -4.5784838146E-01
   -4.6438526763E-01   -4.6877355771E-01   -4.7100351976E-01   -4.7107866265E-01
   -4.6901601769E-01   -4.6484629350E-01   -4.5861390041E-01   -4.5037684181E-01
   -4.4020647156E-01   -4.2818711785E-01   -4.1441557556E-01   -3.9900047059E-01
   -3.8206150107E-01   -3.6372856183E-01   -3.4414075984E-01   -3.2344532968E-01
   -3.0179645914E-01   -2.7935403639E-01   -2.5628233084E-01   -2.3274862093E-01
   -2.0892178254E-01   -1.8497085245E-01   -1.6106358159E-01   -1.3736499295E-01
   -1.1403595935E-01   -9.1231815764E-02   -6.9101020995E-02   -4.7783882800E-02
   -2.7411360037E-02   -8.1039546414E-03    1.0029294703E-02    2.6891706293E-02
    4.2399726911E-02    5.6483577583E-02    6.9087739968E-02    8.0171374666E-02
    8.9708744118E-02    9.7689479007E-02    1.0411852126E-01    1.0901587531E-01
    1.1241622392E-01    1.1436839444E-01    1.1493468475E-01    1.1419005646E-01
    1.1222120432E-01    1.0912551179E-01    1.0500990445E-01    9.9989613705E-02
    9.4186864564E-02    8.7729479567E-02    8.0749633016E-02    7.3381876764E-02
    6.5762371412E-02    5.8028820486E-02    5.0330905299E-02    4.2808231543E-02
    3.5576750912E-02    2.8750571399E-02    2.2437788860E-02    1.6739478770E-02
    1.1748667970E-02    7.5512422724E-03    4.2160809716E-03    1.7984391832E-03
    4.3045651260E-04   -3.6684065767E-05   -2.9322304617E-05    1.7772417353E-05
 0. 0. 0. 0.
 0. 0. 0. 0.
 0. 0. 0. 0.
 0. 0. 0. 0.
 0. 0. 0. 0.
 0. 0. 0. 0.
 0. 0. 0. 0.
 0. 0. 0. 0.
 0. 0. 0. 0.
 0. 0. 0. 0.
 0. 0. 0. 0.
 0. 0. 0. 0.
 0. 0. 0. 0.
 0. 0. 0. 0.
 0. 0. 0. 0.
 0. 0. 0. 0.
 0. 0. 0. 0.
 0. 0. 0. 0.
 0. 0. 0. 0.
 0. 0. 0. 0.
 0. 0. 0. 0.
 0. 0. 0. 0.
 0. 0. 0. 0.
 0. 0. 0. 0.
 0. 0. 0. 0.
 0. 0. 0. 0.
 0. 0. 0. 0.
 0. 0. 0. 0.
 0. 0. 0. 0.
 0. 0. 0. 0.
 0. 0. 0. 0.
 0. 0. 0. 0.
 0. 0. 0. 0.
 0. 0. 0. 0.
 0. 0. 0. 0.
 0. 0. 0. 0.
 0. 0. 0. 0.
 0. 0. 0. 0.
 0. 0. 0. 0.
 0. 0. 0. 0.
 0. 0. 0. 0.
 0. 0. 0. 0.
 0. 0. 0. 0.
 0. 0. 0. 0.
 0. 0. 0. 0.
 0. 0. 0. 0.
 0. 0. 0. 0.
 0. 0. 0. 0.
 0. 0. 0. 0.
 0. 0. 0. 0.
 0. 0. 0. 0.
 0. 0. 0. 0.
 0. 0. 0. 0.
 0. 0. 0. 0.
 0. 0. 0. 0.
 0. 0. 0. 0.
 0. 0. 0. 0.
 0. 0. 0. 0.
 0. 0. 0. 0.
 0. 0. 0. 0.
 0. 0. 0. 0.
 0. 0. 0. 0.
 0. 0. 0. 0.
 0. 0. 0. 0.
 0. 0. 0. 0.
 0. 0. 0. 0.
 0. 0. 0. 0.
 0. 0. 0. 0.
 0. 0. 0. 0.
 0. 0. 0. 0.
 0. 0. 0. 0.
 0. 0. 0. 0.
 0. 0. 0. 0.
 0. 0. 0. 0.
 0. 0. 0. 0.
 0. 0. 0. 0.
 0. 0. 0. 0.
 0. 0. 0. 0.
 0. 0. 0. 0.
 0. 0. 0. 0.
 0. 0. 0. 0.
 0. 0. 0. 0.
 0. 0. 0. 0.
 0. 0. 0. 0.
 0. 0. 0. 0.
 0. 0. 0. 0.
 0. 0. 0. 0.
 0. 0. 0. 0.
 0. 0. 0. 0.
 0. 0. 0. 0.
 0. 0. 0. 0.
 0. 0. 0. 0.
 0. 0. 0. 0.
 0. 0. 0. 0.
 0. 0. 0. 0.
 0. 0. 0. 0.
 0. 0. 0. 0.
 0. 0. 0. 0.
 0. 0. 0. 0.
 0. 0. 0. 0.
 0. 0. 0. 0.
 0. 0. 0. 0.
 0. 0. 0. 0.
 0. 0. 0. 0.
 0. 0. 0. 0.
 0. 0. 0. 0.
 0. 0. 0. 0.
 0. 0. 0. 0.
 0. 0. 0. 0.
 0. 0. 0. 0.
 0. 0. 0. 0.
 0. 0. 0. 0.
 0. 0. 0. 0.
 0. 0. 0. 0.
 0. 0. 0. 0.
 0. 0. 0. 0.
 0. 0. 0. 0.
 0. 0. 0. 0.
 0. 0. 0. 0.
 0. 0. 0. 0.
 0. 0. 0. 0.
 0. 0. 0. 0.
 0. 0. 0. 0.
 0. 0. 0. 0.
 0. 0. 0. 0.
 0. 0. 0. 0.
 0. 0. 0. 0.
 0. 0. 0. 0.
 0. 0. 0. 0.
 0. 0. 0. 0.
 0. 0. 0. 0.
 0. 0. 0. 0.
 0. 0. 0. 0.
 0. 0. 0. 0.
 0. 0. 0. 0.
 0. 0. 0. 0.
 0. 0. 0. 0.
 0. 0. 0. 0.
 0. 0. 0. 0.
 0. 0. 0. 0.
 0. 0. 0. 0.
 0. 0. 0. 0.
 0. 0. 0. 0.
 0. 0. 0. 0.
 0. 0. 0. 0.
 0. 0. 0. 0.
 0. 0. 0. 0.
 0. 0. 0. 0.
 0. 0. 0. 0.
 0. 0. 0. 0.
 0. 0. 0. 0.
 0. 0. 0. 0.
 0. 0. 0. 0.
 0. 0. 0. 0.
 0. 0. 0. 0.
 0. 0. 0. 0.
 0. 0. 0. 0.
 0. 0. 0. 0.
 0. 0. 0. 0.
 0. 0. 0. 0.
 0. 0. 0. 0.
 0. 0. 0. 0.
 0. 0. 0. 0.
 0. 0. 0. 0.
 0. 0. 0. 0.
 0. 0. 0. 0.
 0. 0. 0. 0.
 0. 0. 0. 0.
 0. 0. 0. 0.
 0. 0. 0. 0.
 0. 0. 0. 0.
 0. 0. 0. 0.
 0. 0. 0. 0.
 0. 0. 0. 0.
 0. 0. 0. 0.
 0. 0. 0. 0.
 0. 0. 0. 0.
 0. 0. 0. 0.
 0. 0. 0. 0.
 0. 0. 0. 0.
 0. 0. 0. 0.
 0. 0. 0. 0.
 0. 0. 0. 0.
 0. 0. 0. 0.
 0. 0. 0. 0.
 0. 0. 0. 0.
 0. 0. 0. 0.
 0. 0. 0. 0.
 0. 0. 0. 0.
 0. 0. 0. 0.
 0. 0. 0. 0.
 0. 0. 0. 0.
 0. 0. 0. 0.
 0. 0. 0. 0.
 0. 0. 0. 0.
 0. 0. 0. 0.
 0. 0. 0. 0.
 0. 0. 0. 0.
 0. 0. 0. 0.
 0. 0. 0. 0.
 0. 0. 0. 0.
 0. 0. 0. 0.
 0. 0. 0. 0.
 0. 0. 0. 0.
 0. 0. 0. 0.
 0. 0. 0. 0.
 0. 0. 0. 0.
 0. 0. 0. 0.
 0. 0. 0. 0.
 0. 0. 0. 0.
 0. 0. 0. 0.
 0. 0. 0. 0.
 0. 0. 0. 0.
 0. 0. 0. 0.
 0. 0. 0. 0.
 0. 0. 0. 0.
 0. 0. 0. 0.
 0. 0. 0. 0.
 0. 0. 0. 0.
 0. 0. 0. 0.
 0. 0. 0. 0.
 0. 0. 0. 0.
 0. 0. 0. 0.
 0. 0. 0. 0.
 0. 0. 0. 0.
 0. 0. 0. 0.
 0. 0. 0. 0.
 0. 0. 0. 0.
 0. 0. 0. 0.
 0. 0. 0. 0.
 0. 0. 0. 0.
 0. 0. 0. 0.
 0. 0. 0. 0.
 0. 0. 0. 0.
 0. 0. 0. 0.
 0. 0. 0. 0.
 0. 0. 0. 0.
 0. 0. 0. 0.
 0. 0. 0. 0.
 0. 0. 0. 0.
 0. 0. 0. 0.
 0. 0. 0. 0.
 0. 0. 0. 0.
 0. 0. 0. 0.
 0. 0. 0. 0.
 0. 0. 0. 0.
 0. 0. 0. 0.
 0. 0. 0. 0.
 0. 0. 0. 0.
 0. 0. 0. 0.
 0. 0. 0. 0.
 0. 0. 0. 0.
 0. 0. 0. 0.
 0. 0. 0. 0.
 0. 0. 0. 0.
 0. 0. 0. 0.
 0. 0. 0. 0.
 0. 0. 0. 0.
 0. 0. 0. 0.
 0. 0. 0. 0.
 0. 0. 0. 0.
 0. 0. 0. 0.
 0. 0. 0. 0.
 0. 0. 0. 0.
 0. 0. 0. 0.
 0. 0. 0. 0.
 0. 0. 0. 0.
 0. 0. 0. 0.
 0. 0. 0. 0.
 0. 0. 0. 0.
 0. 0. 0. 0.
 0. 0. 0. 0.
 0. 0. 0. 0.
 0. 0. 0. 0.
 0. 0. 0. 0.
 0. 0. 0. 0.
 0. 0. 0. 0.
 0. 0. 0. 0.
 0. 0. 0. 0.
 0. 0. 0. 0.
 0. 0. 0. 0.
 0. 0. 0. 0.
 0. 0. 0. 0.
 0. 0. 0. 0.
 0. 0. 0. 0.
 0. 0. 0. 0.
 0. 0. 0. 0.
 0. 0. 0. 0.
 0. 0. 0. 0.
 0. 0. 0. 0.
 0. 0. 0. 0.
 0. 0. 0. 0.
 0. 0. 0. 0.
 0. 0. 0. 0.
 0. 0. 0. 0.
 0. 0. 0. 0.
 0. 0. 0. 0.
 0. 0. 0. 0.
 0. 0. 0. 0.
 0. 0. 0. 0.
 0. 0. 0. 0.
 0. 0. 0. 0.
 0. 0. 0. 0.
 0. 0. 0. 0.
 0. 0. 0. 0.
 0. 0. 0. 0.
 0. 0. 0. 0.
 0. 0. 0. 0.
 0. 0. 0. 0.
 0. 0. 0. 0.
 0. 0. 0. 0.
 0. 0. 0. 0.
 0. 0. 0. 0.
 0. 0. 0. 0.
 0. 0. 0. 0.
 0. 0. 0. 0.
 0. 0. 0. 0.
 0. 0. 0. 0.
 0. 0. 0. 0.
 0. 0. 0. 0.
 0. 0. 0. 0.
 0. 0. 0. 0.
 0. 0. 0. 0.
 0. 0. 0. 0.
 0. 0. 0. 0.
 0. 0. 0. 0.
 0. 0. 0. 0.
 0. 0. 0. 0.
 0. 0. 0. 0.
 0. 0. 0. 0.
 0. 0. 0. 0.
 0. 0. 0. 0.
 0. 0. 0. 0.
 0. 0. 0. 0.
 0. 0. 0. 0.
 0. 0. 0. 0.
 0. 0. 0. 0.
 0. 0. 0. 0.
 0. 0. 0. 0.
 0. 0. 0. 0.
 0. 0. 0. 0.
 0. 0. 0. 0.
 0. 0. 0. 0.
 0. 0. 0. 0.
 0. 0. 0. 0.
 0. 0. 0. 0.
 0. 0. 0. 0.
 0. 0. 0. 0.
 0. 0. 0. 0.
 0. 0. 0. 0.
 0. 0. 0. 0.
 0. 0. 0. 0.
 0. 0. 0. 0.
 0. 0. 0. 0.
 0. 0. 0. 0.
 0. 0. 0. 0.
 0. 0. 0. 0.
 0. 0. 0. 0.
 0. 0. 0. 0.
 0. 0. 0. 0.
 0. 0. 0. 0.
 0. 0. 0. 0.
 0. 0. 0. 0.
 0. 0. 0. 0.
 0. 0. 0. 0.
 0. 0. 0. 0.
 0. 0. 0. 0.
 0. 0. 0. 0.
 0. 0. 0. 0.
 0. 0. 0. 0.
 0. 0. 0. 0.
 0. 0. 0. 0.
 0. 0. 0. 0.
 0. 0. 0. 0.
 0. 0. 0. 0.
 0. 0. 0. 0.
 0. 0. 0. 0.
 0. 0. 0. 0.
 0. 0. 0. 0.
 0. 0. 0. 0.
 0. 0.
   </PP_BETA.7>
   <PP_BETA.8
       type="real"
       size="1766"
       columns="4"
       index="8"
       angular_momentum="2"
       cutoff_radius_index=" 244"
       cutoff_radius="    2.4300000000E+00" >
    2.8865439336E-10    5.9804528606E-06    4.7772597802E-05    1.6083412414E-04
    3.7991993803E-04    7.3874375214E-04    1.2696550448E-03    2.0033361679E-03
    2.9685240946E-03    4.1917609433E-03    5.6971770030E-03    7.5063095149E-03
    9.6379599512E-03    1.2108091974E-02    1.4929771668E-02    1.8113151023E-02
    2.1665495012E-02    2.5591251973E-02    2.9892166342E-02    3.4567432196E-02
    3.9613885399E-02    4.5026231598E-02    5.0797306753E-02    5.6918366360E-02
    6.3379399096E-02    7.0169460192E-02    7.7277019496E-02    8.4690318946E-02
    9.2397733927E-02    1.0038813290E-01    1.0865122965E-01    1.1717792241E-01
    1.2596061449E-01    1.3499351091E-01    1.4427288599E-01    1.5379731727E-01
    1.6356788115E-01    1.7358830672E-01    1.8386508415E-01    1.9440752500E-01
    2.0522777235E-01    2.1634075926E-01    2.2776411469E-01    2.3951801699E-01
    2.5162499550E-01    2.6410968170E-01    2.7699851203E-01    2.9031938514E-01
    3.0410127713E-01    3.1837381877E-01    3.3316683961E-01    3.4850988400E-01
    3.6443170486E-01    3.8095974141E-01    3.9811958711E-01    4.1593445469E-01
    4.3442464521E-01    4.5360702792E-01    4.7349453806E-01    4.9409569953E-01
    5.1541417889E-01    5.3744837743E-01    5.6019106708E-01    5.8362907614E-01
    6.0774302958E-01    6.3250714874E-01    6.5788911420E-01    6.8384999501E-01
    7.1034424664E-01    7.3731977942E-01    7.6471809808E-01    7.9247451249E-01
    8.2051841854E-01    8.4877364753E-01    8.7715888129E-01    9.0558812971E-01
    9.3397126635E-01    9.6221461721E-01    9.9022159688E-01    1.0178933858E+00
    1.0451296420E+00    1.0718292388E+00    1.0978910230E+00    1.1232145830E+00
    1.1477010194E+00    1.1712537110E+00    1.1937790657E+00    1.2151872490E+00
    1.2353928822E+00    1.2543157020E+00    1.2718811737E+00    1.2880210519E+00
    1.3026738817E+00    1.3157854349E+00    1.3273090757E+00    1.3372060523E+00
    1.3454457110E+00    1.3520056295E+00    1.3568716693E+00    1.3600379453E+00
    1.3615067139E+00    1.3612881805E+00    1.3594002292E+00    1.3558680777E+00
    1.3507238621E+00    1.3440061560E+00    1.3357594306E+00    1.3260334622E+00
    1.3148826936E+00    1.3023655592E+00    1.2885437806E+00    1.2734816414E+00
    1.2572452521E+00    1.2399018118E+00    1.2215188780E+00    1.2021636529E+00
    1.1819022948E+00    1.1607992643E+00    1.1389167131E+00    1.1163139230E+00
    1.0930468026E+00    1.0691674487E+00    1.0447237763E+00    1.0197592247E+00
    9.9431254085E-01    9.6841764493E-01    9.4210357852E-01    9.1539453697E-01
    8.8830998524E-01    8.6086485587E-01    8.3306982640E-01    8.0493167285E-01
    7.7645369434E-01    7.4763620348E-01    7.1847707567E-01    6.8897235027E-01
    6.5911687506E-01    6.2890498558E-01    5.9833120951E-01    5.6739098668E-01
    5.3608139414E-01    5.0440186622E-01    4.7235489893E-01    4.3994672837E-01
    4.0718797292E-01    3.7409422940E-01    3.4068661355E-01    3.0699223626E-01
    2.7304460702E-01    2.3888395749E-01    2.0455747860E-01    1.7011946561E-01
    1.3563136692E-01    1.0116173315E-01    6.6786064648E-02    3.2586556397E-02
   -1.3482590412E-03   -3.4923968923E-02   -6.8040834999E-02   -1.0059444121E-01
   -1.3247642891E-01   -1.6357531290E-01   -1.9377737061E-01   -2.2296759546E-01
   -2.5103070483E-01   -2.7785219190E-01   -3.0331941018E-01   -3.2732267883E-01
   -3.4975639644E-01   -3.7052015048E-01   -3.8951980986E-01   -4.0666858755E-01
   -4.2188806057E-01   -4.3510913509E-01   -4.4627294441E-01   -4.5533166865E-01
   -4.6224926530E-01   -4.6700210082E-01   -4.6957947457E-01   -4.6998402711E-01
   -4.6823202647E-01   -4.6435352708E-01   -4.5839239741E-01   -4.5040621382E-01
   -4.4046601970E-01   -4.2865595031E-01   -4.1507272521E-01   -3.9982501196E-01
   -3.8303266580E-01   -3.6482585190E-01   -3.4534405770E-01   -3.2473500463E-01
   -3.0315346918E-01   -2.8076002493E-01   -2.5771971757E-01   -2.3420068632E-01
   -2.1037274546E-01   -1.8640594041E-01   -1.6246909320E-01   -1.3872835235E-01
   -1.1534576221E-01   -9.2477866770E-02   -7.0274362647E-02   -4.8876815482E-02
   -2.8417453367E-02   -9.0180501871E-03    9.2110891947E-03    2.6172030943E-02
    4.1779991751E-02    5.5963992552E-02    6.8667351257E-02    7.9848111122E-02
    8.9479481619E-02    9.7550122402E-02    1.0406409404E-01    1.0904061421E-01
    1.1251367848E-01    1.1453153058E-01    1.1515599152E-01    1.1446165535E-01
    1.1253496019E-01    1.0947314491E-01    1.0538310271E-01    1.0038014454E-01
    9.4586685873E-02    8.8130847696E-02    8.1145218868E-02    7.3764848954E-02
    6.6126516566E-02    5.8368741184E-02    5.0642927183E-02    4.3090092601E-02
    3.5826558581E-02    2.8967097373E-02    2.2620590878E-02    1.6889027414E-02
    1.1866470267E-02    7.6400219162E-03    4.2796577677E-03    1.8415863223E-03
    4.6359529354E-04   -1.2532432089E-05   -2.4281578450E-05    1.5265815753E-05
 0. 0. 0. 0.
 0. 0. 0. 0.
 0. 0. 0. 0.
 0. 0. 0. 0.
 0. 0. 0. 0.
 0. 0. 0. 0.
 0. 0. 0. 0.
 0. 0. 0. 0.
 0. 0. 0. 0.
 0. 0. 0. 0.
 0. 0. 0. 0.
 0. 0. 0. 0.
 0. 0. 0. 0.
 0. 0. 0. 0.
 0. 0. 0. 0.
 0. 0. 0. 0.
 0. 0. 0. 0.
 0. 0. 0. 0.
 0. 0. 0. 0.
 0. 0. 0. 0.
 0. 0. 0. 0.
 0. 0. 0. 0.
 0. 0. 0. 0.
 0. 0. 0. 0.
 0. 0. 0. 0.
 0. 0. 0. 0.
 0. 0. 0. 0.
 0. 0. 0. 0.
 0. 0. 0. 0.
 0. 0. 0. 0.
 0. 0. 0. 0.
 0. 0. 0. 0.
 0. 0. 0. 0.
 0. 0. 0. 0.
 0. 0. 0. 0.
 0. 0. 0. 0.
 0. 0. 0. 0.
 0. 0. 0. 0.
 0. 0. 0. 0.
 0. 0. 0. 0.
 0. 0. 0. 0.
 0. 0. 0. 0.
 0. 0. 0. 0.
 0. 0. 0. 0.
 0. 0. 0. 0.
 0. 0. 0. 0.
 0. 0. 0. 0.
 0. 0. 0. 0.
 0. 0. 0. 0.
 0. 0. 0. 0.
 0. 0. 0. 0.
 0. 0. 0. 0.
 0. 0. 0. 0.
 0. 0. 0. 0.
 0. 0. 0. 0.
 0. 0. 0. 0.
 0. 0. 0. 0.
 0. 0. 0. 0.
 0. 0. 0. 0.
 0. 0. 0. 0.
 0. 0. 0. 0.
 0. 0. 0. 0.
 0. 0. 0. 0.
 0. 0. 0. 0.
 0. 0. 0. 0.
 0. 0. 0. 0.
 0. 0. 0. 0.
 0. 0. 0. 0.
 0. 0. 0. 0.
 0. 0. 0. 0.
 0. 0. 0. 0.
 0. 0. 0. 0.
 0. 0. 0. 0.
 0. 0. 0. 0.
 0. 0. 0. 0.
 0. 0. 0. 0.
 0. 0. 0. 0.
 0. 0. 0. 0.
 0. 0. 0. 0.
 0. 0. 0. 0.
 0. 0. 0. 0.
 0. 0. 0. 0.
 0. 0. 0. 0.
 0. 0. 0. 0.
 0. 0. 0. 0.
 0. 0. 0. 0.
 0. 0. 0. 0.
 0. 0. 0. 0.
 0. 0. 0. 0.
 0. 0. 0. 0.
 0. 0. 0. 0.
 0. 0. 0. 0.
 0. 0. 0. 0.
 0. 0. 0. 0.
 0. 0. 0. 0.
 0. 0. 0. 0.
 0. 0. 0. 0.
 0. 0. 0. 0.
 0. 0. 0. 0.
 0. 0. 0. 0.
 0. 0. 0. 0.
 0. 0. 0. 0.
 0. 0. 0. 0.
 0. 0. 0. 0.
 0. 0. 0. 0.
 0. 0. 0. 0.
 0. 0. 0. 0.
 0. 0. 0. 0.
 0. 0. 0. 0.
 0. 0. 0. 0.
 0. 0. 0. 0.
 0. 0. 0. 0.
 0. 0. 0. 0.
 0. 0. 0. 0.
 0. 0. 0. 0.
 0. 0. 0. 0.
 0. 0. 0. 0.
 0. 0. 0. 0.
 0. 0. 0. 0.
 0. 0. 0. 0.
 0. 0. 0. 0.
 0. 0. 0. 0.
 0. 0. 0. 0.
 0. 0. 0. 0.
 0. 0. 0. 0.
 0. 0. 0. 0.
 0. 0. 0. 0.
 0. 0. 0. 0.
 0. 0. 0. 0.
 0. 0. 0. 0.
 0. 0. 0. 0.
 0. 0. 0. 0.
 0. 0. 0. 0.
 0. 0. 0. 0.
 0. 0. 0. 0.
 0. 0. 0. 0.
 0. 0. 0. 0.
 0. 0. 0. 0.
 0. 0. 0. 0.
 0. 0. 0. 0.
 0. 0. 0. 0.
 0. 0. 0. 0.
 0. 0. 0. 0.
 0. 0. 0. 0.
 0. 0. 0. 0.
 0. 0. 0. 0.
 0. 0. 0. 0.
 0. 0. 0. 0.
 0. 0. 0. 0.
 0. 0. 0. 0.
 0. 0. 0. 0.
 0. 0. 0. 0.
 0. 0. 0. 0.
 0. 0. 0. 0.
 0. 0. 0. 0.
 0. 0. 0. 0.
 0. 0. 0. 0.
 0. 0. 0. 0.
 0. 0. 0. 0.
 0. 0. 0. 0.
 0. 0. 0. 0.
 0. 0. 0. 0.
 0. 0. 0. 0.
 0. 0. 0. 0.
 0. 0. 0. 0.
 0. 0. 0. 0.
 0. 0. 0. 0.
 0. 0. 0. 0.
 0. 0. 0. 0.
 0. 0. 0. 0.
 0. 0. 0. 0.
 0. 0. 0. 0.
 0. 0. 0. 0.
 0. 0. 0. 0.
 0. 0. 0. 0.
 0. 0. 0. 0.
 0. 0. 0. 0.
 0. 0. 0. 0.
 0. 0. 0. 0.
 0. 0. 0. 0.
 0. 0. 0. 0.
 0. 0. 0. 0.
 0. 0. 0. 0.
 0. 0. 0. 0.
 0. 0. 0. 0.
 0. 0. 0. 0.
 0. 0. 0. 0.
 0. 0. 0. 0.
 0. 0. 0. 0.
 0. 0. 0. 0.
 0. 0. 0. 0.
 0. 0. 0. 0.
 0. 0. 0. 0.
 0. 0. 0. 0.
 0. 0. 0. 0.
 0. 0. 0. 0.
 0. 0. 0. 0.
 0. 0. 0. 0.
 0. 0. 0. 0.
 0. 0. 0. 0.
 0. 0. 0. 0.
 0. 0. 0. 0.
 0. 0. 0. 0.
 0. 0. 0. 0.
 0. 0. 0. 0.
 0. 0. 0. 0.
 0. 0. 0. 0.
 0. 0. 0. 0.
 0. 0. 0. 0.
 0. 0. 0. 0.
 0. 0. 0. 0.
 0. 0. 0. 0.
 0. 0. 0. 0.
 0. 0. 0. 0.
 0. 0. 0. 0.
 0. 0. 0. 0.
 0. 0. 0. 0.
 0. 0. 0. 0.
 0. 0. 0. 0.
 0. 0. 0. 0.
 0. 0. 0. 0.
 0. 0. 0. 0.
 0. 0. 0. 0.
 0. 0. 0. 0.
 0. 0. 0. 0.
 0. 0. 0. 0.
 0. 0. 0. 0.
 0. 0. 0. 0.
 0. 0. 0. 0.
 0. 0. 0. 0.
 0. 0. 0. 0.
 0. 0. 0. 0.
 0. 0. 0. 0.
 0. 0. 0. 0.
 0. 0. 0. 0.
 0. 0. 0. 0.
 0. 0. 0. 0.
 0. 0. 0. 0.
 0. 0. 0. 0.
 0. 0. 0. 0.
 0. 0. 0. 0.
 0. 0. 0. 0.
 0. 0. 0. 0.
 0. 0. 0. 0.
 0. 0. 0. 0.
 0. 0. 0. 0.
 0. 0. 0. 0.
 0. 0. 0. 0.
 0. 0. 0. 0.
 0. 0. 0. 0.
 0. 0. 0. 0.
 0. 0. 0. 0.
 0. 0. 0. 0.
 0. 0. 0. 0.
 0. 0. 0. 0.
 0. 0. 0. 0.
 0. 0. 0. 0.
 0. 0. 0. 0.
 0. 0. 0. 0.
 0. 0. 0. 0.
 0. 0. 0. 0.
 0. 0. 0. 0.
 0. 0. 0. 0.
 0. 0. 0. 0.
 0. 0. 0. 0.
 0. 0. 0. 0.
 0. 0. 0. 0.
 0. 0. 0. 0.
 0. 0. 0. 0.
 0. 0. 0. 0.
 0. 0. 0. 0.
 0. 0. 0. 0.
 0. 0. 0. 0.
 0. 0. 0. 0.
 0. 0. 0. 0.
 0. 0. 0. 0.
 0. 0. 0. 0.
 0. 0. 0. 0.
 0. 0. 0. 0.
 0. 0. 0. 0.
 0. 0. 0. 0.
 0. 0. 0. 0.
 0. 0. 0. 0.
 0. 0. 0. 0.
 0. 0. 0. 0.
 0. 0. 0. 0.
 0. 0. 0. 0.
 0. 0. 0. 0.
 0. 0. 0. 0.
 0. 0. 0. 0.
 0. 0. 0. 0.
 0. 0. 0. 0.
 0. 0. 0. 0.
 0. 0. 0. 0.
 0. 0. 0. 0.
 0. 0. 0. 0.
 0. 0. 0. 0.
 0. 0. 0. 0.
 0. 0. 0. 0.
 0. 0. 0. 0.
 0. 0. 0. 0.
 0. 0. 0. 0.
 0. 0. 0. 0.
 0. 0. 0. 0.
 0. 0. 0. 0.
 0. 0. 0. 0.
 0. 0. 0. 0.
 0. 0. 0. 0.
 0. 0. 0. 0.
 0. 0. 0. 0.
 0. 0. 0. 0.
 0. 0. 0. 0.
 0. 0. 0. 0.
 0. 0. 0. 0.
 0. 0. 0. 0.
 0. 0. 0. 0.
 0. 0. 0. 0.
 0. 0. 0. 0.
 0. 0. 0. 0.
 0. 0. 0. 0.
 0. 0. 0. 0.
 0. 0. 0. 0.
 0. 0. 0. 0.
 0. 0. 0. 0.
 0. 0. 0. 0.
 0. 0. 0. 0.
 0. 0. 0. 0.
 0. 0. 0. 0.
 0. 0. 0. 0.
 0. 0. 0. 0.
 0. 0. 0. 0.
 0. 0. 0. 0.
 0. 0. 0. 0.
 0. 0. 0. 0.
 0. 0. 0. 0.
 0. 0. 0. 0.
 0. 0. 0. 0.
 0. 0. 0. 0.
 0. 0. 0. 0.
 0. 0. 0. 0.
 0. 0. 0. 0.
 0. 0. 0. 0.
 0. 0. 0. 0.
 0. 0. 0. 0.
 0. 0. 0. 0.
 0. 0. 0. 0.
 0. 0. 0. 0.
 0. 0. 0. 0.
 0. 0. 0. 0.
 0. 0. 0. 0.
 0. 0. 0. 0.
 0. 0. 0. 0.
 0. 0. 0. 0.
 0. 0. 0. 0.
 0. 0. 0. 0.
 0. 0. 0. 0.
 0. 0. 0. 0.
 0. 0. 0. 0.
 0. 0. 0. 0.
 0. 0. 0. 0.
 0. 0. 0. 0.
 0. 0. 0. 0.
 0. 0. 0. 0.
 0. 0. 0. 0.
 0. 0. 0. 0.
 0. 0. 0. 0.
 0. 0. 0. 0.
 0. 0. 0. 0.
 0. 0. 0. 0.
 0. 0. 0. 0.
 0. 0. 0. 0.
 0. 0. 0. 0.
 0. 0. 0. 0.
 0. 0. 0. 0.
 0. 0. 0. 0.
 0. 0. 0. 0.
 0. 0. 0. 0.
 0. 0. 0. 0.
 0. 0. 0. 0.
 0. 0. 0. 0.
 0. 0.
   </PP_BETA.8>
   <PP_BETA.9
       type="real"
       size="1766"
       columns="4"
       index="9"
       angular_momentum="2"
       cutoff_radius_index=" 244"
       cutoff_radius="    2.4300000000E+00" >
   -7.1661063021E-10   -6.1689709340E-06   -4.9194766536E-05   -1.6515195074E-04
   -3.8856332979E-04   -7.5165579741E-04   -1.2836537321E-03   -2.0101216108E-03
   -2.9523667849E-03   -4.1269124911E-03   -5.5450501387E-03   -7.2124787587E-03
   -9.1290382192E-03   -1.1288541431E-02   -1.3678709306E-02   -1.6281210706E-02
   -1.9071808054E-02   -2.2020607694E-02   -2.5092412508E-02   -2.8247172735E-02
   -3.1440529432E-02   -3.4624443571E-02   -3.7747902409E-02   -4.0757693528E-02
   -4.3599235822E-02   -4.6217455703E-02   -4.8557696024E-02   -5.0566644511E-02
   -5.2193268058E-02   -5.3389738931E-02   -5.4112338851E-02   -5.4322327004E-02
   -5.3986758345E-02   -5.3079239039E-02   -5.1580606575E-02   -4.9479522928E-02
   -4.6772970207E-02   -4.3466639391E-02   -3.9575204099E-02   -3.5122472812E-02
   -3.0141414530E-02   -2.4674054496E-02   -1.8771238381E-02   -1.2492265071E-02
   -5.9043899959E-03    9.1779724023E-04    7.8931154258E-03    1.4934647265E-02
    2.1950698978E-02    2.8845853537E-02    3.5522105669E-02    4.1880065462E-02
    4.7820216244E-02    5.3244211472E-02    5.8056194548E-02    6.2164124934E-02
    6.5481093519E-02    6.7926610094E-02    6.9427845802E-02    6.9920813747E-02
    6.9351471469E-02    6.7676729690E-02    6.4865352706E-02    6.0898736927E-02
    5.5771555405E-02    4.9492257702E-02    4.2083416098E-02    3.3581910957E-02
    2.4038949967E-02    1.3519918006E-02    2.1040564305E-03   -1.0116027279E-02
   -2.3035016439E-02   -3.6535703477E-02   -5.0489962355E-02   -6.4759865813E-02
   -7.9198936215E-02   -9.3653516968E-02   -1.0796424982E-01   -1.2196764183E-01
   -1.3549770451E-01   -1.4838764651E-01   -1.6047160029E-01   -1.7158636264E-01
   -1.8157312841E-01   -1.9027919679E-01   -1.9755962933E-01   -2.0327883952E-01
   -2.0731209419E-01   -2.0954690796E-01   -2.0988431292E-01   -2.0823998731E-01
   -2.0454522829E-01   -1.9874775583E-01   -1.9081233660E-01   -1.8072121884E-01
   -1.6847437158E-01   -1.5408952362E-01   -1.3760200047E-01   -1.1906435969E-01
   -9.8545827618E-02   -7.6131542889E-02   -5.1921614869E-02   -2.6030007082E-02
    1.4167417107E-03    3.0280944131E-02    6.0415321861E-02    9.1664675948E-02
    1.2386764977E-01    1.5685856329E-01    1.9046929631E-01    2.2453119736E-01
    2.5887699463E-01    2.9334268491E-01    3.2776937658E-01    3.6200506326E-01
    3.9590630499E-01    4.2933979528E-01    4.6218379312E-01    4.9432940089E-01
    5.2568167068E-01    5.5616052366E-01    5.8570146934E-01    6.1425611383E-01
    6.4179244898E-01    6.6829491690E-01    6.9376424705E-01    7.1821706619E-01
    7.4168528410E-01    7.6421526120E-01    7.8586676663E-01    8.0671173854E-01
    8.2683286074E-01    8.4632197243E-01    8.6527833007E-01    8.8380674274E-01
    9.0201560370E-01    9.2001484334E-01    9.3791382903E-01    9.5581923936E-01
    9.7383294017E-01    9.9204989072E-01    1.0105561080E+00    1.0294267169E+00
    1.0487241138E+00    1.0684962688E+00    1.0887751921E+00    1.1095755876E+00
    1.1308937143E+00    1.1527064738E+00    1.1749707424E+00    1.1976229578E+00
    1.2205789746E+00    1.2437341927E+00    1.2669639652E+00    1.2901242847E+00
    1.3130527471E+00    1.3355697843E+00    1.3574801594E+00    1.3785747085E+00
    1.3986323150E+00    1.4174220963E+00    1.4347057818E+00    1.4502402557E+00
    1.4637802392E+00    1.4750810827E+00    1.4839016354E+00    1.4900071620E+00
    1.4931722716E+00    1.4931838247E+00    1.4898437844E+00    1.4829719770E+00
    1.4724087280E+00    1.4580173411E+00    1.4396863876E+00    1.4173317778E+00
    1.3908985848E+00    1.3603625971E+00    1.3257315759E+00    1.2870461983E+00
    1.2443806702E+00    1.1978429964E+00    1.1475748974E+00    1.0937513709E+00
    1.0365798938E+00    9.7629926949E-01    9.1317812733E-01    8.4751308497E-01
    7.7962658872E-01    7.0986445100E-01    6.3859310708E-01    5.6619661730E-01
    4.9307344356E-01    4.1963303224E-01    3.4629223786E-01    2.7347162407E-01
    2.0159168047E-01    1.3106899480E-01    6.2312421306E-02   -4.2807138947E-03
   -6.8328329101E-02   -1.2946718461E-01   -1.8735632178E-01   -2.4168030539E-01
   -2.9215223271E-01   -3.3851647526E-01   -3.8055112152E-01   -4.1807009159E-01
   -4.5092489876E-01   -4.7900606877E-01   -5.0224401925E-01   -5.2061003920E-01
   -5.3411787567E-01   -5.4282484427E-01   -5.4683135603E-01   -5.4627975541E-01
   -5.4135284383E-01   -5.3227197641E-01   -5.1929477310E-01   -5.0271246812E-01
   -4.8284692259E-01   -4.6004733038E-01   -4.3468665007E-01   -4.0715779950E-01
   -3.7786965184E-01   -3.4724281481E-01   -3.1570582167E-01   -2.8368938592E-01
   -2.5162389668E-01   -2.1993881219E-01   -1.8909010219E-01   -1.5950090229E-01
   -1.3152487539E-01   -1.0550422277E-01   -8.1758206491E-02   -6.0580157979E-02
   -4.2234468886E-02   -2.6960155258E-02   -1.4937554772E-02   -6.3004541888E-03
   -1.4433487163E-03    1.9008670693E-04    1.1598702925E-04   -6.9148406284E-05
 0. 0. 0. 0.
 0. 0. 0. 0.
 0. 0. 0. 0.
 0. 0. 0. 0.
 0. 0. 0. 0.
 0. 0. 0. 0.
 0. 0. 0. 0.
 0. 0. 0. 0.
 0. 0. 0. 0.
 0. 0. 0. 0.
 0. 0. 0. 0.
 0. 0. 0. 0.
 0. 0. 0. 0.
 0. 0. 0. 0.
 0. 0. 0. 0.
 0. 0. 0. 0.
 0. 0. 0. 0.
 0. 0. 0. 0.
 0. 0. 0. 0.
 0. 0. 0. 0.
 0. 0. 0. 0.
 0. 0. 0. 0.
 0. 0. 0. 0.
 0. 0. 0. 0.
 0. 0. 0. 0.
 0. 0. 0. 0.
 0. 0. 0. 0.
 0. 0. 0. 0.
 0. 0. 0. 0.
 0. 0. 0. 0.
 0. 0. 0. 0.
 0. 0. 0. 0.
 0. 0. 0. 0.
 0. 0. 0. 0.
 0. 0. 0. 0.
 0. 0. 0. 0.
 0. 0. 0. 0.
 0. 0. 0. 0.
 0. 0. 0. 0.
 0. 0. 0. 0.
 0. 0. 0. 0.
 0. 0. 0. 0.
 0. 0. 0. 0.
 0. 0. 0. 0.
 0. 0. 0. 0.
 0. 0. 0. 0.
 0. 0. 0. 0.
 0. 0. 0. 0.
 0. 0. 0. 0.
 0. 0. 0. 0.
 0. 0. 0. 0.
 0. 0. 0. 0.
 0. 0. 0. 0.
 0. 0. 0. 0.
 0. 0. 0. 0.
 0. 0. 0. 0.
 0. 0. 0. 0.
 0. 0. 0. 0.
 0. 0. 0. 0.
 0. 0. 0. 0.
 0. 0. 0. 0.
 0. 0. 0. 0.
 0. 0. 0. 0.
 0. 0. 0. 0.
 0. 0. 0. 0.
 0. 0. 0. 0.
 0. 0. 0. 0.
 0. 0. 0. 0.
 0. 0. 0. 0.
 0. 0. 0. 0.
 0. 0. 0. 0.
 0. 0. 0. 0.
 0. 0. 0. 0.
 0. 0. 0. 0.
 0. 0. 0. 0.
 0. 0. 0. 0.
 0. 0. 0. 0.
 0. 0. 0. 0.
 0. 0. 0. 0.
 0. 0. 0. 0.
 0. 0. 0. 0.
 0. 0. 0. 0.
 0. 0. 0. 0.
 0. 0. 0. 0.
 0. 0. 0. 0.
 0. 0. 0. 0.
 0. 0. 0. 0.
 0. 0. 0. 0.
 0. 0. 0. 0.
 0. 0. 0. 0.
 0. 0. 0. 0.
 0. 0. 0. 0.
 0. 0. 0. 0.
 0. 0. 0. 0.
 0. 0. 0. 0.
 0. 0. 0. 0.
 0. 0. 0. 0.
 0. 0. 0. 0.
 0. 0. 0. 0.
 0. 0. 0. 0.
 0. 0. 0. 0.
 0. 0. 0. 0.
 0. 0. 0. 0.
 0. 0. 0. 0.
 0. 0. 0. 0.
 0. 0. 0. 0.
 0. 0. 0. 0.
 0. 0. 0. 0.
 0. 0. 0. 0.
 0. 0. 0. 0.
 0. 0. 0. 0.
 0. 0. 0. 0.
 0. 0. 0. 0.
 0. 0. 0. 0.
 0. 0. 0. 0.
 0. 0. 0. 0.
 0. 0. 0. 0.
 0. 0. 0. 0.
 0. 0. 0. 0.
 0. 0. 0. 0.
 0. 0. 0. 0.
 0. 0. 0. 0.
 0. 0. 0. 0.
 0. 0. 0. 0.
 0. 0. 0. 0.
 0. 0. 0. 0.
 0. 0. 0. 0.
 0. 0. 0. 0.
 0. 0. 0. 0.
 0. 0. 0. 0.
 0. 0. 0. 0.
 0. 0. 0. 0.
 0. 0. 0. 0.
 0. 0. 0. 0.
 0. 0. 0. 0.
 0. 0. 0. 0.
 0. 0. 0. 0.
 0. 0. 0. 0.
 0. 0. 0. 0.
 0. 0. 0. 0.
 0. 0. 0. 0.
 0. 0. 0. 0.
 0. 0. 0. 0.
 0. 0. 0. 0.
 0. 0. 0. 0.
 0. 0. 0. 0.
 0. 0. 0. 0.
 0. 0. 0. 0.
 0. 0. 0. 0.
 0. 0. 0. 0.
 0. 0. 0. 0.
 0. 0. 0. 0.
 0. 0. 0. 0.
 0. 0. 0. 0.
 0. 0. 0. 0.
 0. 0. 0. 0.
 0. 0. 0. 0.
 0. 0. 0. 0.
 0. 0. 0. 0.
 0. 0. 0. 0.
 0. 0. 0. 0.
 0. 0. 0. 0.
 0. 0. 0. 0.
 0. 0. 0. 0.
 0. 0. 0. 0.
 0. 0. 0. 0.
 0. 0. 0. 0.
 0. 0. 0. 0.
 0. 0. 0. 0.
 0. 0. 0. 0.
 0. 0. 0. 0.
 0. 0. 0. 0.
 0. 0. 0. 0.
 0. 0. 0. 0.
 0. 0. 0. 0.
 0. 0. 0. 0.
 0. 0. 0. 0.
 0. 0. 0. 0.
 0. 0. 0. 0.
 0. 0. 0. 0.
 0. 0. 0. 0.
 0. 0. 0. 0.
 0. 0. 0. 0.
 0. 0. 0. 0.
 0. 0. 0. 0.
 0. 0. 0. 0.
 0. 0. 0. 0.
 0. 0. 0. 0.
 0. 0. 0. 0.
 0. 0. 0. 0.
 0. 0. 0. 0.
 0. 0. 0. 0.
 0. 0. 0. 0.
 0. 0. 0. 0.
 0. 0. 0. 0.
 0. 0. 0. 0.
 0. 0. 0. 0.
 0. 0. 0. 0.
 0. 0. 0. 0.
 0. 0. 0. 0.
 0. 0. 0. 0.
 0. 0. 0. 0.
 0. 0. 0. 0.
 0. 0. 0. 0.
 0. 0. 0. 0.
 0. 0. 0. 0.
 0. 0. 0. 0.
 0. 0. 0. 0.
 0. 0. 0. 0.
 0. 0. 0. 0.
 0. 0. 0. 0.
 0. 0. 0. 0.
 0. 0. 0. 0.
 0. 0. 0. 0.
 0. 0. 0. 0.
 0. 0. 0. 0.
 0. 0. 0. 0.
 0. 0. 0. 0.
 0. 0. 0. 0.
 0. 0. 0. 0.
 0. 0. 0. 0.
 0. 0. 0. 0.
 0. 0. 0. 0.
 0. 0. 0. 0.
 0. 0. 0. 0.
 0. 0. 0. 0.
 0. 0. 0. 0.
 0. 0. 0. 0.
 0. 0. 0. 0.
 0. 0. 0. 0.
 0. 0. 0. 0.
 0. 0. 0. 0.
 0. 0. 0. 0.
 0. 0. 0. 0.
 0. 0. 0. 0.
 0. 0. 0. 0.
 0. 0. 0. 0.
 0. 0. 0. 0.
 0. 0. 0. 0.
 0. 0. 0. 0.
 0. 0. 0. 0.
 0. 0. 0. 0.
 0. 0. 0. 0.
 0. 0. 0. 0.
 0. 0. 0. 0.
 0. 0. 0. 0.
 0. 0. 0. 0.
 0. 0. 0. 0.
 0. 0. 0. 0.
 0. 0. 0. 0.
 0. 0. 0. 0.
 0. 0. 0. 0.
 0. 0. 0. 0.
 0. 0. 0. 0.
 0. 0. 0. 0.
 0. 0. 0. 0.
 0. 0. 0. 0.
 0. 0. 0. 0.
 0. 0. 0. 0.
 0. 0. 0. 0.
 0. 0. 0. 0.
 0. 0. 0. 0.
 0. 0. 0. 0.
 0. 0. 0. 0.
 0. 0. 0. 0.
 0. 0. 0. 0.
 0. 0. 0. 0.
 0. 0. 0. 0.
 0. 0. 0. 0.
 0. 0. 0. 0.
 0. 0. 0. 0.
 0. 0. 0. 0.
 0. 0. 0. 0.
 0. 0. 0. 0.
 0. 0. 0. 0.
 0. 0. 0. 0.
 0. 0. 0. 0.
 0. 0. 0. 0.
 0. 0. 0. 0.
 0. 0. 0. 0.
 0. 0. 0. 0.
 0. 0. 0. 0.
 0. 0. 0. 0.
 0. 0. 0. 0.
 0. 0. 0. 0.
 0. 0. 0. 0.
 0. 0. 0. 0.
 0. 0. 0. 0.
 0. 0. 0. 0.
 0. 0. 0. 0.
 0. 0. 0. 0.
 0. 0. 0. 0.
 0. 0. 0. 0.
 0. 0. 0. 0.
 0. 0. 0. 0.
 0. 0. 0. 0.
 0. 0. 0. 0.
 0. 0. 0. 0.
 0. 0. 0. 0.
 0. 0. 0. 0.
 0. 0. 0. 0.
 0. 0. 0. 0.
 0. 0. 0. 0.
 0. 0. 0. 0.
 0. 0. 0. 0.
 0. 0. 0. 0.
 0. 0. 0. 0.
 0. 0. 0. 0.
 0. 0. 0. 0.
 0. 0. 0. 0.
 0. 0. 0. 0.
 0. 0. 0. 0.
 0. 0. 0. 0.
 0. 0. 0. 0.
 0. 0. 0. 0.
 0. 0. 0. 0.
 0. 0. 0. 0.
 0. 0. 0. 0.
 0. 0. 0. 0.
 0. 0. 0. 0.
 0. 0. 0. 0.
 0. 0. 0. 0.
 0. 0. 0. 0.
 0. 0. 0. 0.
 0. 0. 0. 0.
 0. 0. 0. 0.
 0. 0. 0. 0.
 0. 0. 0. 0.
 0. 0. 0. 0.
 0. 0. 0. 0.
 0. 0. 0. 0.
 0. 0. 0. 0.
 0. 0. 0. 0.
 0. 0. 0. 0.
 0. 0. 0. 0.
 0. 0. 0. 0.
 0. 0. 0. 0.
 0. 0. 0. 0.
 0. 0. 0. 0.
 0. 0. 0. 0.
 0. 0. 0. 0.
 0. 0. 0. 0.
 0. 0. 0. 0.
 0. 0. 0. 0.
 0. 0. 0. 0.
 0. 0. 0. 0.
 0. 0. 0. 0.
 0. 0. 0. 0.
 0. 0. 0. 0.
 0. 0. 0. 0.
 0. 0. 0. 0.
 0. 0. 0. 0.
 0. 0. 0. 0.
 0. 0. 0. 0.
 0. 0. 0. 0.
 0. 0. 0. 0.
 0. 0. 0. 0.
 0. 0. 0. 0.
 0. 0. 0. 0.
 0. 0. 0. 0.
 0. 0. 0. 0.
 0. 0. 0. 0.
 0. 0. 0. 0.
 0. 0. 0. 0.
 0. 0. 0. 0.
 0. 0. 0. 0.
 0. 0. 0. 0.
 0. 0. 0. 0.
 0. 0. 0. 0.
 0. 0. 0. 0.
 0. 0. 0. 0.
 0. 0. 0. 0.
 0. 0. 0. 0.
 0. 0. 0. 0.
 0. 0. 0. 0.
 0. 0. 0. 0.
 0. 0. 0. 0.
 0. 0. 0. 0.
 0. 0. 0. 0.
 0. 0. 0. 0.
 0. 0.
   </PP_BETA.9>
   <PP_BETA.10
       type="real"
       size="1766"
       columns="4"
       index="10"
       angular_momentum="2"
       cutoff_radius_index=" 244"
       cutoff_radius="    2.4300000000E+00" >
   -7.2963950723E-10   -6.0017248258E-06   -4.7855531776E-05   -1.6062495752E-04
   -3.7780941968E-04   -7.3059439806E-04   -1.2471397788E-03   -1.9519182129E-03
   -2.8651146119E-03   -4.0020970086E-03   -5.3729679676E-03   -6.9822045482E-03
   -8.8283935204E-03   -1.0904067127E-02   -1.3195643199E-02   -1.5683471879E-02
   -1.8341989609E-02   -2.1139979435E-02   -2.4040935053E-02   -2.7003524464E-02
   -2.9982147540E-02   -3.2927580342E-02   -3.5787697668E-02   -3.8508264026E-02
   -4.1033782078E-02   -4.3308386632E-02   -4.5276771394E-02   -4.6885135049E-02
   -4.8082132746E-02   -4.8819818777E-02   -4.9054566146E-02   -4.8747948824E-02
   -4.7867572800E-02   -4.6387842536E-02   -4.4290650121E-02   -4.1565975316E-02
   -3.8212385712E-02   -3.4237427476E-02   -2.9657898463E-02   -2.4499997041E-02
   -1.8799341505E-02   -1.2600856718E-02   -5.9585263195E-03    1.0649892924E-03
    8.3988672011E-03    1.5964764590E-02    2.3677584080E-02    3.1446354393E-02
    3.9175217232E-02    4.6764509738E-02    5.4111930356E-02    6.1113774687E-02
    6.7666226670E-02    7.3666689513E-02    7.9015139937E-02    8.3615488754E-02
    8.7376930385E-02    9.0215263787E-02    9.2054167302E-02    9.2826410278E-02
    9.2474984788E-02    9.0954141551E-02    8.8230315104E-02    8.4282924444E-02
    7.9105036729E-02    7.2703883135E-02    6.5101217695E-02    5.6333511771E-02
    4.6451978752E-02    3.5522425635E-02    2.3624930272E-02    1.0853345200E-02
   -2.6853688266E-03   -1.6871974319E-02   -3.1575946162E-02   -4.6656608872E-02
   -6.1964410579E-02   -7.7342320464E-02   -9.2627334657E-02   -1.0765207411E-01
   -1.2224645657E-01   -1.3623942365E-01   -1.4946070313E-01   -1.6174258588E-01
   -1.7292169638E-01   -1.8284073573E-01   -1.9135017604E-01   -1.9830988550E-01
   -2.0359066398E-01   -2.0707567012E-01   -2.0866172161E-01   -2.0826045221E-01
   -2.0579931014E-01   -2.0122238469E-01   -1.9449104975E-01   -1.8558441487E-01
   -1.7449957712E-01   -1.6125166926E-01   -1.4587370198E-01   -1.2841620086E-01
   -1.0894664108E-01   -8.7548685266E-02   -6.4321232704E-02   -3.9377290290E-02
   -1.2842677948E-02    1.5145416490E-02    4.4440016061E-02    7.4886048321E-02
    1.0632213355E-01    1.3858244578E-01    1.7149862389E-01    2.0490170908E-01
    2.3862408458E-01    2.7250139320E-01    3.0637440836E-01    3.4009083459E-01
    3.7350701423E-01    4.0648951795E-01    4.3891659810E-01    4.7067948519E-01
    5.0168350993E-01    5.3184903505E-01    5.6111218347E-01    5.8942535180E-01
    6.1675750097E-01    6.4309421813E-01    6.6843754727E-01    6.9280558862E-01
    7.1623187001E-01    7.3876449612E-01    7.6046508474E-01    7.8140750174E-01
    8.0167640925E-01    8.2136564405E-01    8.4057644579E-01    8.5941555638E-01
    8.7799321425E-01    8.9642106864E-01    9.1481004027E-01    9.3326815615E-01
    9.5189838675E-01    9.7079651408E-01    9.9004905944E-01    1.0097312992E+00
    1.0299053960E+00    1.0506186725E+00    1.0719020521E+00    1.0937686906E+00
    1.1162128209E+00    1.1392088279E+00    1.1627105726E+00    1.1866509772E+00
    1.2109418833E+00    1.2354741895E+00    1.2601182732E+00    1.2847246976E+00
    1.3091252007E+00    1.3331339597E+00    1.3565491220E+00    1.3791545890E+00
    1.4007220363E+00    1.4210131514E+00    1.4397820652E+00    1.4567779531E+00
    1.4717477779E+00    1.4844391441E+00    1.4946032327E+00    1.5019977829E+00
    1.5063900864E+00    1.5075599605E+00    1.5053026628E+00    1.4994317147E+00
    1.4897815971E+00    1.4762102865E+00    1.4586015972E+00    1.4368673019E+00
    1.4109489988E+00    1.3808197026E+00    1.3464851344E+00    1.3079846904E+00
    1.2653920747E+00    1.2188155809E+00    1.1683980147E+00    1.1143162528E+00
    1.0567804352E+00    9.9603279576E-01    9.3234613740E-01    8.6602196306E-01
    7.9738827814E-01    7.2679708337E-01    6.5462158111E-01    5.8125312145E-01
    5.0709791767E-01    4.3257356369E-01    3.5810538854E-01    2.8412268517E-01
    2.1105485275E-01    1.3932749283E-01    6.9358500959E-02    1.5541954069E-03
   -6.3694474953E-02   -1.2601560231E-01   -1.8505983064E-01   -2.4050366645E-01
   -2.9205255232E-01   -3.3944366848E-01   -3.8244843000E-01   -4.2087465012E-01
   -4.5456834391E-01   -4.8341518515E-01   -5.0734140593E-01   -5.2631482305E-01
   -5.4034653311E-01   -5.4949212158E-01   -5.5385120263E-01   -5.5356624383E-01
   -5.4882107473E-01   -5.3983895874E-01   -5.2688027145E-01   -5.1023980965E-01
   -4.9024375654E-01   -4.6724633346E-01   -4.4162617182E-01   -4.1378244232E-01
   -3.8413078101E-01   -3.5309899034E-01   -3.2112318835E-01   -2.8864188020E-01
   -2.5609351151E-01   -2.2391605942E-01   -1.9257681932E-01   -1.6250882985E-01
   -1.3407167724E-01   -1.0761403730E-01   -8.3461546067E-02   -6.1913772364E-02
   -4.3241150604E-02   -2.7688949974E-02   -1.5441657495E-02   -6.6348404217E-03
   -1.7005158773E-03   -8.6323443099E-08    7.5999914703E-05   -4.9292722639E-05
 0. 0. 0. 0.
 0. 0. 0. 0.
 0. 0. 0. 0.
 0. 0. 0. 0.
 0. 0. 0. 0.
 0. 0. 0. 0.
 0. 0. 0. 0.
 0. 0. 0. 0.
 0. 0. 0. 0.
 0. 0. 0. 0.
 0. 0. 0. 0.
 0. 0. 0. 0.
 0. 0. 0. 0.
 0. 0. 0. 0.
 0. 0. 0. 0.
 0. 0. 0. 0.
 0. 0. 0. 0.
 0. 0. 0. 0.
 0. 0. 0. 0.
 0. 0. 0. 0.
 0. 0. 0. 0.
 0. 0. 0. 0.
 0. 0. 0. 0.
 0. 0. 0. 0.
 0. 0. 0. 0.
 0. 0. 0. 0.
 0. 0. 0. 0.
 0. 0. 0. 0.
 0. 0. 0. 0.
 0. 0. 0. 0.
 0. 0. 0. 0.
 0. 0. 0. 0.
 0. 0. 0. 0.
 0. 0. 0. 0.
 0. 0. 0. 0.
 0. 0. 0. 0.
 0. 0. 0. 0.
 0. 0. 0. 0.
 0. 0. 0. 0.
 0. 0. 0. 0.
 0. 0. 0. 0.
 0. 0. 0. 0.
 0. 0. 0. 0.
 0. 0. 0. 0.
 0. 0. 0. 0.
 0. 0. 0. 0.
 0. 0. 0. 0.
 0. 0. 0. 0.
 0. 0. 0. 0.
 0. 0. 0. 0.
 0. 0. 0. 0.
 0. 0. 0. 0.
 0. 0. 0. 0.
 0. 0. 0. 0.
 0. 0. 0. 0.
 0. 0. 0. 0.
 0. 0. 0. 0.
 0. 0. 0. 0.
 0. 0. 0. 0.
 0. 0. 0. 0.
 0. 0. 0. 0.
 0. 0. 0. 0.
 0. 0. 0. 0.
 0. 0. 0. 0.
 0. 0. 0. 0.
 0. 0. 0. 0.
 0. 0. 0. 0.
 0. 0. 0. 0.
 0. 0. 0. 0.
 0. 0. 0. 0.
 0. 0. 0. 0.
 0. 0. 0. 0.
 0. 0. 0. 0.
 0. 0. 0. 0.
 0. 0. 0. 0.
 0. 0. 0. 0.
 0. 0. 0. 0.
 0. 0. 0. 0.
 0. 0. 0. 0.
 0. 0. 0. 0.
 0. 0. 0. 0.
 0. 0. 0. 0.
 0. 0. 0. 0.
 0. 0. 0. 0.
 0. 0. 0. 0.
 0. 0. 0. 0.
 0. 0. 0. 0.
 0. 0. 0. 0.
 0. 0. 0. 0.
 0. 0. 0. 0.
 0. 0. 0. 0.
 0. 0. 0. 0.
 0. 0. 0. 0.
 0. 0. 0. 0.
 0. 0. 0. 0.
 0. 0. 0. 0.
 0. 0. 0. 0.
 0. 0. 0. 0.
 0. 0. 0. 0.
 0. 0. 0. 0.
 0. 0. 0. 0.
 0. 0. 0. 0.
 0. 0. 0. 0.
 0. 0. 0. 0.
 0. 0. 0. 0.
 0. 0. 0. 0.
 0. 0. 0. 0.
 0. 0. 0. 0.
 0. 0. 0. 0.
 0. 0. 0. 0.
 0. 0. 0. 0.
 0. 0. 0. 0.
 0. 0. 0. 0.
 0. 0. 0. 0.
 0. 0. 0. 0.
 0. 0. 0. 0.
 0. 0. 0. 0.
 0. 0. 0. 0.
 0. 0. 0. 0.
 0. 0. 0. 0.
 0. 0. 0. 0.
 0. 0. 0. 0.
 0. 0. 0. 0.
 0. 0. 0. 0.
 0. 0. 0. 0.
 0. 0. 0. 0.
 0. 0. 0. 0.
 0. 0. 0. 0.
 0. 0. 0. 0.
 0. 0. 0. 0.
 0. 0. 0. 0.
 0. 0. 0. 0.
 0. 0. 0. 0.
 0. 0. 0. 0.
 0. 0. 0. 0.
 0. 0. 0. 0.
 0. 0. 0. 0.
 0. 0. 0. 0.
 0. 0. 0. 0.
 0. 0. 0. 0.
 0. 0. 0. 0.
 0. 0. 0. 0.
 0. 0. 0. 0.
 0. 0. 0. 0.
 0. 0. 0. 0.
 0. 0. 0. 0.
 0. 0. 0. 0.
 0. 0. 0. 0.
 0. 0. 0. 0.
 0. 0. 0. 0.
 0. 0. 0. 0.
 0. 0. 0. 0.
 0. 0. 0. 0.
 0. 0. 0. 0.
 0. 0. 0. 0.
 0. 0. 0. 0.
 0. 0. 0. 0.
 0. 0. 0. 0.
 0. 0. 0. 0.
 0. 0. 0. 0.
 0. 0. 0. 0.
 0. 0. 0. 0.
 0. 0. 0. 0.
 0. 0. 0. 0.
 0. 0. 0. 0.
 0. 0. 0. 0.
 0. 0. 0. 0.
 0. 0. 0. 0.
 0. 0. 0. 0.
 0. 0. 0. 0.
 0. 0. 0. 0.
 0. 0. 0. 0.
 0. 0. 0. 0.
 0. 0. 0. 0.
 0. 0. 0. 0.
 0. 0. 0. 0.
 0. 0. 0. 0.
 0. 0. 0. 0.
 0. 0. 0. 0.
 0. 0. 0. 0.
 0. 0. 0. 0.
 0. 0. 0. 0.
 0. 0. 0. 0.
 0. 0. 0. 0.
 0. 0. 0. 0.
 0. 0. 0. 0.
 0. 0. 0. 0.
 0. 0. 0. 0.
 0. 0. 0. 0.
 0. 0. 0. 0.
 0. 0. 0. 0.
 0. 0. 0. 0.
 0. 0. 0. 0.
 0. 0. 0. 0.
 0. 0. 0. 0.
 0. 0. 0. 0.
 0. 0. 0. 0.
 0. 0. 0. 0.
 0. 0. 0. 0.
 0. 0. 0. 0.
 0. 0. 0. 0.
 0. 0. 0. 0.
 0. 0. 0. 0.
 0. 0. 0. 0.
 0. 0. 0. 0.
 0. 0. 0. 0.
 0. 0. 0. 0.
 0. 0. 0. 0.
 0. 0. 0. 0.
 0. 0. 0. 0.
 0. 0. 0. 0.
 0. 0. 0. 0.
 0. 0. 0. 0.
 0. 0. 0. 0.
 0. 0. 0. 0.
 0. 0. 0. 0.
 0. 0. 0. 0.
 0. 0. 0. 0.
 0. 0. 0. 0.
 0. 0. 0. 0.
 0. 0. 0. 0.
 0. 0. 0. 0.
 0. 0. 0. 0.
 0. 0. 0. 0.
 0. 0. 0. 0.
 0. 0. 0. 0.
 0. 0. 0. 0.
 0. 0. 0. 0.
 0. 0. 0. 0.
 0. 0. 0. 0.
 0. 0. 0. 0.
 0. 0. 0. 0.
 0. 0. 0. 0.
 0. 0. 0. 0.
 0. 0. 0. 0.
 0. 0. 0. 0.
 0. 0. 0. 0.
 0. 0. 0. 0.
 0. 0. 0. 0.
 0. 0. 0. 0.
 0. 0. 0. 0.
 0. 0. 0. 0.
 0. 0. 0. 0.
 0. 0. 0. 0.
 0. 0. 0. 0.
 0. 0. 0. 0.
 0. 0. 0. 0.
 0. 0. 0. 0.
 0. 0. 0. 0.
 0. 0. 0. 0.
 0. 0. 0. 0.
 0. 0. 0. 0.
 0. 0. 0. 0.
 0. 0. 0. 0.
 0. 0. 0. 0.
 0. 0. 0. 0.
 0. 0. 0. 0.
 0. 0. 0. 0.
 0. 0. 0. 0.
 0. 0. 0. 0.
 0. 0. 0. 0.
 0. 0. 0. 0.
 0. 0. 0. 0.
 0. 0. 0. 0.
 0. 0. 0. 0.
 0. 0. 0. 0.
 0. 0. 0. 0.
 0. 0. 0. 0.
 0. 0. 0. 0.
 0. 0. 0. 0.
 0. 0. 0. 0.
 0. 0. 0. 0.
 0. 0. 0. 0.
 0. 0. 0. 0.
 0. 0. 0. 0.
 0. 0. 0. 0.
 0. 0. 0. 0.
 0. 0. 0. 0.
 0. 0. 0. 0.
 0. 0. 0. 0.
 0. 0. 0. 0.
 0. 0. 0. 0.
 0. 0. 0. 0.
 0. 0. 0. 0.
 0. 0. 0. 0.
 0. 0. 0. 0.
 0. 0. 0. 0.
 0. 0. 0. 0.
 0. 0. 0. 0.
 0. 0. 0. 0.
 0. 0. 0. 0.
 0. 0. 0. 0.
 0. 0. 0. 0.
 0. 0. 0. 0.
 0. 0. 0. 0.
 0. 0. 0. 0.
 0. 0. 0. 0.
 0. 0. 0. 0.
 0. 0. 0. 0.
 0. 0. 0. 0.
 0. 0. 0. 0.
 0. 0. 0. 0.
 0. 0. 0. 0.
 0. 0. 0. 0.
 0. 0. 0. 0.
 0. 0. 0. 0.
 0. 0. 0. 0.
 0. 0. 0. 0.
 0. 0. 0. 0.
 0. 0. 0. 0.
 0. 0. 0. 0.
 0. 0. 0. 0.
 0. 0. 0. 0.
 0. 0. 0. 0.
 0. 0. 0. 0.
 0. 0. 0. 0.
 0. 0. 0. 0.
 0. 0. 0. 0.
 0. 0. 0. 0.
 0. 0. 0. 0.
 0. 0. 0. 0.
 0. 0. 0. 0.
 0. 0. 0. 0.
 0. 0. 0. 0.
 0. 0. 0. 0.
 0. 0. 0. 0.
 0. 0. 0. 0.
 0. 0. 0. 0.
 0. 0. 0. 0.
 0. 0. 0. 0.
 0. 0. 0. 0.
 0. 0. 0. 0.
 0. 0. 0. 0.
 0. 0. 0. 0.
 0. 0. 0. 0.
 0. 0. 0. 0.
 0. 0. 0. 0.
 0. 0. 0. 0.
 0. 0. 0. 0.
 0. 0. 0. 0.
 0. 0. 0. 0.
 0. 0. 0. 0.
 0. 0. 0. 0.
 0. 0. 0. 0.
 0. 0. 0. 0.
 0. 0. 0. 0.
 0. 0. 0. 0.
 0. 0. 0. 0.
 0. 0. 0. 0.
 0. 0. 0. 0.
 0. 0. 0. 0.
 0. 0. 0. 0.
 0. 0. 0. 0.
 0. 0. 0. 0.
 0. 0. 0. 0.
 0. 0. 0. 0.
 0. 0. 0. 0.
 0. 0. 0. 0.
 0. 0. 0. 0.
 0. 0. 0. 0.
 0. 0. 0. 0.
 0. 0. 0. 0.
 0. 0. 0. 0.
 0. 0. 0. 0.
 0. 0. 0. 0.
 0. 0. 0. 0.
 0. 0. 0. 0.
 0. 0. 0. 0.
 0. 0. 0. 0.
 0. 0. 0. 0.
 0. 0. 0. 0.
 0. 0. 0. 0.
 0. 0. 0. 0.
 0. 0. 0. 0.
 0. 0. 0. 0.
 0. 0. 0. 0.
 0. 0. 0. 0.
 0. 0. 0. 0.
 0. 0. 0. 0.
 0. 0. 0. 0.
 0. 0.
   </PP_BETA.10>
   <PP_DIJ type="real"  size=" 100" columns="4">
    5.2568447665E+00    0.0000000000E+00    0.0000000000E+00    0.0000000000E+00
    0.0000000000E+00    0.0000000000E+00    0.0000000000E+00    0.0000000000E+00
    0.0000000000E+00    0.0000000000E+00    0.0000000000E+00   -2.7231560770E-01
    0.0000000000E+00    0.0000000000E+00    0.0000000000E+00    0.0000000000E+00
    0.0000000000E+00    0.0000000000E+00    0.0000000000E+00    0.0000000000E+00
    0.0000000000E+00    0.0000000000E+00    2.3304745846E+00    0.0000000000E+00
    0.0000000000E+00    0.0000000000E+00    0.0000000000E+00    0.0000000000E+00
    0.0000000000E+00    0.0000000000E+00    0.0000000000E+00    0.0000000000E+00
    0.0000000000E+00    2.6101450606E+00    0.0000000000E+00    0.0000000000E+00
    0.0000000000E+00    0.0000000000E+00    0.0000000000E+00    0.0000000000E+00
    0.0000000000E+00    0.0000000000E+00    0.0000000000E+00    0.0000000000E+00
   -4.7831838498E-01    0.0000000000E+00    0.0000000000E+00    0.0000000000E+00
    0.0000000000E+00    0.0000000000E+00    0.0000000000E+00    0.0000000000E+00
    0.0000000000E+00    0.0000000000E+00    0.0000000000E+00   -3.5184625065E-01
    0.0000000000E+00    0.0000000000E+00    0.0000000000E+00    0.0000000000E+00
    0.0000000000E+00    0.0000000000E+00    0.0000000000E+00    0.0000000000E+00
    0.0000000000E+00    0.0000000000E+00   -1.4722745369E+00    0.0000000000E+00
    0.0000000000E+00    0.0000000000E+00    0.0000000000E+00    0.0000000000E+00
    0.0000000000E+00    0.0000000000E+00    0.0000000000E+00    0.0000000000E+00
    0.0000000000E+00   -1.4073997592E+00    0.0000000000E+00    0.0000000000E+00
    0.0000000000E+00    0.0000000000E+00    0.0000000000E+00    0.0000000000E+00
    0.0000000000E+00    0.0000000000E+00    0.0000000000E+00    0.0000000000E+00
   -3.7361741797E-01    0.0000000000E+00    0.0000000000E+00    0.0000000000E+00
    0.0000000000E+00    0.0000000000E+00    0.0000000000E+00    0.0000000000E+00
    0.0000000000E+00    0.0000000000E+00    0.0000000000E+00   -3.5487427287E-01
   </PP_DIJ>
 </PP_NONLOCAL>
 <PP_PSWFC>
   <PP_CHI.1
       type="real"
       size="1766"
       columns="4"
       index="1"
       occupation=" 2.000"
       pseudo_energy="   -0.3526023896E+01"
       label="4S"
       l="0" >
   -6.6488481387E-14    1.0918709649E-02    2.1837766280E-02    3.2757511832E-02
    4.3678278176E-02    5.4600382107E-02    6.5524120371E-02    7.6449764745E-02
    8.7377557170E-02    9.8307704948E-02    1.0924037603E-01    1.2017569440E-01
    1.3111373552E-01    1.4205452195E-01    1.5299801906E-01    1.6394413084E-01
    1.7489269594E-01    1.8584348375E-01    1.9679619073E-01    2.0775043690E-01
    2.1870576244E-01    2.2966162454E-01    2.4061739444E-01    2.5157235465E-01
    2.6252569634E-01    2.7347651705E-01    2.8442381850E-01    2.9536650469E-01
    3.0630338023E-01    3.1723314885E-01    3.2815441221E-01    3.3906566891E-01
    3.4996531374E-01    3.6085163721E-01    3.7172282525E-01    3.8257695926E-01
    3.9341201631E-01    4.0422586967E-01    4.1501628947E-01    4.2578094376E-01
    4.3651739966E-01    4.4722312486E-01    4.5789548932E-01    4.6853176717E-01
    4.7912913888E-01    4.8968469370E-01    5.0019543219E-01    5.1065826911E-01
    5.2107003644E-01    5.3142748662E-01    5.4172729599E-01    5.5196606846E-01
    5.6214033928E-01    5.7224657908E-01    5.8228119801E-01    5.9224055009E-01
    6.0212093768E-01    6.1191861612E-01    6.2162979846E-01    6.3125066039E-01
    6.4077734520E-01    6.5020596891E-01    6.5953262547E-01    6.6875339205E-01
    6.7786433440E-01    6.8686151229E-01    6.9574098499E-01    7.0449881679E-01
    7.1313108258E-01    7.2163387342E-01    7.3000330215E-01    7.3823550897E-01
    7.4632666706E-01    7.5427298811E-01    7.6207072789E-01    7.6971619174E-01
    7.7720574001E-01    7.8453579347E-01    7.9170283857E-01    7.9870343276E-01
    8.0553420954E-01    8.1219188357E-01    8.1867325559E-01    8.2497521721E-01
    8.3109475563E-01    8.3702895817E-01    8.4277501672E-01    8.4833023193E-01
    8.5369201739E-01    8.5885790352E-01    8.6382554134E-01    8.6859270605E-01
    8.7315730046E-01    8.7751735815E-01    8.8167104651E-01    8.8561666958E-01
    8.8935267060E-01    8.9287763445E-01    8.9619028980E-01    8.9928951113E-01
    9.0217432043E-01    9.0484388873E-01    9.0729753747E-01    9.0953473948E-01
    9.1155511991E-01    9.1335845684E-01    9.1494468164E-01    9.1631387921E-01
    9.1746628787E-01    9.1840229912E-01    9.1912245711E-01    9.1962745794E-01
    9.1991814871E-01    9.1999552636E-01    9.1986073628E-01    9.1951507077E-01
    9.1895996721E-01    9.1819700610E-01    9.1722790884E-01    9.1605453537E-01
    9.1467888161E-01    9.1310307670E-01    9.1132938006E-01    9.0936017831E-01
    9.0719798204E-01    9.0484542234E-01    9.0230524728E-01    8.9958031819E-01
    8.9667360583E-01    8.9358818642E-01    8.9032723753E-01    8.8689403396E-01
    8.8329194334E-01    8.7952442184E-01    8.7559500961E-01    8.7150732628E-01
    8.6726506633E-01    8.6287199439E-01    8.5833194051E-01    8.5364879541E-01
    8.4882650565E-01    8.4386906881E-01    8.3878052866E-01    8.3356497024E-01
    8.2822651511E-01    8.2276931642E-01    8.1719755414E-01    8.1151543024E-01
    8.0572716394E-01    7.9983698700E-01    7.9384913904E-01    7.8776786296E-01
    7.8159740037E-01    7.7534198715E-01    7.6900584904E-01    7.6259319738E-01
    7.5610822486E-01    7.4955510145E-01    7.4293797039E-01    7.3626094431E-01
    7.2952810145E-01    7.2274348201E-01    7.1591108462E-01    7.0903486299E-01
    7.0211872258E-01    6.9516651752E-01    6.8818204764E-01    6.8116905559E-01
    6.7413122418E-01    6.6707217379E-01    6.5999546002E-01    6.5290457142E-01
    6.4580292737E-01    6.3869387616E-01    6.3158069318E-01    6.2446657927E-01
    6.1735465922E-01    6.1024798043E-01    6.0314951170E-01    5.9606214217E-01
    5.8898868039E-01    5.8193185359E-01    5.7489430699E-01    5.6787860330E-01
    5.6088722240E-01    5.5392256101E-01    5.4698693264E-01    5.4008256753E-01
    5.3321161278E-01    5.2637613257E-01    5.1957810845E-01    5.1281943981E-01
    5.0610194434E-01    4.9942735865E-01    4.9279733897E-01    4.8621346188E-01
    4.7967722515E-01    4.7319004865E-01    4.6675327528E-01    4.6036817199E-01
    4.5403593085E-01    4.4775767010E-01    4.4153443534E-01    4.3536720065E-01
    4.2925686979E-01    4.2320427738E-01    4.1721019018E-01    4.1127530825E-01
    4.0540026618E-01    3.9958563435E-01    3.9383192014E-01    3.8813956910E-01
    3.8250896615E-01    3.7694043677E-01    3.7143424813E-01    3.6599061015E-01
    3.6060967667E-01    3.5529154640E-01    3.5003626399E-01    3.4484382098E-01
    3.3971415674E-01    3.3464715932E-01    3.2964266633E-01    3.2470046572E-01
    3.1982029642E-01    3.1500184916E-01    3.1024476765E-01    3.0554865609E-01
    3.0091309404E-01    2.9633765415E-01    2.9182189821E-01    2.8736537800E-01
    2.8296763644E-01    2.7862820805E-01    2.7434661960E-01    2.7012239068E-01
    2.6595503419E-01    2.6184405692E-01    2.5778896007E-01    2.5378923965E-01
    2.4984438703E-01    2.4595388935E-01    2.4211722995E-01    2.3833388875E-01
    2.3460334268E-01    2.3092506604E-01    2.2729853085E-01    2.2372320719E-01
    2.2019856355E-01    2.1672406710E-01    2.1329918404E-01    2.0992337986E-01
    2.0659611962E-01    2.0331686820E-01    2.0008509059E-01    1.9690025209E-01
    1.9376181856E-01    1.9066925664E-01    1.8762203399E-01    1.8461961943E-01
    1.8166148320E-01    1.7874709712E-01    1.7587593477E-01    1.7304747166E-01
    1.7026118541E-01    1.6751655590E-01    1.6481306543E-01    1.6215019885E-01
    1.5952744372E-01    1.5694429042E-01    1.5440023231E-01    1.5189476584E-01
    1.4942739064E-01    1.4699760968E-01    1.4460492935E-01    1.4224885954E-01
    1.3992891381E-01    1.3764460938E-01    1.3539546729E-01    1.3318101247E-01
    1.3100077379E-01    1.2885428415E-01    1.2674108056E-01    1.2466070417E-01
    1.2261270034E-01    1.2059661871E-01    1.1861201322E-01    1.1665844220E-01
    1.1473546833E-01    1.1284265877E-01    1.1097958512E-01    1.0914582347E-01
    1.0734095443E-01    1.0556456315E-01    1.0381623933E-01    1.0209557721E-01
    1.0040217563E-01    9.8735637997E-02    9.7095572277E-02    9.5481591030E-02
    9.3893311384E-02    9.2330355030E-02    9.0792348218E-02    8.9278921739E-02
    8.7789710914E-02    8.6324355576E-02    8.4882500055E-02    8.3463793148E-02
    8.2067888108E-02    8.0694442611E-02    7.9343118732E-02    7.8013582921E-02
    7.6705505969E-02    7.5418562979E-02    7.4152433339E-02    7.2906800682E-02
    7.1681352859E-02    7.0475781901E-02    6.9289783984E-02    6.8123059393E-02
    6.6975312487E-02    6.5846251661E-02    6.4735589304E-02    6.3643041767E-02
    6.2568329322E-02    6.1511176120E-02    6.0471310155E-02    5.9448463222E-02
    5.8442370882E-02    5.7452772413E-02    5.6479410780E-02    5.5522032587E-02
    5.4580388040E-02    5.3654230909E-02    5.2743318481E-02    5.1847411528E-02
    5.0966274260E-02    5.0099674289E-02    4.9247382587E-02    4.8409173446E-02
    4.7584824442E-02    4.6774116389E-02    4.5976833307E-02    4.5192762376E-02
    4.4421693903E-02    4.3663421278E-02    4.2917740941E-02    4.2184452337E-02
    4.1463357886E-02    4.0754262939E-02    4.0056975743E-02    3.9371307405E-02
    3.8697071853E-02    3.8034085799E-02    3.7382168706E-02    3.6741142749E-02
    3.6110832782E-02    3.5491066298E-02    3.4881673401E-02    3.4282486764E-02
    3.3693341600E-02    3.3114075624E-02    3.2544529024E-02    3.1984544422E-02
    3.1433966845E-02    3.0892643690E-02    3.0360424694E-02    2.9837161899E-02
    2.9322709622E-02    2.8816924424E-02    2.8319665076E-02    2.7830792532E-02
    2.7350169897E-02    2.6877662395E-02    2.6413137343E-02    2.5956464117E-02
    2.5507514129E-02    2.5066160791E-02    2.4632279492E-02    2.4205747567E-02
    2.3786444270E-02    2.3374250749E-02    2.2969050014E-02    2.2570726913E-02
    2.2179168106E-02    2.1794262036E-02    2.1415898908E-02    2.1043970657E-02
    2.0678370928E-02    2.0318995049E-02    1.9965740005E-02    1.9618504419E-02
    1.9277188518E-02    1.8941694121E-02    1.8611924606E-02    1.8287784893E-02
    1.7969181418E-02    1.7656022109E-02    1.7348216371E-02    1.7045675053E-02
    1.6748310438E-02    1.6456036211E-02    1.6168767446E-02    1.5886420579E-02
    1.5608913394E-02    1.5336164995E-02    1.5068095792E-02    1.4804627479E-02
    1.4545683013E-02    1.4291186599E-02    1.4041063665E-02    1.3795240849E-02
    1.3553645978E-02    1.3316208049E-02    1.3082857212E-02    1.2853524752E-02
    1.2628143072E-02    1.2406645676E-02    1.2188967151E-02    1.1975043149E-02
    1.1764810375E-02    1.1558206566E-02    1.1355170478E-02    1.1155641867E-02
    1.0959561477E-02    1.0766871022E-02    1.0577513173E-02    1.0391431540E-02
    1.0208570661E-02    1.0028875983E-02    9.8522938532E-03    9.6787714992E-03
    9.5082570191E-03    9.3406993662E-03    9.1760483359E-03    9.0142545518E-03
    8.8552694534E-03    8.6990452826E-03    8.5455350713E-03    8.3946926285E-03
    8.2464725282E-03    8.1008300973E-03    7.9577214034E-03    7.8171032429E-03
    7.6789331298E-03    7.5431692836E-03    7.4097706187E-03    7.2786967326E-03
    7.1499078956E-03    7.0233650393E-03    6.8990297465E-03    6.7768642407E-03
    6.6568313755E-03    6.5388946246E-03    6.4230180718E-03    6.3091664012E-03
    6.1973048875E-03    6.0873993863E-03    5.9794163249E-03    5.8733226927E-03
    5.7690860328E-03    5.6666744321E-03    5.5660565131E-03    5.4672014251E-03
    5.3700788354E-03    5.2746589211E-03    5.1809123607E-03    5.0888103259E-03
    4.9983244737E-03    4.9094269383E-03    4.8220903234E-03    4.7362876944E-03
    4.6519925712E-03    4.5691789203E-03    4.4878211477E-03    4.4078940918E-03
    4.3293730162E-03    4.2522336026E-03    4.1764519440E-03    4.1020045383E-03
    4.0288682810E-03    3.9570204592E-03    3.8864387447E-03    3.8171011882E-03
    3.7489862125E-03    3.6820726068E-03    3.6163395203E-03    3.5517664564E-03
    3.4883332671E-03    3.4260201468E-03    3.3648076268E-03    3.3046765699E-03
    3.2456081646E-03    3.1875839200E-03    3.1305856603E-03    3.0745955195E-03
    3.0195959365E-03    2.9655696498E-03    2.9124996929E-03    2.8603693886E-03
    2.8091623453E-03    2.7588624512E-03    2.7094538703E-03    2.6609210375E-03
    2.6132486541E-03    2.5664216837E-03    2.5204253473E-03    2.4752451194E-03
    2.4308667234E-03    2.3872761278E-03    2.3444595420E-03    2.3024034121E-03
    2.2610944172E-03    2.2205194651E-03    2.1806656889E-03    2.1415204431E-03
    2.1030712996E-03    2.0653060444E-03    2.0282126739E-03    1.9917793913E-03
    1.9559946032E-03    1.9208469159E-03    1.8863251327E-03    1.8524182498E-03
    1.8191154536E-03    1.7864061171E-03    1.7542797973E-03    1.7227262314E-03
    1.6917353342E-03    1.6612971952E-03    1.6314020752E-03    1.6020404038E-03
    1.5732027763E-03    1.5448799512E-03    1.5170628470E-03    1.4897425398E-03
    1.4629102606E-03    1.4365573926E-03    1.4106754686E-03    1.3852561686E-03
    1.3602913170E-03    1.3357728807E-03    1.3116929659E-03    1.2880438165E-03
    1.2648178113E-03    1.2420074617E-03    1.2196054096E-03    1.1976044254E-03
    1.1759974051E-03    1.1547773690E-03    1.1339374589E-03    1.1134709364E-03
    1.0933711809E-03    1.0736316871E-03    1.0542460637E-03    1.0352080309E-03
    1.0165114189E-03    9.9815016570E-04    9.8011831541E-04    9.6241001640E-04
    9.4501951952E-04    9.2794117633E-04    9.1116943739E-04    8.9469885052E-04
    8.7852405917E-04    8.6263980077E-04    8.4704090508E-04    8.3172229265E-04
    8.1667897322E-04    8.0190604420E-04    7.8739868914E-04    7.7315217629E-04
    7.5916185709E-04    7.4542316476E-04    7.3193161287E-04    7.1868279399E-04
    7.0567237829E-04    6.9289611219E-04    6.8034981709E-04    6.6802938802E-04
    6.5593079239E-04    6.4405006875E-04    6.3238332553E-04    6.2092673985E-04
    6.0967655630E-04    5.9862908580E-04    5.8778070446E-04    5.7712785239E-04
    5.6666703265E-04    5.5639481012E-04    5.4630781044E-04    5.3640271894E-04
    5.2667627962E-04    5.1712529411E-04    5.0774662070E-04    4.9853717329E-04
    4.8949392049E-04    4.8061388462E-04    4.7189414079E-04    4.6333181599E-04
    4.5492408815E-04    4.4666818529E-04    4.3856138462E-04    4.3060101168E-04
    4.2278443951E-04    4.1510908781E-04    4.0757242211E-04    4.0017195302E-04
    3.9290523536E-04    3.8576986744E-04    3.7876349031E-04    3.7188378695E-04
    3.6512848159E-04    3.5849533897E-04    3.5198216363E-04    3.4558679918E-04
    3.3930712767E-04    3.3314106888E-04    3.2708657965E-04    3.2114165324E-04
    3.1530431872E-04    3.0957264026E-04    3.0394471662E-04    2.9841868043E-04
    2.9299269768E-04    2.8766496708E-04    2.8243371951E-04    2.7729721744E-04
    2.7225375440E-04    2.6730165436E-04    2.6243927129E-04    2.5766498856E-04
    2.5297721844E-04    2.4837440161E-04    2.4385500661E-04    2.3941752941E-04
    2.3506049287E-04    2.3078244629E-04    2.2658196496E-04    2.2245764964E-04
    2.1840812619E-04    2.1443204505E-04    2.1052808086E-04    2.0669493198E-04
    2.0293132014E-04    1.9923598995E-04    1.9560770854E-04    1.9204526515E-04
    1.8854747073E-04    1.8511315756E-04    1.8174117888E-04    1.7843040851E-04
    1.7517974048E-04    1.7198808865E-04    1.6885438644E-04    1.6577758636E-04
    1.6275665978E-04    1.5979059652E-04    1.5687840457E-04    1.5401910975E-04
    1.5121175537E-04    1.4845540194E-04    1.4574912688E-04    1.4309202420E-04
    1.4048320417E-04    1.3792179311E-04    1.3540693304E-04    1.3293778140E-04
    1.3051351082E-04    1.2813330882E-04    1.2579637752E-04    1.2350193344E-04
    1.2124920719E-04    1.1903744324E-04    1.1686589968E-04    1.1473384794E-04
    1.1264057260E-04    1.1058537112E-04    1.0856755365E-04    1.0658644273E-04
    1.0464137314E-04    1.0273169167E-04    1.0085675685E-04    9.9015938807E-05
    9.7208619028E-05    9.5434190149E-05    9.3692055771E-05    9.1981630254E-05
    9.0302338529E-05    8.8653615906E-05    8.7034907889E-05    8.5445669995E-05
    8.3885367569E-05    8.2353475614E-05    8.0849478615E-05    7.9372870366E-05
    7.7923153808E-05    7.6499840864E-05    7.5102452272E-05    7.3730517436E-05
    7.2383574262E-05    7.1061169010E-05    6.9762856142E-05    6.8488198176E-05
    6.7236765539E-05    6.6008136429E-05    6.4801896671E-05    6.3617639580E-05
    6.2454965831E-05    6.1313483320E-05    6.0192807040E-05    5.9092558951E-05
    5.8012367851E-05    5.6951869261E-05    5.5910705296E-05    5.4888524551E-05
    5.3884981983E-05    5.2899738797E-05    5.1932462330E-05    5.0982825948E-05
    5.0050508929E-05    4.9135196361E-05    4.8236579039E-05    4.7354353357E-05
    4.6488221210E-05    4.5637889896E-05    4.4803072017E-05    4.3983485383E-05
    4.3178852918E-05    4.2388902569E-05    4.1613367216E-05    4.0851984579E-05
    4.0104497136E-05    3.9370652034E-05    3.8650201004E-05    3.7942900280E-05
    3.7248510518E-05    3.6566796716E-05    3.5897528132E-05    3.5240478214E-05
    3.4595424516E-05    3.3962148633E-05    3.3340436119E-05    3.2730076422E-05
    3.2130862810E-05    3.1542592305E-05    3.0965065611E-05    3.0398087052E-05
    2.9841464502E-05    2.9295009327E-05    2.8758536314E-05    2.8231863615E-05
    2.7714812685E-05    2.7207208220E-05    2.6708878101E-05    2.6219653335E-05
    2.5739368000E-05    2.5267859185E-05    2.4804966942E-05    2.4350534228E-05
    2.3904406854E-05    2.3466433430E-05    2.3036465321E-05    2.2614356592E-05
    2.2199963959E-05    2.1793146744E-05    2.1393766825E-05    2.1001688592E-05
    2.0616778900E-05    2.0238907025E-05    1.9867944618E-05    1.9503765667E-05
    1.9146246449E-05    1.8795265493E-05    1.8450703535E-05    1.8112443481E-05
    1.7780370368E-05    1.7454371323E-05    1.7134335528E-05    1.6820154177E-05
    1.6511720449E-05    1.6208929464E-05    1.5911678249E-05    1.5619865707E-05
    1.5333392580E-05    1.5052161417E-05    1.4776076540E-05    1.4505044012E-05
    1.4238971608E-05    1.3977768779E-05    1.3721346626E-05    1.3469617870E-05
    1.3222496818E-05    1.2979899338E-05    1.2741742833E-05    1.2507946206E-05
    1.2278429839E-05    1.2053115564E-05    1.1831926636E-05    1.1614787709E-05
    1.1401624809E-05    1.1192365307E-05    1.0986937902E-05    1.0785272587E-05
    1.0587300635E-05    1.0392954567E-05    1.0202168137E-05    1.0014876304E-05
    9.8310152139E-06    9.6505221742E-06    9.4733356369E-06    9.2993951749E-06
    9.1286414627E-06    8.9610162562E-06    8.7964623731E-06    8.6349236736E-06
    8.4763450411E-06    8.3206723642E-06    8.1678525180E-06    8.0178333463E-06
    7.8705636440E-06    7.7259931396E-06    7.5840724787E-06    7.4447532067E-06
    7.3079877531E-06    7.1737294147E-06    7.0419323406E-06    6.9125515159E-06
    6.7855427472E-06    6.6608626472E-06    6.5384686202E-06    6.4183188477E-06
    6.3003722742E-06    6.1845885935E-06    6.0709282346E-06    5.9593523489E-06
    5.8498227968E-06    5.7423021346E-06    5.6367536021E-06    5.5331411103E-06
    5.4314292286E-06    5.3315831734E-06    5.2335687960E-06    5.1373525713E-06
    5.0429015859E-06    4.9501835279E-06    4.8591666749E-06    4.7698198840E-06
    4.6821125809E-06    4.5960147498E-06    4.5114969229E-06    4.4285301707E-06
    4.3470860920E-06    4.2671368045E-06    4.1886549350E-06    4.1116136107E-06
    4.0359864492E-06    3.9617475506E-06    3.8888714878E-06    3.8173332986E-06
    3.7471084766E-06    3.6781729634E-06    3.6105031402E-06    3.5440758197E-06
    3.4788682386E-06    3.4148580495E-06    3.3520233133E-06    3.2903424921E-06
    3.2297944416E-06    3.1703584041E-06    3.1120140012E-06    3.0547412273E-06
    2.9985204424E-06    2.9433323654E-06    2.8891580681E-06    2.8359789682E-06
    2.7837768233E-06    2.7325337244E-06    2.6822320901E-06    2.6328546608E-06
    2.5843844922E-06    2.5368049501E-06    2.4900997045E-06    2.4442527241E-06
    2.3992482710E-06    2.3550708950E-06    2.3117054288E-06    2.2691369823E-06
    2.2273509380E-06    2.1863329459E-06    2.1460689185E-06    2.1065450262E-06
    2.0677476922E-06    2.0296635885E-06    1.9922796309E-06    1.9555829745E-06
    1.9195610099E-06    1.8842013580E-06    1.8494918667E-06    1.8154206062E-06
    1.7819758650E-06    1.7491461463E-06    1.7169201635E-06    1.6852868368E-06
    1.6542352892E-06    1.6237548429E-06    1.5938350156E-06    1.5644655170E-06
    1.5356362453E-06    1.5073372836E-06    1.4795588966E-06    1.4522915275E-06
    1.4255257944E-06    1.3992524874E-06    1.3734625650E-06    1.3481471516E-06
    1.3232975343E-06    1.2989051595E-06    1.2749616305E-06    1.2514587046E-06
    1.2283882898E-06    1.2057424427E-06    1.1835133653E-06    1.1616934024E-06
    1.1402750395E-06    1.1192508993E-06    1.0986137401E-06    1.0783564527E-06
    1.0584720584E-06    1.0389537064E-06    1.0197946714E-06    1.0009883514E-06
    9.8252826548E-07    9.6440805153E-07    9.4662146410E-07    9.2916237226E-07
    9.1202475749E-07    8.9520271163E-07    8.7869043487E-07    8.6248223379E-07
    8.4657251937E-07    8.3095580508E-07    8.1562670506E-07    8.0057993220E-07
    7.8581029640E-07    7.7131270277E-07    7.5708214989E-07    7.4311372806E-07
    7.2940261770E-07    7.1594408762E-07    7.0273349347E-07    6.8976627610E-07
    6.7703796004E-07    6.6454415192E-07    6.5228053902E-07    6.4024288774E-07
    6.2842704221E-07    6.1682892283E-07    6.0544452487E-07    5.9426991711E-07
    5.8330124049E-07    5.7253470679E-07    5.6196659736E-07    5.5159326179E-07
    5.4141111669E-07    5.3141664448E-07    5.2160639214E-07    5.1197697009E-07
    5.0252505096E-07    4.9324736850E-07    4.8414071643E-07    4.7520194736E-07
    4.6642797169E-07    4.5781575659E-07    4.4936232492E-07    4.4106475423E-07
    4.3292017575E-07    4.2492577339E-07    4.1707878281E-07    4.0937649046E-07
    4.0181623264E-07    3.9439539457E-07    3.8711140955E-07    3.7996175799E-07
    3.7294396664E-07    3.6605560768E-07    3.5929429791E-07    3.5265769793E-07
    3.4614351131E-07    3.3974948385E-07    3.3347340278E-07    3.2731309599E-07
    3.2126643130E-07    3.1533131572E-07    3.0950569475E-07    3.0378755164E-07
    2.9817490671E-07    2.9266581670E-07    2.8725837406E-07    2.8195070633E-07
    2.7674097545E-07    2.7162737718E-07    2.6660814045E-07    2.6168152676E-07
    2.5684582959E-07    2.5209937378E-07    2.4744051500E-07    2.4286763916E-07
    2.3837916183E-07    2.3397352777E-07    2.2964921031E-07    2.2540471089E-07
    2.2123855849E-07    2.1714930916E-07    2.1313554553E-07    2.0919587629E-07
    2.0532893574E-07    2.0153338329E-07    1.9780790303E-07    1.9415120327E-07
    1.9056201607E-07    1.8703909684E-07    1.8358122388E-07    1.8018719798E-07
    1.7685584201E-07    1.7358600048E-07    1.7037653919E-07    1.6722634481E-07
    1.6413432450E-07    1.6109940555E-07    1.5812053496E-07    1.5519667916E-07
    1.5232682358E-07    1.4950997233E-07    1.4674514787E-07    1.4403139065E-07
    1.4136775878E-07    1.3875332773E-07    1.3618718996E-07    1.3366845469E-07
    1.3119624752E-07    1.2876971013E-07    1.2638800005E-07    1.2405029030E-07
    1.2175576913E-07    1.1950363975E-07    1.1729312004E-07    1.1512344230E-07
    1.1299385296E-07    1.1090361232E-07    1.0885199433E-07    1.0683828629E-07
    1.0486178866E-07    1.0292181477E-07    1.0101769061E-07    9.9148754563E-08
    9.7314357237E-08    9.5513861185E-08    9.3746640714E-08    9.2012081661E-08
    9.0309581177E-08    8.8638547526E-08    8.6998399875E-08    8.5388568092E-08
    8.3808492563E-08    8.2257623982E-08    8.0735423169E-08    7.9241360882E-08
    7.7774917634E-08    7.6335583513E-08    7.4922858009E-08    7.3536249840E-08
    7.2175276779E-08    7.0839465491E-08    6.9528351367E-08    6.8241478361E-08
    6.6978398838E-08    6.5738673420E-08    6.4521870828E-08    6.3327567736E-08
    6.2155348623E-08    6.1004805632E-08    5.9875538425E-08    5.8767154051E-08
    5.7679266805E-08    5.6611498095E-08    5.5563476313E-08    5.4534836702E-08
    5.3525221236E-08    5.2534278490E-08    5.1561663526E-08    5.0607037766E-08
    4.9670068879E-08    4.8750430664E-08    4.7847802939E-08    4.6961871425E-08
    4.6092327648E-08    4.5238868821E-08    4.4401197747E-08    4.3579022709E-08
    4.2772057375E-08    4.1980020696E-08    4.1202636807E-08    4.0439634937E-08
    3.9690749313E-08    3.8955719064E-08    3.8234288133E-08    3.7526205192E-08
    3.6831223545E-08    3.6149101057E-08    3.5479600059E-08    3.4822487269E-08
    3.4177533710E-08    3.3544514635E-08    3.2923209441E-08    3.2313401600E-08
    3.1714878581E-08    3.1127431779E-08    3.0550856437E-08    2.9984951579E-08
    2.9429519941E-08    2.8884367898E-08    2.8349305403E-08    2.7824145918E-08
    2.7308706349E-08    2.6802806983E-08    2.6306271424E-08    2.5818926536E-08
    2.5340602378E-08    2.4871132148E-08    2.4410352126E-08    2.3958101615E-08
    2.3514222886E-08    2.3078561122E-08    2.2650964366E-08    2.2231283468E-08
    2.1819372033E-08    2.1415086371E-08    2.1018285445E-08    2.0628830825E-08
    2.0246586635E-08    1.9871419513E-08    1.9503198556E-08    1.9141795285E-08
    1.8787083591E-08    1.8438939697E-08    1.8097242111E-08    1.7761871586E-08
    1.7432711080E-08    1.7109645711E-08    1.6792562722E-08    1.6481351439E-08
    1.6175903234E-08    1.5876111485E-08    1.5581871541E-08    1.5293080683E-08
    1.5009638094E-08    1.4731444817E-08    1.4458403726E-08    1.4190419490E-08
    1.3927398539E-08    1.3669249033E-08    1.3415880828E-08    1.3167205448E-08
    1.2923136053E-08    1.2683587407E-08    1.2448475849E-08    1.2217719267E-08
    1.1991237064E-08    1.1768950135E-08    1.1550780836E-08    1.1336652960E-08
    1.1126491708E-08    1.0920223664E-08    1.0717776770E-08    1.0519080299E-08
    1.0324064833E-08    1.0132662237E-08    9.9448056356E-09    9.7604293909E-09
    9.5794690782E-09    9.4018614640E-09    9.2275444845E-09    9.0564572230E-09
    8.8885398894E-09    8.7237338005E-09    8.5619813576E-09    8.4032260272E-09
    8.2474123216E-09    8.0944857792E-09    7.9443929455E-09    7.7970813546E-09
    7.6524995119E-09    7.5105968749E-09    7.3713238360E-09    7.2346317051E-09
    7.1004726928E-09    6.9687998936E-09    6.8395672694E-09    6.7127296349E-09
    6.5882426401E-09    6.4660627555E-09    6.3461472569E-09    6.2284542105E-09
    6.1129424584E-09    5.9995716035E-09    5.8883019974E-09    5.7790947248E-09
    5.6719115904E-09    5.5667151057E-09    5.4634684756E-09    5.3621355862E-09
    5.2626809912E-09    5.1650699010E-09    5.0692681697E-09    4.9752422833E-09
    4.8829593478E-09    4.7923870781E-09    4.7034937864E-09    4.6162483712E-09
    4.5306203068E-09    4.4465796328E-09    4.3640969433E-09    4.2831433763E-09
    4.2036906041E-09    4.1257108234E-09    4.0491767455E-09    3.9740615863E-09
    3.9003390584E-09    3.8279833608E-09    3.7569691699E-09    3.6872716308E-09
    3.6188663489E-09    3.5517293810E-09    3.4858372269E-09    3.4211668222E-09
    3.3576955291E-09    3.2954011290E-09    3.2342618145E-09    3.1742561822E-09
    3.1153632247E-09    3.0575623235E-09    3.0008332420E-09    2.9451561185E-09
    2.8905114588E-09    2.8368801300E-09    2.7842433531E-09    2.7325826970E-09
    2.6818800718E-09    2.6321177222E-09    2.5832782227E-09    2.5353444698E-09
    2.4882996768E-09    2.4421273682E-09    2.3968113732E-09    2.3523358206E-09
    2.3086851330E-09    2.2658440218E-09    2.2237974815E-09    2.1825307844E-09
    2.1420294758E-09    2.1022793684E-09    2.0632665379E-09    2.0249773178E-09
    1.9873982946E-09    1.9505163035E-09    1.9143184236E-09    1.8787919733E-09
    1.8439245058E-09    1.8097038049E-09    1.7761178807E-09    1.7431549654E-09
    1.7108035091E-09    1.6790521760E-09    1.6478898405E-09    1.6173055829E-09
    1.5872886857E-09    1.5578286302E-09    1.5289150923E-09    1.5005379392E-09
    1.4726872261E-09    1.4453531923E-09    1.4185262580E-09    1.3921970209E-09
    1.3663562528E-09    1.3409948967E-09    1.3161040631E-09    1.2916750272E-09
    1.2676992264E-09    1.2441682563E-09    1.2210738685E-09    1.1984079672E-09
    1.1761626069E-09    1.1543299890E-09    1.1329024596E-09    1.1118725066E-09
    1.0912327573E-09    1.0709759754E-09    1.0510950589E-09    1.0315830373E-09
    1.0124330693E-09    9.9363844041E-10    9.7519256041E-10    9.5708896142E-10
    9.3932129550E-10    9.2188333228E-10    9.0476895686E-10    8.8797216767E-10
    8.7148707440E-10    8.5530789589E-10    8.3942895805E-10    8.2384469212E-10
    8.0854963260E-10    7.9353841521E-10    7.7880577513E-10    7.6434654511E-10
    7.5015565372E-10    7.3622812349E-10    7.2255906915E-10    7.0914369619E-10
    6.9597729892E-10    6.8305525887E-10    6.7037304319E-10    6.5792620304E-10
    6.4571037209E-10    6.3372126493E-10    6.2195467549E-10    6.1040647594E-10
    5.9907261484E-10    5.8794911591E-10    5.7703207655E-10    5.6631766652E-10
    5.5580212663E-10    5.4548176734E-10    5.3535296745E-10    5.2541217311E-10
    5.1565589627E-10    5.0608071356E-10    4.9668326509E-10    4.8746025325E-10
    4.7840844158E-10    4.6952465366E-10    4.6080577184E-10    4.5224873651E-10
    4.4385054470E-10    4.3560824912E-10    4.2751895714E-10    4.1957982977E-10
    4.1178808066E-10    4.0414097515E-10    3.9663582919E-10    3.8927000870E-10
    3.8204092835E-10    3.7494605080E-10    3.6798288571E-10    3.6114898897E-10
    3.5444196178E-10    3.4785944983E-10    3.4139914241E-10    3.3505877179E-10
    3.2883611228E-10    3.2272897944E-10    3.1673522935E-10    3.1085275787E-10
    3.0507949986E-10    2.9941342851E-10    2.9385255454E-10    2.8839492566E-10
    2.8303862578E-10    2.7778177434E-10    2.7262252567E-10    2.6755906832E-10
    2.6258962445E-10    2.5771244920E-10    2.5292583003E-10    2.4822808623E-10
    2.4361756828E-10    2.3909265726E-10    2.3465176424E-10    2.3029332980E-10
    2.2601582345E-10    2.2181774306E-10    2.1769761437E-10    2.1365399049E-10
    2.0968545139E-10    2.0579060340E-10    2.0196807866E-10    1.9821653472E-10
    1.9453465402E-10    1.9092114345E-10    1.8737473389E-10    1.8389417971E-10
    1.8047825851E-10    1.7712577051E-10    1.7383553820E-10    1.7060640592E-10
    1.6743723943E-10    1.6432692557E-10    1.6127437179E-10    1.5827850583E-10
    1.5533827534E-10    1.5245264752E-10    1.4962060870E-10    1.4684116404E-10
    1.4411333715E-10    1.4143616975E-10    1.3880872135E-10    1.3623006891E-10
    1.3369930650E-10    1.3121554505E-10    1.2877791197E-10    1.2638555085E-10
    1.2403762120E-10    1.2173329809E-10    1.1947177193E-10    1.1725224814E-10
    1.1507394684E-10    1.1293610271E-10    1.1083796460E-10    1.0877879530E-10
    1.0675787128E-10    1.0477448244E-10    1.0282793186E-10    1.0091753553E-10
    9.9042622167E-11    9.7202532910E-11    9.5396621183E-11    9.3624252381E-11
    9.1884803679E-11    9.0177663811E-11    8.8502232858E-11    8.6857922034E-11
    8.5244153480E-11    8.3660360041E-11    8.2105985133E-11    8.0580482490E-11
    7.9083315982E-11    7.7613959429E-11    7.6171896418E-11    7.4756620121E-11
    7.3367633119E-11    7.2004447219E-11    7.0666583281E-11    6.9353571097E-11
    6.8064949169E-11    6.6800264563E-11    6.5559072756E-11    6.4340937472E-11
    6.3145430538E-11    6.1972131726E-11    6.0820628597E-11    5.9690516386E-11
    5.8581397851E-11    5.7492883113E-11    5.6424589532E-11    5.5376141570E-11
    5.4347170662E-11    5.3337315085E-11    5.2346219830E-11    5.1373536460E-11
    5.0418923045E-11    4.9482043988E-11    4.8562569922E-11    4.7660177593E-11
    4.6774549749E-11    4.5905375028E-11    4.5052347849E-11    4.4215168301E-11
    4.3393542030E-11    4.2587180179E-11    4.1795799240E-11    4.1019120965E-11
    4.0256872276E-11    3.9508785162E-11    3.8774596589E-11    3.8054048409E-11
    3.7346887257E-11    3.6652864477E-11    3.5971736044E-11    3.5303262458E-11
    3.4647208660E-11    3.4003343961E-11    3.3371441952E-11    3.2751280429E-11
    3.2142641313E-11    3.1545310569E-11    3.0959078142E-11    3.0383737886E-11
    2.9819087478E-11    2.9264928349E-11    2.8721065619E-11    2.8187308027E-11
    2.7663467861E-11    2.7149360897E-11    2.6644806324E-11    2.6149626698E-11
    2.5663647875E-11    2.5186698939E-11    2.4718612148E-11    2.4259222875E-11
    2.3808369552E-11    2.3365893607E-11    2.2931639416E-11    2.2505454238E-11
    2.2087188177E-11    2.1676694124E-11    2.1273827699E-11    2.0878447200E-11
    2.0490413560E-11    2.0109590293E-11    1.9735843447E-11    1.9369041559E-11
    1.9009055601E-11    1.8655758949E-11    1.8309027335E-11    1.7968738793E-11
    1.7634773624E-11    1.7307014351E-11    1.6985345677E-11    1.6669654451E-11
    1.6359829619E-11    1.6055762187E-11    1.5757345190E-11    1.5464473654E-11
    1.5177044553E-11    1.4894956770E-11    1.4618111069E-11    1.4346410057E-11
    1.4079758150E-11    1.3818061538E-11    1.3561228151E-11    1.3309167630E-11
    1.3061791304E-11    1.2819012140E-11    1.2580744726E-11    1.2346905234E-11
    1.2117411392E-11    1.1892182459E-11    1.1671139191E-11    1.1454203817E-11
    1.1241300006E-11    1.1032352855E-11    1.0827288849E-11    1.0626035836E-11
    1.0428523005E-11    1.0234680862E-11    1.0044441202E-11    9.8577370867E-12
    9.6745028227E-12    9.4946739300E-12    9.3181871386E-12    9.1449803485E-12
    8.9749926131E-12    8.8081641179E-12    8.6444361594E-12    8.4837511248E-12
    8.3260524714E-12    8.1712847068E-12    8.0193933658E-12    7.8703250009E-12
    7.7240271575E-12    7.5804483538E-12    7.4395380643E-12    7.3012467020E-12
    7.1655256012E-12    7.0323270003E-12    6.9016040248E-12    6.7733106695E-12
    6.6474017841E-12    6.5238330619E-12    6.4025610164E-12    6.2835429689E-12
    6.1667370335E-12    6.0521021024E-12    5.9395978318E-12    5.8291846271E-12
    5.7208236294E-12    5.6144766978E-12    5.5101064078E-12    5.4076760270E-12
    5.3071495052E-12    5.2084914617E-12    5.1116671734E-12    5.0166425623E-12
    4.9233841833E-12    4.8318592129E-12    4.7420354355E-12    4.6538812359E-12
    4.5673655884E-12    4.4824580420E-12    4.3991287114E-12    4.3173482664E-12
    4.2370879221E-12    4.1583194279E-12    4.0810150586E-12    4.0051476038E-12
    3.9306903557E-12    3.8576171090E-12    3.7859021423E-12    3.7155202124E-12
    3.6464465447E-12    3.5786568253E-12    3.5121271917E-12    3.4468342251E-12
    3.3827549415E-12    3.3198667832E-12    3.2581476119E-12    3.1975757033E-12
    3.1381297349E-12    3.0797887807E-12    3.0225323032E-12    2.9663401466E-12
    2.9111925297E-12    2.8570700389E-12    2.8039536210E-12    2.7518245754E-12
    2.7006645520E-12    2.6504555411E-12    2.6011798671E-12    2.5528201827E-12
    2.5053594632E-12    2.4587810001E-12    2.4130683954E-12    2.3682055557E-12
    2.3241766866E-12    2.2809662856E-12    2.2385591421E-12    2.1969403261E-12
    2.1560951853E-12    2.1160093396E-12    2.0766686758E-12    2.0380593435E-12
    2.0001677492E-12    1.9629805522E-12    1.9264846591E-12    1.8906672199E-12
    1.8555156251E-12    1.8210174987E-12    1.7871606942E-12    1.7539332913E-12
    1.7213235908E-12    1.6893201113E-12    1.6579115844E-12    1.6270869513E-12
    1.5968353578E-12    1.5671461525E-12    1.5380088825E-12    1.5094132886E-12
    1.4813493021E-12    1.4538070415E-12    1.4267768090E-12    1.4002490868E-12
    1.3742145341E-12    1.3486639838E-12    1.3235884380E-12    1.2989790677E-12
    1.2748272080E-12    1.2511243543E-12    1.2278621604E-12    1.2050324351E-12
    1.1826271392E-12    1.1606383833E-12    1.1390584243E-12    1.1178796632E-12
    1.0970946411E-12    1.0766960396E-12    1.0566766757E-12    1.0370294999E-12
    1.0177475935E-12    9.9882416648E-13    9.8025255505E-13    9.6202621919E-13
    9.4413874044E-13    9.2658381965E-13    9.0935527393E-13    8.9244703672E-13
    8.7585315390E-13    8.5956778179E-13    8.4358518532E-13    8.2789973601E-13
    8.1250590997E-13    7.9739828600E-13    7.8257154364E-13    7.6802046131E-13
    7.5373991384E-13    7.3972487241E-13    7.2597040154E-13    7.1247165721E-13
    6.9922388547E-13    6.8622242070E-13    6.7346268401E-13    6.6094018162E-13
    6.4865050324E-13    6.3658932059E-13    6.2475238531E-13    6.1313552878E-13
    6.0173465990E-13    5.9054576337E-13    5.7956489852E-13    5.6878819792E-13
    5.5821186602E-13    5.4783217782E-13    5.3764547754E-13    5.2764817738E-13
    5.1783675586E-13    5.0820775733E-13    4.9875779070E-13    4.8948352763E-13
    4.8038170160E-13    4.7144910684E-13    4.6268259715E-13    4.5407908481E-13
    4.4563553949E-13    4.3734898719E-13    4.2921650903E-13    4.2123524029E-13
    4.1340237019E-13    4.0571513982E-13    3.9817084152E-13    3.9076681798E-13
    3.8350046126E-13    3.7636921193E-13    3.6937055811E-13    3.6250203460E-13
    3.5576122205E-13    3.4914574558E-13    3.4265327544E-13    3.3628152474E-13
    3.3002824909E-13    3.2389124580E-13    3.1786835315E-13    3.1195744959E-13
    3.0615645300E-13    3.0046331998E-13    2.9487604509E-13    2.8939265991E-13
    2.8401123303E-13    2.7872986895E-13    2.7354670730E-13    2.6845992226E-13
    2.6346772197E-13    2.5856834786E-13    2.5376007407E-13    2.4904120680E-13
    2.4441008375E-13    2.3986507343E-13    2.3540457458E-13    2.3102701619E-13
    2.2673085616E-13    2.2251458110E-13    2.1837670572E-13    2.1431577236E-13
    2.1033035043E-13    2.0641903596E-13    2.0258045106E-13    1.9881324347E-13
    1.9511608582E-13    1.9148767583E-13    1.8792673535E-13    1.8443200992E-13
    1.8100226838E-13    1.7763630250E-13    1.7433292646E-13    1.7109097652E-13
    1.6790931056E-13    1.6478680769E-13
   </PP_CHI.1>
   <PP_CHI.2
       type="real"
       size="1766"
       columns="4"
       index="2"
       occupation=" 4.000"
       pseudo_energy="   -0.2016993698E+01"
       label="4P"
       l="1" >
    3.8337388819E-14    1.5047856969E-04    6.0180578853E-04    1.3536562670E-03
    2.4054879626E-03    3.7565425909E-03    5.4058462006E-03    7.3522099128E-03
    9.5942308253E-03    1.2130293080E-02    1.4958569098E-02    1.8077020972E-02
    2.1483402036E-02    2.5175258581E-02    2.9149931755E-02    3.3404559612E-02
    3.7936079332E-02    4.2741229602E-02    4.7816553161E-02    5.3158399509E-02
    5.8762927774E-02    6.4626109745E-02    7.0743733060E-02    7.7111404556E-02
    8.3724553780E-02    9.0578436647E-02    9.7668139261E-02    1.0498858188E-01
    1.1253452306E-01    1.2030056389E-01    1.2828115242E-01    1.3647058824E-01
    1.4486302716E-01    1.5345248601E-01    1.6223284770E-01    1.7119786620E-01
    1.8034117184E-01    1.8965627665E-01    1.9913657977E-01    2.0877537305E-01
    2.1856584673E-01    2.2850109519E-01    2.3857412286E-01    2.4877785013E-01
    2.5910511945E-01    2.6954870140E-01    2.8010130094E-01    2.9075556361E-01
    3.0150408188E-01    3.1233940153E-01    3.2325402801E-01    3.3424043295E-01
    3.4529106063E-01    3.5639833445E-01    3.6755466347E-01    3.7875244897E-01
    3.8998409093E-01    4.0124199460E-01    4.1251857700E-01    4.2380627340E-01
    4.3509754379E-01    4.4638487936E-01    4.5766080881E-01    4.6891790477E-01
    4.8014879004E-01    4.9134614382E-01    5.0250270790E-01    5.1361129270E-01
    5.2466478329E-01    5.3565614529E-01    5.4657843069E-01    5.5742478358E-01
    5.6818844570E-01    5.7886276200E-01    5.8944118599E-01    5.9991728495E-01
    6.1028474510E-01    6.2053737658E-01    6.3066911825E-01    6.4067404243E-01
    6.5054635943E-01    6.6028042192E-01    6.6987072920E-01    6.7931193125E-01
    6.8859883260E-01    6.9772639608E-01    7.0668974638E-01    7.1548417337E-01
    7.2410513532E-01    7.3254826187E-01    7.4080935683E-01    7.4888440081E-01
    7.5676955358E-01    7.6446115631E-01    7.7195573355E-01    7.7924999505E-01
    7.8634083731E-01    7.9322534498E-01    7.9990079201E-01    8.0636464260E-01
    8.1261455192E-01    8.1864836664E-01    8.2446412522E-01    8.3006005796E-01
    8.3543458692E-01    8.4058632547E-01    8.4551407778E-01    8.5021683800E-01
    8.5469378922E-01    8.5894430229E-01    8.6296793430E-01    8.6676442699E-01
    8.7033370483E-01    8.7367587297E-01    8.7679121497E-01    8.7968019028E-01
    8.8234343159E-01    8.8478174198E-01    8.8699609180E-01    8.8898761552E-01
    8.9075760824E-01    8.9230752214E-01    8.9363896274E-01    8.9475368496E-01
    8.9565358912E-01    8.9634071670E-01    8.9681724602E-01    8.9708548777E-01
    8.9714788049E-01    8.9700698582E-01    8.9666548373E-01    8.9612616770E-01
    8.9539193969E-01    8.9446580516E-01    8.9335086797E-01    8.9205032523E-01
    8.9056746214E-01    8.8890564674E-01    8.8706832471E-01    8.8505901410E-01
    8.8288130009E-01    8.8053882974E-01    8.7803530677E-01    8.7537448634E-01
    8.7256016995E-01    8.6959620026E-01    8.6648645604E-01    8.6323484720E-01
    8.5984530987E-01    8.5632180150E-01    8.5266829614E-01    8.4888877978E-01
    8.4498724576E-01    8.4096769035E-01    8.3683410835E-01    8.3259048893E-01
    8.2824081145E-01    8.2378904159E-01    8.1923912739E-01    8.1459499564E-01
    8.0986054825E-01    8.0503965885E-01    8.0013616950E-01    7.9515388753E-01
    7.9009658255E-01    7.8496798362E-01    7.7977177650E-01    7.7451160109E-01
    7.6919104904E-01    7.6381366145E-01    7.5838292670E-01    7.5290227850E-01
    7.4737509395E-01    7.4180469187E-01    7.3619433116E-01    7.3054720928E-01
    7.2486646095E-01    7.1915515684E-01    7.1341630246E-01    7.0765283713E-01
    7.0186763304E-01    6.9606349443E-01    6.9024315685E-01    6.8440928648E-01
    6.7856447962E-01    6.7271126213E-01    6.6685208907E-01    6.6098934430E-01
    6.5512534023E-01    6.4926231754E-01    6.4340244503E-01    6.3754781947E-01
    6.3170046551E-01    6.2586233560E-01    6.2003530999E-01    6.1422119673E-01
    6.0842173168E-01    6.0263857855E-01    5.9687332901E-01    5.9112750269E-01
    5.8540254735E-01    5.7969983889E-01    5.7402068148E-01    5.6836630756E-01
    5.6273787789E-01    5.5713648174E-01    5.5156313701E-01    5.4601879034E-01
    5.4050431721E-01    5.3502052208E-01    5.2956813836E-01    5.2414782847E-01
    5.1876018637E-01    5.1340574809E-01    5.0808501465E-01    5.0279846110E-01
    4.9754653285E-01    4.9232964796E-01    4.8714819786E-01    4.8200254817E-01
    4.7689303956E-01    4.7181998856E-01    4.6678368835E-01    4.6178440953E-01
    4.5682240087E-01    4.5189789003E-01    4.4701108427E-01    4.4216217115E-01
    4.3735131919E-01    4.3257867850E-01    4.2784438144E-01    4.2314854320E-01
    4.1849126241E-01    4.1387262170E-01    4.0929268827E-01    4.0475151440E-01
    4.0024913800E-01    3.9578558310E-01    3.9136086033E-01    3.8697496740E-01
    3.8262788955E-01    3.7831960002E-01    3.7405006042E-01    3.6981922120E-01
    3.6562702202E-01    3.6147339215E-01    3.5735825083E-01    3.5328150766E-01
    3.4924306292E-01    3.4524280795E-01    3.4128062544E-01    3.3735638979E-01
    3.3346996740E-01    3.2962121699E-01    3.2580998986E-01    3.2203613026E-01
    3.1829947557E-01    3.1459985665E-01    3.1093709808E-01    3.0731101843E-01
    3.0372143051E-01    3.0016814162E-01    2.9665095382E-01    2.9316966412E-01
    2.8972406480E-01    2.8631394354E-01    2.8293908375E-01    2.7959926472E-01
    2.7629426189E-01    2.7302384701E-01    2.6978778843E-01    2.6658585123E-01
    2.6341779750E-01    2.6028338646E-01    2.5718237474E-01    2.5411451650E-01
    2.5107956368E-01    2.4807726614E-01    2.4510737187E-01    2.4216962714E-01
    2.3926377671E-01    2.3638956396E-01    2.3354673106E-01    2.3073501914E-01
    2.2795416845E-01    2.2520391848E-01    2.2248400814E-01    2.1979417585E-01
    2.1713415973E-01    2.1450369768E-01    2.1190252754E-01    2.0933038716E-01
    2.0678701458E-01    2.0427214809E-01    2.0178552633E-01    1.9932688842E-01
    1.9689597404E-01    1.9449252350E-01    1.9211627785E-01    1.8976697895E-01
    1.8744436953E-01    1.8514819328E-01    1.8287819494E-01    1.8063412028E-01
    1.7841571625E-01    1.7622273100E-01    1.7405491390E-01    1.7191201564E-01
    1.6979378825E-01    1.6769998512E-01    1.6563036108E-01    1.6358467242E-01
    1.6156267690E-01    1.5956413382E-01    1.5758880400E-01    1.5563644986E-01
    1.5370683539E-01    1.5179972622E-01    1.4991488959E-01    1.4805209442E-01
    1.4621111126E-01    1.4439171239E-01    1.4259367174E-01    1.4081676497E-01
    1.3906076945E-01    1.3732546426E-01    1.3561063022E-01    1.3391604989E-01
    1.3224150757E-01    1.3058678928E-01    1.2895168282E-01    1.2733597771E-01
    1.2573946525E-01    1.2416193847E-01    1.2260319214E-01    1.2106302281E-01
    1.1954122875E-01    1.1803760999E-01    1.1655196830E-01    1.1508410719E-01
    1.1363383191E-01    1.1220094941E-01    1.1078526842E-01    1.0938659936E-01
    1.0800475435E-01    1.0663954727E-01    1.0529079365E-01    1.0395831075E-01
    1.0264191753E-01    1.0134143460E-01    1.0005668427E-01    9.8787490520E-02
    9.7533678984E-02    9.6295076952E-02    9.5071513359E-02    9.3862818780E-02
    9.2668825414E-02    9.1489367083E-02    9.0324279219E-02    8.9173398855E-02
    8.8036564617E-02    8.6913616716E-02    8.5804396933E-02    8.4708748617E-02
    8.3626516669E-02    8.2557547535E-02    8.1501689196E-02    8.0458791159E-02
    7.9428704444E-02    7.8411281577E-02    7.7406376575E-02    7.6413844944E-02
    7.5433543661E-02    7.4465331164E-02    7.3509067348E-02    7.2564613548E-02
    7.1631832531E-02    7.0710588485E-02    6.9800747008E-02    6.8902175099E-02
    6.8014741146E-02    6.7138314914E-02    6.6272767536E-02    6.5417971504E-02
    6.4573800655E-02    6.3740130159E-02    6.2916836514E-02    6.2103797530E-02
    6.1300892321E-02    6.0508001294E-02    5.9725006135E-02    5.8951789802E-02
    5.8188236516E-02    5.7434231742E-02    5.6689662187E-02    5.5954415787E-02
    5.5228381691E-02    5.4511450259E-02    5.3803513044E-02    5.3104462786E-02
    5.2414193400E-02    5.1732599963E-02    5.1059578708E-02    5.0395027010E-02
    4.9738843379E-02    4.9090927445E-02    4.8451179950E-02    4.7819502740E-02
    4.7195798752E-02    4.6579972002E-02    4.5971927579E-02    4.5371571633E-02
    4.4778811364E-02    4.4193555015E-02    4.3615711856E-02    4.3045192181E-02
    4.2481907295E-02    4.1925769501E-02    4.1376692098E-02    4.0834589362E-02
    4.0299376545E-02    3.9770969860E-02    3.9249286471E-02    3.8734244487E-02
    3.8225762952E-02    3.7723761833E-02    3.7228162011E-02    3.6738885276E-02
    3.6255854312E-02    3.5778992693E-02    3.5308224870E-02    3.4843476163E-02
    3.4384672755E-02    3.3931741678E-02    3.3484610808E-02    3.3043208857E-02
    3.2607465359E-02    3.2177310668E-02    3.1752675944E-02    3.1333493148E-02
    3.0919695034E-02    3.0511215135E-02    3.0107987763E-02    2.9709947993E-02
    2.9317031661E-02    2.8929175353E-02    2.8546316396E-02    2.8168392852E-02
    2.7795343510E-02    2.7427107877E-02    2.7063626172E-02    2.6704839315E-02
    2.6350688925E-02    2.6001117305E-02    2.5656067442E-02    2.5315482994E-02
    2.4979308286E-02    2.4647488303E-02    2.4319968677E-02    2.3996695689E-02
    2.3677616254E-02    2.3362677918E-02    2.3051828851E-02    2.2745017838E-02
    2.2442194275E-02    2.2143308158E-02    2.1848310083E-02    2.1557151231E-02
    2.1269783370E-02    2.0986158841E-02    2.0706230558E-02    2.0429951995E-02
    2.0157277187E-02    1.9888160717E-02    1.9622557716E-02    1.9360423849E-02
    1.9101715319E-02    1.8846388851E-02    1.8594401695E-02    1.8345711614E-02
    1.8100276877E-02    1.7858056263E-02    1.7619009042E-02    1.7383094979E-02
    1.7150274327E-02    1.6920507817E-02    1.6693756657E-02    1.6469982523E-02
    1.6249147559E-02    1.6031214366E-02    1.5816146000E-02    1.5603905965E-02
    1.5394458210E-02    1.5187767122E-02    1.4983797522E-02    1.4782514660E-02
    1.4583884210E-02    1.4387872264E-02    1.4194445329E-02    1.4003570321E-02
    1.3815214562E-02    1.3629345772E-02    1.3445932068E-02    1.3264941956E-02
    1.3086344332E-02    1.2910108470E-02    1.2736204024E-02    1.2564601020E-02
    1.2395269853E-02    1.2228181284E-02    1.2063306431E-02    1.1900616772E-02
    1.1740084134E-02    1.1581680694E-02    1.1425378972E-02    1.1271151828E-02
    1.1118972457E-02    1.0968814388E-02    1.0820651476E-02    1.0674457903E-02
    1.0530208168E-02    1.0387877089E-02    1.0247439798E-02    1.0108871734E-02
    9.9721486434E-03    9.8372465737E-03    9.7041418721E-03    9.5728111802E-03
    9.4432314317E-03    9.3153798483E-03    9.1892339366E-03    9.0647714847E-03
    8.9419705587E-03    8.8208095000E-03    8.7012669211E-03    8.5833217033E-03
    8.4669529930E-03    8.3521401986E-03    8.2388629876E-03    8.1271012836E-03
    8.0168352626E-03    7.9080453510E-03    7.8007122217E-03    7.6948167917E-03
    7.5903402191E-03    7.4872639002E-03    7.3855694664E-03    7.2852387819E-03
    7.1862539404E-03    7.0885972627E-03    6.9922512939E-03    6.8971988006E-03
    6.8034227683E-03    6.7109063988E-03    6.6196331077E-03    6.5295865215E-03
    6.4407504753E-03    6.3531090104E-03    6.2666463716E-03    6.1813470046E-03
    6.0971955541E-03    6.0141768609E-03    5.9322759595E-03    5.8514780762E-03
    5.7717686264E-03    5.6931332124E-03    5.6155576211E-03    5.5390278219E-03
    5.4635299643E-03    5.3890503756E-03    5.3155755592E-03    5.2430921919E-03
    5.1715871221E-03    5.1010473677E-03    5.0314601136E-03    4.9628127105E-03
    4.8950926719E-03    4.8282876728E-03    4.7623855474E-03    4.6973742873E-03
    4.6332420392E-03    4.5699771036E-03    4.5075679322E-03    4.4460031267E-03
    4.3852714363E-03    4.3253617566E-03    4.2662631270E-03    4.2079647296E-03
    4.1504558868E-03    4.0937260603E-03    4.0377648485E-03    3.9825619857E-03
    3.9281073396E-03    3.8743909101E-03    3.8214028276E-03    3.7691333513E-03
    3.7175728675E-03    3.6667118883E-03    3.6165410496E-03    3.5670511099E-03
    3.5182329487E-03    3.4700775648E-03    3.4225760749E-03    3.3757197122E-03
    3.3294998249E-03    3.2839078747E-03    3.2389354354E-03    3.1945741913E-03
    3.1508159362E-03    3.1076525717E-03    3.0650761059E-03    3.0230786520E-03
    2.9816524273E-03    2.9407897513E-03    2.9004830449E-03    2.8607248290E-03
    2.8215077229E-03    2.7828244436E-03    2.7446678040E-03    2.7070307122E-03
    2.6699061697E-03    2.6332872710E-03    2.5971672014E-03    2.5615392367E-03
    2.5263967417E-03    2.4917331691E-03    2.4575420581E-03    2.4238170340E-03
    2.3905518061E-03    2.3577401676E-03    2.3253759939E-03    2.2934532417E-03
    2.2619659481E-03    2.2309082292E-03    2.2002742795E-03    2.1700583708E-03
    2.1402548508E-03    2.1108581428E-03    2.0818627440E-03    2.0532632251E-03
    2.0250542292E-03    1.9972304706E-03    1.9697867343E-03    1.9427178746E-03
    1.9160188147E-03    1.8896845455E-03    1.8637101247E-03    1.8380906762E-03
    1.8128213888E-03    1.7878975159E-03    1.7633143742E-03    1.7390673430E-03
    1.7151518635E-03    1.6915634381E-03    1.6682976290E-03    1.6453500583E-03
    1.6227164064E-03    1.6003924117E-03    1.5783738699E-03    1.5566566328E-03
    1.5352366081E-03    1.5141097583E-03    1.4932721000E-03    1.4727197034E-03
    1.4524486914E-03    1.4324552392E-03    1.4127355732E-03    1.3932859704E-03
    1.3741027582E-03    1.3551823131E-03    1.3365210605E-03    1.3181154739E-03
    1.2999620741E-03    1.2820574290E-03    1.2643981525E-03    1.2469809043E-03
    1.2298023889E-03    1.2128593555E-03    1.1961485967E-03    1.1796669488E-03
    1.1634112904E-03    1.1473785425E-03    1.1315656675E-03    1.1159696688E-03
    1.1005875903E-03    1.0854165158E-03    1.0704535684E-03    1.0556959102E-03
    1.0411407416E-03    1.0267853008E-03    1.0126268634E-03    9.9866274170E-04
    9.8489028456E-04    9.7130687654E-04    9.5790993763E-04    9.4469692274E-04
    9.3166532121E-04    9.1881265640E-04    9.0613648517E-04    8.9363439749E-04
    8.8130401597E-04    8.6914299541E-04    8.5714902243E-04    8.4531981495E-04
    8.3365312188E-04    8.2214672260E-04    8.1079842665E-04    7.9960607324E-04
    7.8856753091E-04    7.7768069711E-04    7.6694349784E-04    7.5635388724E-04
    7.4590984719E-04    7.3560938702E-04    7.2545054307E-04    7.1543137832E-04
    7.0554998212E-04    6.9580446971E-04    6.8619298200E-04    6.7671368512E-04
    6.6736477015E-04    6.5814445275E-04    6.4905097284E-04    6.4008259427E-04
    6.3123760451E-04    6.2251431431E-04    6.1391105741E-04    6.0542619021E-04
    5.9705809149E-04    5.8880516208E-04    5.8066582459E-04    5.7263852307E-04
    5.6472172279E-04    5.5691390991E-04    5.4921359118E-04    5.4161929372E-04
    5.3412956469E-04    5.2674297105E-04    5.1945809929E-04    5.1227355515E-04
    5.0518796339E-04    4.9819996748E-04    4.9130822942E-04    4.8451142942E-04
    4.7780826570E-04    4.7119745423E-04    4.6467772848E-04    4.5824783922E-04
    4.5190655422E-04    4.4565265810E-04    4.3948495204E-04    4.3340225357E-04
    4.2740339638E-04    4.2148723006E-04    4.1565261991E-04    4.0989844672E-04
    4.0422360654E-04    3.9862701051E-04    3.9310758465E-04    3.8766426962E-04
    3.8229602057E-04    3.7700180689E-04    3.7178061208E-04    3.6663143351E-04
    3.6155328226E-04    3.5654518291E-04    3.5160617337E-04    3.4673530469E-04
    3.4193164093E-04    3.3719425888E-04    3.3252224801E-04    3.2791471019E-04
    3.2337075961E-04    3.1888952253E-04    3.1447013719E-04    3.1011175361E-04
    3.0581353342E-04    3.0157464973E-04    2.9739428696E-04    2.9327164068E-04
    2.8920591747E-04    2.8519633476E-04    2.8124212071E-04    2.7734251400E-04
    2.7349676378E-04    2.6970412943E-04    2.6596388050E-04    2.6227529653E-04
    2.5863766691E-04    2.5505029076E-04    2.5151247683E-04    2.4802354329E-04
    2.4458281767E-04    2.4118963671E-04    2.3784334622E-04    2.3454330099E-04
    2.3128886464E-04    2.2807940949E-04    2.2491431648E-04    2.2179297502E-04
    2.1871478291E-04    2.1567914616E-04    2.1268547896E-04    2.0973320350E-04
    2.0682174990E-04    2.0395055610E-04    2.0111906772E-04    1.9832673801E-04
    1.9557302770E-04    1.9285740490E-04    1.9017934503E-04    1.8753833071E-04
    1.8493385163E-04    1.8236540450E-04    1.7983249292E-04    1.7733462731E-04
    1.7487132479E-04    1.7244210912E-04    1.7004651058E-04    1.6768406590E-04
    1.6535431816E-04    1.6305681672E-04    1.6079111712E-04    1.5855678099E-04
    1.5635337600E-04    1.5418047571E-04    1.5203765958E-04    1.4992451282E-04
    1.4784062633E-04    1.4578559664E-04    1.4375902580E-04    1.4176052134E-04
    1.3978969618E-04    1.3784616853E-04    1.3592956189E-04    1.3403950488E-04
    1.3217563124E-04    1.3033757977E-04    1.2852499417E-04    1.2673752310E-04
    1.2497481999E-04    1.2323654307E-04    1.2152235525E-04    1.1983192407E-04
    1.1816492165E-04    1.1652102460E-04    1.1489991399E-04    1.1330127525E-04
    1.1172479816E-04    1.1017017675E-04    1.0863710926E-04    1.0712529807E-04
    1.0563444966E-04    1.0416427456E-04    1.0271448723E-04    1.0128480612E-04
    9.9874953511E-05    9.8484655509E-05    9.7113641995E-05    9.5761646561E-05
    9.4428406462E-05    9.3113662571E-05    9.1817159322E-05    9.0538644666E-05
    8.9277870022E-05    8.8034590228E-05    8.6808563498E-05    8.5599551368E-05
    8.4407318662E-05    8.3231633435E-05    8.2072266938E-05    8.0928993567E-05
    7.9801590827E-05    7.8689839283E-05    7.7593522522E-05    7.6512427111E-05
    7.5446342553E-05    7.4395061253E-05    7.3358378471E-05    7.2336092288E-05
    7.1328003567E-05    7.0333915911E-05    6.9353635630E-05    6.8386971701E-05
    6.7433735733E-05    6.6493741928E-05    6.5566807051E-05    6.4652750389E-05
    6.3751393720E-05    6.2862561277E-05    6.1986079717E-05    6.1121778083E-05
    6.0269487777E-05    5.9429042522E-05    5.8600278334E-05    5.7783033491E-05
    5.6977148497E-05    5.6182466059E-05    5.5398831049E-05    5.4626090479E-05
    5.3864093471E-05    5.3112691227E-05    5.2371737003E-05    5.1641086075E-05
    5.0920595718E-05    5.0210125174E-05    4.9509535629E-05    4.8818690180E-05
    4.8137453817E-05    4.7465693390E-05    4.6803277586E-05    4.6150076906E-05
    4.5505963635E-05    4.4870811823E-05    4.4244497257E-05    4.3626897439E-05
    4.3017891561E-05    4.2417360483E-05    4.1825186711E-05    4.1241254370E-05
    4.0665449188E-05    4.0097658468E-05    3.9537771072E-05    3.8985677394E-05
    3.8441269343E-05    3.7904440320E-05    3.7375085200E-05    3.6853100307E-05
    3.6338383401E-05    3.5830833652E-05    3.5330351622E-05    3.4836839250E-05
    3.4350199826E-05    3.3870337979E-05    3.3397159655E-05    3.2930572101E-05
    3.2470483844E-05    3.2016804677E-05    3.1569445637E-05    3.1128318995E-05
    3.0693338230E-05    3.0264418022E-05    2.9841474226E-05    2.9424423864E-05
    2.9013185103E-05    2.8607677244E-05    2.8207820701E-05    2.7813536991E-05
    2.7424748715E-05    2.7041379547E-05    2.6663354213E-05    2.6290598483E-05
    2.5923039154E-05    2.5560604035E-05    2.5203221933E-05    2.4850822642E-05
    2.4503336926E-05    2.4160696508E-05    2.3822834055E-05    2.3489683168E-05
    2.3161178364E-05    2.2837255069E-05    2.2517849601E-05    2.2202899162E-05
    2.1892341821E-05    2.1586116505E-05    2.1284162989E-05    2.0986421879E-05
    2.0692834604E-05    2.0403343406E-05    2.0117891325E-05    1.9836422192E-05
    1.9558880613E-05    1.9285211964E-05    1.9015362377E-05    1.8749278731E-05
    1.8486908638E-05    1.8228200441E-05    1.7973103193E-05    1.7721566659E-05
    1.7473541295E-05    1.7228978247E-05    1.6987829336E-05    1.6750047053E-05
    1.6515584545E-05    1.6284395612E-05    1.6056434691E-05    1.5831656852E-05
    1.5610017789E-05    1.5391473810E-05    1.5175981828E-05    1.4963499354E-05
    1.4753984488E-05    1.4547395911E-05    1.4343692880E-05    1.4142835212E-05
    1.3944783287E-05    1.3749498029E-05    1.3556940909E-05    1.3367073931E-05
    1.3179859625E-05    1.2995261041E-05    1.2813241745E-05    1.2633765805E-05
    1.2456797789E-05    1.2282302756E-05    1.2110246253E-05    1.1940594302E-05
    1.1773313398E-05    1.1608370500E-05    1.1445733029E-05    1.1285368854E-05
    1.1127246294E-05    1.0971334105E-05    1.0817601479E-05    1.0666018035E-05
    1.0516553814E-05    1.0369179273E-05    1.0223865280E-05    1.0080583107E-05
    9.9393044251E-06    9.8000013000E-06    9.6626461844E-06    9.5272119144E-06
    9.3936717033E-06    9.2619991368E-06    9.1321681675E-06    9.0041531102E-06
    8.8779286368E-06    8.7534697709E-06    8.6307518837E-06    8.5097506885E-06
    8.3904422364E-06    8.2728029114E-06    8.1568094259E-06    8.0424388160E-06
    7.9296684374E-06    7.8184759604E-06    7.7088393659E-06    7.6007369412E-06
    7.4941472756E-06    7.3890492561E-06    7.2854220634E-06    7.1832451678E-06
    7.0824983252E-06    6.9831615735E-06    6.8852152277E-06    6.7886398774E-06
    6.6934163817E-06    6.5995258665E-06    6.5069497201E-06    6.4156695900E-06
    6.3256673789E-06    6.2369252417E-06    6.1494255816E-06    6.0631510466E-06
    5.9780845264E-06    5.8942091489E-06    5.8115082769E-06    5.7299655048E-06
    5.6495646556E-06    5.5702897774E-06    5.4921251404E-06    5.4150552340E-06
    5.3390647637E-06    5.2641386477E-06    5.1902620147E-06    5.1174202002E-06
    5.0455987441E-06    4.9747833879E-06    4.9049600713E-06    4.8361149305E-06
    4.7682342945E-06    4.7013046827E-06    4.6353128027E-06    4.5702455471E-06
    4.5060899911E-06    4.4428333902E-06    4.3804631775E-06    4.3189669613E-06
    4.2583325225E-06    4.1985478123E-06    4.1396009501E-06    4.0814802207E-06
    4.0241740724E-06    3.9676711144E-06    3.9119601150E-06    3.8570299987E-06
    3.8028698448E-06    3.7494688847E-06    3.6968165001E-06    3.6449022207E-06
    3.5937157223E-06    3.5432468248E-06    3.4934854898E-06    3.4444218191E-06
    3.3960460527E-06    3.3483485667E-06    3.3013198713E-06    3.2549506093E-06
    3.2092315540E-06    3.1641536075E-06    3.1197077986E-06    3.0758852817E-06
    3.0326773343E-06    2.9900753559E-06    2.9480708658E-06    2.9066555018E-06
    2.8658210184E-06    2.8255592853E-06    2.7858622855E-06    2.7467221140E-06
    2.7081309763E-06    2.6700811864E-06    2.6325651661E-06    2.5955754425E-06
    2.5591046474E-06    2.5231455153E-06    2.4876908823E-06    2.4527336845E-06
    2.4182669566E-06    2.3842838306E-06    2.3507775345E-06    2.3177413908E-06
    2.2851688153E-06    2.2530533159E-06    2.2213884910E-06    2.1901680286E-06
    2.1593857047E-06    2.1290353825E-06    2.0991110107E-06    2.0696066227E-06
    2.0405163353E-06    2.0118343475E-06    1.9835549392E-06    1.9556724704E-06
    1.9281813799E-06    1.9010761843E-06    1.8743514767E-06    1.8480019259E-06
    1.8220222751E-06    1.7964073411E-06    1.7711520130E-06    1.7462512516E-06
    1.7217000879E-06    1.6974936226E-06    1.6736270248E-06    1.6500955310E-06
    1.6268944445E-06    1.6040191343E-06    1.5814650340E-06    1.5592276412E-06
    1.5373025164E-06    1.5156852823E-06    1.4943716225E-06    1.4733572814E-06
    1.4526380627E-06    1.4322098288E-06    1.4120685000E-06    1.3922100537E-06
    1.3726305236E-06    1.3533259988E-06    1.3342926232E-06    1.3155265945E-06
    1.2970241640E-06    1.2787816349E-06    1.2607953625E-06    1.2430617531E-06
    1.2255772632E-06    1.2083383987E-06    1.1913417148E-06    1.1745838147E-06
    1.1580613491E-06    1.1417710156E-06    1.1257095581E-06    1.1098737660E-06
    1.0942604738E-06    1.0788665601E-06    1.0636889473E-06    1.0487246010E-06
    1.0339705290E-06    1.0194237813E-06    1.0050814490E-06    9.9094066394E-07
    9.7699859829E-07    9.6325246368E-07    9.4969951082E-07    9.3633702892E-07
    9.2316234515E-07    9.1017282412E-07    8.9736586735E-07    8.8473891275E-07
    8.7228943412E-07    8.6001494067E-07    8.4791297646E-07    8.3598111997E-07
    8.2421698361E-07    8.1261821324E-07    8.0118248767E-07    7.8990751826E-07
    7.7879104845E-07    7.6783085326E-07    7.5702473890E-07    7.4637054233E-07
    7.3586613081E-07    7.2550940148E-07    7.1529828096E-07    7.0523072493E-07
    6.9530471771E-07    6.8551827187E-07    6.7586942784E-07    6.6635625351E-07
    6.5697684385E-07    6.4772932054E-07    6.3861183158E-07    6.2962255095E-07
    6.2075967821E-07    6.1202143815E-07    6.0340608048E-07    5.9491187941E-07
    5.8653713336E-07    5.7828016462E-07    5.7013931900E-07    5.6211296550E-07
    5.5419949597E-07    5.4639732483E-07    5.3870488874E-07    5.3112064627E-07
    5.2364307760E-07    5.1627068424E-07    5.0900198871E-07    5.0183553425E-07
    4.9476988454E-07    4.8780362338E-07    4.8093535445E-07    4.7416370102E-07
    4.6748730567E-07    4.6090483002E-07    4.5441495445E-07    4.4801637788E-07
    4.4170781746E-07    4.3548800834E-07    4.2935570341E-07    4.2330967307E-07
    4.1734870497E-07    4.1147160377E-07    4.0567719089E-07    3.9996430430E-07
    3.9433179827E-07    3.8877854314E-07    3.8330342511E-07    3.7790534601E-07
    3.7258322308E-07    3.6733598877E-07    3.6216259048E-07    3.5706199040E-07
    3.5203316529E-07    3.4707510627E-07    3.4218681861E-07    3.3736732156E-07
    3.3261564811E-07    3.2793084485E-07    3.2331197175E-07    3.1875810195E-07
    3.1426832162E-07    3.0984172977E-07    3.0547743804E-07    3.0117457056E-07
    2.9693226373E-07    2.9274966609E-07    2.8862593814E-07    2.8456025216E-07
    2.8055179205E-07    2.7659975317E-07    2.7270334219E-07    2.6886177691E-07
    2.6507428610E-07    2.6134010939E-07    2.5765849707E-07    2.5402870995E-07
    2.5045001923E-07    2.4692170637E-07    2.4344306287E-07    2.4001339023E-07
    2.3663199972E-07    2.3329821233E-07    2.3001135853E-07    2.2677077824E-07
    2.2357582064E-07    2.2042584404E-07    2.1732021577E-07    2.1425831205E-07
    2.1123951787E-07    2.0826322685E-07    2.0532884113E-07    2.0243577123E-07
    1.9958343600E-07    1.9677126241E-07    1.9399868550E-07    1.9126514825E-07
    1.8857010145E-07    1.8591300363E-07    1.8329332090E-07    1.8071052690E-07
    1.7816410265E-07    1.7565353647E-07    1.7317832386E-07    1.7073796743E-07
    1.6833197675E-07    1.6595986830E-07    1.6362116537E-07    1.6131539791E-07
    1.5904210252E-07    1.5680082227E-07    1.5459110670E-07    1.5241251163E-07
    1.5026459917E-07    1.4814693755E-07    1.4605910108E-07    1.4400067006E-07
    1.4197123069E-07    1.3997037498E-07    1.3799770067E-07    1.3605281116E-07
    1.3413531544E-07    1.3224482798E-07    1.3038096866E-07    1.2854336273E-07
    1.2673164070E-07    1.2494543826E-07    1.2318439623E-07    1.2144816050E-07
    1.1973638191E-07    1.1804871622E-07    1.1638482403E-07    1.1474437072E-07
    1.1312702636E-07    1.1153246567E-07    1.0996036795E-07    1.0841041699E-07
    1.0688230105E-07    1.0537571275E-07    1.0389034904E-07    1.0242591115E-07
    1.0098210448E-07    9.9558638614E-08    9.8155227180E-08    9.6771587855E-08
    9.5407442283E-08    9.4062516020E-08    9.2736538484E-08    9.1429242899E-08
    9.0140366243E-08    8.8869649190E-08    8.7616836065E-08    8.6381674786E-08
    8.5163916820E-08    8.3963317127E-08    8.2779634114E-08    8.1612629590E-08
    8.0462068712E-08    7.9327719942E-08    7.8209354998E-08    7.7106748811E-08
    7.6019679476E-08    7.4947928212E-08    7.3891279313E-08    7.2849520111E-08
    7.1822440930E-08    7.0809835043E-08    6.9811498631E-08    6.8827230745E-08
    6.7856833259E-08    6.6900110840E-08    6.5956870898E-08    6.5026923558E-08
    6.4110081613E-08    6.3206160494E-08    6.2314978225E-08    6.1436355395E-08
    6.0570115114E-08    5.9716082983E-08    5.8874087056E-08    5.8043957807E-08
    5.7225528097E-08    5.6418633140E-08    5.5623110467E-08    5.4838799896E-08
    5.4065543499E-08    5.3303185573E-08    5.2551572602E-08    5.1810553233E-08
    5.1079978245E-08    5.0359700516E-08    4.9649574994E-08    4.8949458669E-08
    4.8259210545E-08    4.7578691609E-08    4.6907764806E-08    4.6246295008E-08
    4.5594148991E-08    4.4951195407E-08    4.4317304757E-08    4.3692349362E-08
    4.3076203345E-08    4.2468742596E-08    4.1869844755E-08    4.1279389185E-08
    4.0697256945E-08    4.0123330770E-08    3.9557495047E-08    3.8999635789E-08
    3.8449640614E-08    3.7907398723E-08    3.7372800877E-08    3.6845739373E-08
    3.6326108025E-08    3.5813802145E-08    3.5308718516E-08    3.4810755375E-08
    3.4319812394E-08    3.3835790653E-08    3.3358592630E-08    3.2888122172E-08
    3.2424284483E-08    3.1966986098E-08    3.1516134873E-08    3.1071639959E-08
    3.0633411787E-08    3.0201362048E-08    2.9775403678E-08    2.9355450838E-08
    2.8941418899E-08    2.8533224421E-08    2.8130785143E-08    2.7734019961E-08
    2.7342848911E-08    2.6957193160E-08    2.6576974980E-08    2.6202117740E-08
    2.5832545890E-08    2.5468184941E-08    2.5108961453E-08    2.4754803024E-08
    2.4405638269E-08    2.4061396808E-08    2.3722009255E-08    2.3387407199E-08
    2.3057523192E-08    2.2732290739E-08    2.2411644278E-08    2.2095519172E-08
    2.1783851697E-08    2.1476579023E-08    2.1173639206E-08    2.0874971177E-08
    2.0580514723E-08    2.0290210483E-08    2.0003999930E-08    1.9721825361E-08
    1.9443629888E-08    1.9169357424E-08    1.8898952671E-08    1.8632361111E-08
    1.8369528993E-08    1.8110403324E-08    1.7854931857E-08    1.7603063082E-08
    1.7354746213E-08    1.7109931182E-08    1.6868568625E-08    1.6630609873E-08
    1.6396006944E-08    1.6164712530E-08    1.5936679992E-08    1.5711863346E-08
    1.5490217257E-08    1.5271697028E-08    1.5056258594E-08    1.4843858507E-08
    1.4634453936E-08    1.4428002649E-08    1.4224463011E-08    1.4023793975E-08
    1.3825955070E-08    1.3630906396E-08    1.3438608616E-08    1.3249022946E-08
    1.3062111151E-08    1.2877835532E-08    1.2696158923E-08    1.2517044680E-08
    1.2340456677E-08    1.2166359298E-08    1.1994717425E-08    1.1825496438E-08
    1.1658662205E-08    1.1494181074E-08    1.1332019867E-08    1.1172145875E-08
    1.1014526848E-08    1.0859130993E-08    1.0705926962E-08    1.0554883850E-08
    1.0405971189E-08    1.0259158940E-08    1.0114417485E-08    9.9717176260E-09
    9.8310305758E-09    9.6923279525E-09    9.5555817746E-09    9.4207644547E-09
    9.2878487942E-09    9.1568079779E-09    9.0276155691E-09    8.9002455033E-09
    8.7746720833E-09    8.6508699742E-09    8.5288141981E-09    8.4084801294E-09
    8.2898434893E-09    8.1728803412E-09    8.0575670860E-09    7.9438804576E-09
    7.8317975175E-09    7.7212956507E-09    7.6123525610E-09    7.5049462661E-09
    7.3990550941E-09    7.2946576783E-09    7.1917329529E-09    7.0902601494E-09
    6.9902187923E-09    6.8915886946E-09    6.7943499537E-09    6.6984829477E-09
    6.6039683312E-09    6.5107870317E-09    6.4189202453E-09    6.3283494333E-09
    6.2390563181E-09    6.1510228805E-09    6.0642313548E-09    5.9786642258E-09
    5.8943042255E-09    5.8111343289E-09    5.7291377514E-09    5.6482979448E-09
    5.5685985942E-09    5.4900236146E-09    5.4125571482E-09    5.3361835607E-09
    5.2608874379E-09    5.1866535833E-09    5.1134670144E-09    5.0413129599E-09
    4.9701768570E-09    4.9000443479E-09    4.8309012774E-09    4.7627336898E-09
    4.6955278266E-09    4.6292701228E-09    4.5639472050E-09    4.4995458880E-09
    4.4360531729E-09    4.3734562439E-09    4.3117424657E-09    4.2508993813E-09
    4.1909147094E-09    4.1317763420E-09    4.0734723417E-09    4.0159909395E-09
    3.9593205323E-09    3.9034496806E-09    3.8483671062E-09    3.7940616898E-09
    3.7405224692E-09    3.6877386362E-09    3.6356995358E-09    3.5843946628E-09
    3.5338136603E-09    3.4839463173E-09    3.4347825669E-09    3.3863124841E-09
    3.3385262839E-09    3.2914143191E-09    3.2449670787E-09    3.1991751859E-09
    3.1540293960E-09    3.1095205948E-09    3.0656397967E-09    3.0223781426E-09
    2.9797268983E-09    2.9376774531E-09    2.8962213174E-09    2.8553501215E-09
    2.8150556134E-09    2.7753296579E-09    2.7361642346E-09    2.6975514360E-09
    2.6594834659E-09    2.6219526386E-09    2.5849513762E-09    2.5484722081E-09
    2.5125077689E-09    2.4770507969E-09    2.4420941330E-09    2.4076307192E-09
    2.3736535970E-09    2.3401559058E-09    2.3071308821E-09    2.2745718575E-09
    2.2424722577E-09    2.2108256014E-09    2.1796254983E-09    2.1488656483E-09
    2.1185398404E-09    2.0886419512E-09    2.0591659436E-09    2.0301058654E-09
    2.0014558488E-09    1.9732101084E-09    1.9453629406E-09    1.9179087221E-09
    1.8908419090E-09    1.8641570354E-09    1.8378487130E-09    1.8119116289E-09
    1.7863405457E-09    1.7611302996E-09    1.7362757994E-09    1.7117720262E-09
    1.6876140315E-09    1.6637969368E-09    1.6403159323E-09    1.6171662760E-09
    1.5943432931E-09    1.5718423744E-09    1.5496589760E-09    1.5277886179E-09
    1.5062268834E-09    1.4849694179E-09    1.4640119285E-09    1.4433501827E-09
    1.4229800076E-09    1.4028972894E-09    1.3830979721E-09    1.3635780573E-09
    1.3443336026E-09    1.3253607214E-09    1.3066555820E-09    1.2882144064E-09
    1.2700334703E-09    1.2521091017E-09    1.2344376805E-09    1.2170156375E-09
    1.1998394542E-09    1.1829056614E-09    1.1662108391E-09    1.1497516153E-09
    1.1335246658E-09    1.1175267131E-09    1.1017545260E-09    1.0862049190E-09
    1.0708747512E-09    1.0557609264E-09    1.0408603920E-09    1.0261701383E-09
    1.0116871981E-09    9.9740864633E-10    9.8333159882E-10    9.6945321226E-10
    9.5577068344E-10    9.4228124868E-10    9.2898218321E-10    9.1587080086E-10
    9.0294445330E-10    8.9020052957E-10    8.7763645552E-10    8.6524969332E-10
    8.5303774095E-10    8.4099813169E-10    8.2912843361E-10    8.1742624910E-10
    8.0588921428E-10    7.9451499879E-10    7.8330130509E-10    7.7224586804E-10
    7.6134645446E-10    7.5060086268E-10    7.4000692209E-10    7.2956249269E-10
    7.1926546469E-10    7.0911375806E-10    6.9910532205E-10    6.8923813495E-10
    6.7951020357E-10    6.6991956281E-10    6.6046427530E-10    6.5114243099E-10
    6.4195214681E-10    6.3289156622E-10    6.2395885890E-10    6.1515222034E-10
    6.0646987146E-10    5.9791005833E-10    5.8947105178E-10    5.8115114702E-10
    5.7294866333E-10    5.6486194366E-10    5.5688935439E-10    5.4902928490E-10
    5.4128014733E-10    5.3364037622E-10    5.2610842815E-10    5.1868278150E-10
    5.1136193619E-10    5.0414441327E-10    4.9702875462E-10    4.9001352274E-10
    4.8309730039E-10    4.7627869033E-10    4.6955631502E-10    4.6292881639E-10
    4.5639485549E-10    4.4995311225E-10    4.4360228530E-10    4.3734109162E-10
    4.3116826626E-10    4.2508256214E-10    4.1908274977E-10    4.1316761700E-10
    4.0733596879E-10    4.0158662696E-10    3.9591842997E-10    3.9033023260E-10
    3.8482090587E-10    3.7938933674E-10    3.7403442784E-10    3.6875509729E-10
    3.6355027848E-10    3.5841891984E-10    3.5335998466E-10    3.4837245083E-10
    3.4345531068E-10    3.3860757075E-10    3.3382825156E-10    3.2911638755E-10
    3.2447102674E-10    3.1989123057E-10    3.1537607373E-10    3.1092464396E-10
    3.0653604190E-10    3.0220938086E-10    2.9794378664E-10    2.9373839743E-10
    2.8959236349E-10    2.8550484717E-10    2.8147502262E-10    2.7750207562E-10
    2.7358520345E-10    2.6972361473E-10    2.6591652921E-10    2.6216317769E-10
    2.5846280181E-10    2.5481465390E-10
   </PP_CHI.2>
   <PP_CHI.3
       type="real"
       size="1766"
       columns="4"
       index="3"
       occupation=" 2.000"
       pseudo_energy="   -0.2123821278E+01"
       label="4P"
       l="1" >
    2.1102043724E-13    1.6147544137E-04    6.4577449814E-04    1.4525154852E-03
    2.5810626538E-03    4.0305267822E-03    5.7997660004E-03    7.8873868512E-03
    1.0291745585E-02    1.3010949685E-02    1.6042859633E-02    1.9385090892E-02
    2.3035016135E-02    2.6989767686E-02    3.1246240197E-02    3.5801093547E-02
    4.0650755961E-02    4.5791427346E-02    5.1219082852E-02    5.6929476636E-02
    6.2918145845E-02    6.9180414803E-02    7.5711399403E-02    8.2506011693E-02
    8.9558964669E-02    9.6864777250E-02    1.0441777944E-01    1.1221211769E-01
    1.2024176040E-01    1.2850050363E-01    1.3698197696E-01    1.4567964950E-01
    1.5458683610E-01    1.6369670364E-01    1.7300227749E-01    1.8249644816E-01
    1.9217197796E-01    2.0202150790E-01    2.1203756464E-01    2.2221256752E-01
    2.3253883575E-01    2.4300859567E-01    2.5361398805E-01    2.6434707551E-01
    2.7519984997E-01    2.8616424021E-01    2.9723211938E-01    3.0839531264E-01
    3.1964560479E-01    3.3097474790E-01    3.4237446898E-01    3.5383647767E-01
    3.6535247383E-01    3.7691415525E-01    3.8851322519E-01    4.0014140001E-01
    4.1179041666E-01    4.2345204019E-01    4.3511807114E-01    4.4678035290E-01
    4.5843077898E-01    4.7006130016E-01    4.8166393162E-01    4.9323075988E-01
    5.0475394969E-01    5.1622575079E-01    5.2763850451E-01    5.3898465028E-01
    5.5025673198E-01    5.6144740413E-01    5.7254943798E-01    5.8355572734E-01
    5.9445929439E-01    6.0525329514E-01    6.1593102490E-01    6.2648592341E-01
    6.3691157989E-01    6.4720173783E-01    6.5735029965E-01    6.6735133108E-01
    6.7719906542E-01    6.8688790752E-01    6.9641243761E-01    7.0576741487E-01
    7.1494778078E-01    7.2394866234E-01    7.3276537490E-01    7.4139342496E-01
    7.4982851261E-01    7.5806653375E-01    7.6610358217E-01    7.7393595133E-01
    7.8156013590E-01    7.8897283310E-01    7.9617094382E-01    8.0315157347E-01
    8.0991203262E-01    8.1644983740E-01    8.2276270970E-01    8.2884857706E-01
    8.3470557246E-01    8.4033203372E-01    8.4572650285E-01    8.5088772500E-01
    8.5581464735E-01    8.6050641765E-01    8.6496238262E-01    8.6918208613E-01
    8.7316526711E-01    8.7691185734E-01    8.8042197895E-01    8.8369594180E-01
    8.8673424062E-01    8.8953755193E-01    8.9210673089E-01    8.9444280780E-01
    8.9654698461E-01    8.9842063108E-01    9.0006528097E-01    9.0148262789E-01
    9.0267452115E-01    9.0364296133E-01    9.0439009590E-01    9.0491821450E-01
    9.0522974429E-01    9.0532724504E-01    9.0521340425E-01    9.0489103207E-01
    9.0436305621E-01    9.0363251673E-01    9.0270256078E-01    9.0157643729E-01
    9.0025749160E-01    8.9874916008E-01    8.9705496466E-01    8.9517850744E-01
    8.9312346516E-01    8.9089358380E-01    8.8849267313E-01    8.8592460125E-01
    8.8319328922E-01    8.8030270567E-01    8.7725686153E-01    8.7405980473E-01
    8.7071561501E-01    8.6722839884E-01    8.6360228431E-01    8.5984141622E-01
    8.5594995122E-01    8.5193205304E-01    8.4779188784E-01    8.4353361968E-01
    8.3916140612E-01    8.3467939393E-01    8.3009171494E-01    8.2540248198E-01
    8.2061578509E-01    8.1573568770E-01    8.1076622309E-01    8.0571139093E-01
    8.0057515400E-01    7.9536143509E-01    7.9007411393E-01    7.8471702446E-01
    7.7929395210E-01    7.7380863126E-01    7.6826474293E-01    7.6266591254E-01
    7.5701570783E-01    7.5131763695E-01    7.4557514671E-01    7.3979162093E-01
    7.3397037896E-01    7.2811467433E-01    7.2222769348E-01    7.1631255475E-01
    7.1037230732E-01    7.0440993039E-01    6.9842833243E-01    6.9243035053E-01
    6.8641874990E-01    6.8039622337E-01    6.7436539107E-01    6.6832880017E-01
    6.6228892468E-01    6.5624816531E-01    6.5020884947E-01    6.4417323125E-01
    6.3814349147E-01    6.3212173783E-01    6.2611000506E-01    6.2011025510E-01
    6.1412437734E-01    6.0815418888E-01    6.0220143480E-01    5.9626778847E-01
    5.9035485183E-01    5.8446415573E-01    5.7859716027E-01    5.7275525506E-01
    5.6693975959E-01    5.6115192348E-01    5.5539292683E-01    5.4966388036E-01
    5.4396582567E-01    5.3829973556E-01    5.3266651428E-01    5.2706699783E-01
    5.2150195405E-01    5.1597208297E-01    5.1047801675E-01    5.0502031986E-01
    4.9959949161E-01    4.9421597678E-01    4.8887018632E-01    4.8356250549E-01
    4.7829329093E-01    4.7306287305E-01    4.6787155673E-01    4.6271962224E-01
    4.5760732597E-01    4.5253490135E-01    4.4750255959E-01    4.4251049045E-01
    4.3755886302E-01    4.3264782642E-01    4.2777751050E-01    4.2294802657E-01
    4.1815946800E-01    4.1341191093E-01    4.0870541484E-01    4.0404002319E-01
    3.9941576400E-01    3.9483265040E-01    3.9029068119E-01    3.8578984138E-01
    3.8133010270E-01    3.7691142408E-01    3.7253375215E-01    3.6819702171E-01
    3.6390115615E-01    3.5964606792E-01    3.5543165890E-01    3.5125782088E-01
    3.4712443589E-01    3.4303137659E-01    3.3897850667E-01    3.3496568116E-01
    3.3099274682E-01    3.2705954243E-01    3.2316589916E-01    3.1931164083E-01
    3.1549658427E-01    3.1172053956E-01    3.0798331037E-01    3.0428469421E-01
    3.0062448269E-01    2.9700246184E-01    2.9341841229E-01    2.8987210959E-01
    2.8636332443E-01    2.8289182288E-01    2.7945736663E-01    2.7605971322E-01
    2.7269861627E-01    2.6937382569E-01    2.6608508791E-01    2.6283214609E-01
    2.5961474034E-01    2.5643260790E-01    2.5328548336E-01    2.5017309884E-01
    2.4709518421E-01    2.4405146725E-01    2.4104167387E-01    2.3806552823E-01
    2.3512275300E-01    2.3221306945E-01    2.2933619769E-01    2.2649185676E-01
    2.2367976488E-01    2.2089963951E-01    2.1815119756E-01    2.1543415552E-01
    2.1274822961E-01    2.1009313589E-01    2.0746859041E-01    2.0487430936E-01
    2.0231000912E-01    1.9977540646E-01    1.9727021860E-01    1.9479416332E-01
    1.9234695908E-01    1.8992832512E-01    1.8753798152E-01    1.8517564932E-01
    1.8284105058E-01    1.8053390849E-01    1.7825394739E-01    1.7600089291E-01
    1.7377447197E-01    1.7157441288E-01    1.6940044538E-01    1.6725230070E-01
    1.6512971162E-01    1.6303241250E-01    1.6096013932E-01    1.5891262973E-01
    1.5688962310E-01    1.5489086053E-01    1.5291608487E-01    1.5096504080E-01
    1.4903747480E-01    1.4713313520E-01    1.4525177220E-01    1.4339313787E-01
    1.4155698621E-01    1.3974307312E-01    1.3795115641E-01    1.3618099587E-01
    1.3443235321E-01    1.3270499209E-01    1.3099867817E-01    1.2931317906E-01
    1.2764826433E-01    1.2600370554E-01    1.2437927623E-01    1.2277475191E-01
    1.2118991008E-01    1.1962453021E-01    1.1807839374E-01    1.1655128410E-01
    1.1504298666E-01    1.1355328879E-01    1.1208197981E-01    1.1062885096E-01
    1.0919369549E-01    1.0777630854E-01    1.0637648722E-01    1.0499403055E-01
    1.0362873947E-01    1.0228041685E-01    1.0094886745E-01    9.9633897935E-02
    9.8335316842E-02    9.7052934597E-02    9.5786563491E-02    9.4536017670E-02
    9.3301113129E-02    9.2081667700E-02    9.0877501039E-02    8.9688434618E-02
    8.8514291715E-02    8.7354897399E-02    8.6210078522E-02    8.5079663705E-02
    8.3963483330E-02    8.2861369524E-02    8.1773156151E-02    8.0698678797E-02
    7.9637774759E-02    7.8590283036E-02    7.7556044310E-02    7.6534900941E-02
    7.5526696951E-02    7.4531278010E-02    7.3548491429E-02    7.2578186142E-02
    7.1620212695E-02    7.0674423237E-02    6.9740671503E-02    6.8818812802E-02
    6.7908704007E-02    6.7010203540E-02    6.6123171360E-02    6.5247468950E-02
    6.4382959307E-02    6.3529506923E-02    6.2686977781E-02    6.1855239334E-02
    6.1034160498E-02    6.0223611638E-02    5.9423464553E-02    5.8633592466E-02
    5.7853870011E-02    5.7084173221E-02    5.6324379513E-02    5.5574367678E-02
    5.4834017867E-02    5.4103211580E-02    5.3381831652E-02    5.2669762244E-02
    5.1966888825E-02    5.1273098165E-02    5.0588278320E-02    4.9912318621E-02
    4.9245109660E-02    4.8586543283E-02    4.7936512571E-02    4.7294911833E-02
    4.6661636591E-02    4.6036583573E-02    4.5419650696E-02    4.4810737055E-02
    4.4209742914E-02    4.3616569694E-02    4.3031119959E-02    4.2453297406E-02
    4.1883006855E-02    4.1320154234E-02    4.0764646573E-02    4.0216391988E-02
    3.9675299671E-02    3.9141279882E-02    3.8614243934E-02    3.8094104184E-02
    3.7580774022E-02    3.7074167861E-02    3.6574201125E-02    3.6080790238E-02
    3.5593852616E-02    3.5113306654E-02    3.4639071716E-02    3.4171068127E-02
    3.3709217160E-02    3.3253441025E-02    3.2803662865E-02    3.2359806738E-02
    3.1921797612E-02    3.1489561356E-02    3.1063024725E-02    3.0642115356E-02
    3.0226761755E-02    2.9816893290E-02    2.9412440177E-02    2.9013333477E-02
    2.8619505081E-02    2.8230887705E-02    2.7847414878E-02    2.7469020935E-02
    2.7095641006E-02    2.6727211009E-02    2.6363667640E-02    2.6004948365E-02
    2.5650991412E-02    2.5301735759E-02    2.4957121131E-02    2.4617087987E-02
    2.4281577513E-02    2.3950531615E-02    2.3623892909E-02    2.3301604715E-02
    2.2983611046E-02    2.2669856605E-02    2.2360286770E-02    2.2054847594E-02
    2.1753485790E-02    2.1456148729E-02    2.1162784431E-02    2.0873341555E-02
    2.0587769394E-02    2.0306017869E-02    2.0028037517E-02    1.9753779488E-02
    1.9483195537E-02    1.9216238016E-02    1.8952859869E-02    1.8693014621E-02
    1.8436656377E-02    1.8183739810E-02    1.7934220157E-02    1.7688053213E-02
    1.7445195322E-02    1.7205603373E-02    1.6969234791E-02    1.6736047533E-02
    1.6506000083E-02    1.6279051440E-02    1.6055161119E-02    1.5834289139E-02
    1.5616396021E-02    1.5401442781E-02    1.5189390923E-02    1.4980202434E-02
    1.4773839778E-02    1.4570265891E-02    1.4369444177E-02    1.4171338496E-02
    1.3975913167E-02    1.3783132957E-02    1.3592963077E-02    1.3405369178E-02
    1.3220317342E-02    1.3037774083E-02    1.2857706335E-02    1.2680081454E-02
    1.2504867205E-02    1.2332031764E-02    1.2161543711E-02    1.1993372022E-02
    1.1827486068E-02    1.1663855610E-02    1.1502450792E-02    1.1343242138E-02
    1.1186200548E-02    1.1031297291E-02    1.0878504003E-02    1.0727792683E-02
    1.0579135684E-02    1.0432505716E-02    1.0287875835E-02    1.0145219442E-02
    1.0004510280E-02    9.8657224249E-03    9.7288302880E-03    9.5938086070E-03
    9.4606324441E-03    9.3292771817E-03    9.1997185182E-03    9.0719324647E-03
    8.9458953408E-03    8.8215837708E-03    8.6989746803E-03    8.5780452922E-03
    8.4587731232E-03    8.3411359803E-03    8.2251119570E-03    8.1106794299E-03
    7.9978170555E-03    7.8865037662E-03    7.7767187674E-03    7.6684415340E-03
    7.5616518069E-03    7.4563295902E-03    7.3524551472E-03    7.2500089980E-03
    7.1489719157E-03    7.0493249239E-03    6.9510492928E-03    6.8541265370E-03
    6.7585384118E-03    6.6642669107E-03    6.5712942620E-03    6.4796029264E-03
    6.3891755937E-03    6.2999951800E-03    6.2120448251E-03    6.1253078897E-03
    6.0397679522E-03    5.9554088066E-03    5.8722144594E-03    5.7901691273E-03
    5.7092572340E-03    5.6294634082E-03    5.5507724808E-03    5.4731694823E-03
    5.3966396402E-03    5.3211683770E-03    5.2467413072E-03    5.1733442352E-03
    5.1009631527E-03    5.0295842368E-03    4.9591938469E-03    4.8897785232E-03
    4.8213249838E-03    4.7538201228E-03    4.6872510081E-03    4.6216048787E-03
    4.5568691433E-03    4.4930313776E-03    4.4300793222E-03    4.3680008809E-03
    4.3067841183E-03    4.2464172575E-03    4.1868886788E-03    4.1281869172E-03
    4.0703006604E-03    4.0132187469E-03    3.9569301645E-03    3.9014240477E-03
    3.8466896763E-03    3.7927164733E-03    3.7394940033E-03    3.6870119705E-03
    3.6352602168E-03    3.5842287204E-03    3.5339075936E-03    3.4842870816E-03
    3.4353575601E-03    3.3871095344E-03    3.3395336371E-03    3.2926206266E-03
    3.2463613858E-03    3.2007469202E-03    3.1557683561E-03    3.1114169397E-03
    3.0676840348E-03    3.0245611218E-03    2.9820397959E-03    2.9401117658E-03
    2.8987688522E-03    2.8580029859E-03    2.8178062072E-03    2.7781706637E-03
    2.7390886094E-03    2.7005524029E-03    2.6625545065E-03    2.6250874845E-03
    2.5881440018E-03    2.5517168229E-03    2.5157988104E-03    2.4803829239E-03
    2.4454622182E-03    2.4110298429E-03    2.3770790402E-03    2.3436031446E-03
    2.3105955808E-03    2.2780498634E-03    2.2459595948E-03    2.2143184650E-03
    2.1831202496E-03    2.1523588091E-03    2.1220280878E-03    2.0921221124E-03
    2.0626349913E-03    2.0335609132E-03    2.0048941462E-03    1.9766290366E-03
    1.9487600081E-03    1.9212815605E-03    1.8941882689E-03    1.8674747826E-03
    1.8411358240E-03    1.8151661881E-03    1.7895607407E-03    1.7643144182E-03
    1.7394222266E-03    1.7148792400E-03    1.6906806002E-03    1.6668215157E-03
    1.6432972608E-03    1.6201031745E-03    1.5972346599E-03    1.5746871834E-03
    1.5524562735E-03    1.5305375202E-03    1.5089265742E-03    1.4876191461E-03
    1.4666110054E-03    1.4458979798E-03    1.4254759546E-03    1.4053408717E-03
    1.3854887289E-03    1.3659155792E-03    1.3466175298E-03    1.3275907419E-03
    1.3088314295E-03    1.2903358588E-03    1.2721003476E-03    1.2541212645E-03
    1.2363950282E-03    1.2189181070E-03    1.2016870179E-03    1.1846983260E-03
    1.1679486441E-03    1.1514346315E-03    1.1351529939E-03    1.1191004827E-03
    1.1032738941E-03    1.0876700685E-03    1.0722858904E-03    1.0571182872E-03
    1.0421642289E-03    1.0274207275E-03    1.0128848364E-03    9.9855364995E-04
    9.8442430265E-04    9.7049396881E-04    9.5675986191E-04    9.4321923410E-04
    9.2986937568E-04    9.1670761456E-04    9.0373131573E-04    8.9093788079E-04
    8.7832474743E-04    8.6588938894E-04    8.5362931372E-04    8.4154206480E-04
    8.2962521936E-04    8.1787638827E-04    8.0629321564E-04    7.9487337833E-04
    7.8361458555E-04    7.7251457834E-04    7.6157112923E-04    7.5078204173E-04
    7.4014514994E-04    7.2965831812E-04    7.1931944027E-04    7.0912643975E-04
    6.9907726883E-04    6.8916990832E-04    6.7940236719E-04    6.6977268216E-04
    6.6027891730E-04    6.5091916372E-04    6.4169153911E-04    6.3259418745E-04
    6.2362527859E-04    6.1478300795E-04    6.0606559610E-04    5.9747128847E-04
    5.8899835498E-04    5.8064508970E-04    5.7240981054E-04    5.6429085888E-04
    5.5628659929E-04    5.4839541917E-04    5.4061572848E-04    5.3294595936E-04
    5.2538456591E-04    5.1793002381E-04    5.1058083005E-04    5.0333550265E-04
    4.9619258034E-04    4.8915062232E-04    4.8220820790E-04    4.7536393629E-04
    4.6861642630E-04    4.6196431606E-04    4.5540626276E-04    4.4894094239E-04
    4.4256704947E-04    4.3628329681E-04    4.3008841521E-04    4.2398115329E-04
    4.1796027716E-04    4.1202457023E-04    4.0617283293E-04    4.0040388253E-04
    3.9471655285E-04    3.8910969406E-04    3.8358217243E-04    3.7813287014E-04
    3.7276068502E-04    3.6746453038E-04    3.6224333473E-04    3.5709604163E-04
    3.5202160945E-04    3.4701901115E-04    3.4208723413E-04    3.3722527996E-04
    3.3243216424E-04    3.2770691637E-04    3.2304857938E-04    3.1845620971E-04
    3.1392887705E-04    3.0946566417E-04    3.0506566668E-04    3.0072799291E-04
    2.9645176370E-04    2.9223611223E-04    2.8808018385E-04    2.8398313594E-04
    2.7994413766E-04    2.7596236990E-04    2.7203702502E-04    2.6816730672E-04
    2.6435242991E-04    2.6059162052E-04    2.5688411535E-04    2.5322916195E-04
    2.4962601841E-04    2.4607395327E-04    2.4257224535E-04    2.3912018359E-04
    2.3571706696E-04    2.3236220425E-04    2.2905491398E-04    2.2579452427E-04
    2.2258037266E-04    2.1941180603E-04    2.1628818044E-04    2.1320886099E-04
    2.1017322174E-04    2.0718064553E-04    2.0423052389E-04    2.0132225693E-04
    1.9845525317E-04    1.9562892947E-04    1.9284271089E-04    1.9009603059E-04
    1.8738832970E-04    1.8471905723E-04    1.8208766992E-04    1.7949363219E-04
    1.7693641596E-04    1.7441550063E-04    1.7193037289E-04    1.6948052669E-04
    1.6706546309E-04    1.6468469018E-04    1.6233772297E-04    1.6002408331E-04
    1.5774329978E-04    1.5549490762E-04    1.5327844858E-04    1.5109347091E-04
    1.4893952918E-04    1.4681618428E-04    1.4472300324E-04    1.4265955925E-04
    1.4062543145E-04    1.3862020497E-04    1.3664347074E-04    1.3469482550E-04
    1.3277387163E-04    1.3088021716E-04    1.2901347560E-04    1.2717326595E-04
    1.2535921257E-04    1.2357094509E-04    1.2180809840E-04    1.2007031252E-04
    1.1835723255E-04    1.1666850860E-04    1.1500379571E-04    1.1336275378E-04
    1.1174504752E-04    1.1015034637E-04    1.0857832443E-04    1.0702866038E-04
    1.0550103747E-04    1.0399514339E-04    1.0251067026E-04    1.0104731452E-04
    9.9604776909E-05    9.8182762392E-05    9.6780980095E-05    9.5399143247E-05
    9.4036969130E-05    9.2694179014E-05    9.1370498105E-05    9.0065655490E-05
    8.8779384080E-05    8.7511420560E-05    8.6261505329E-05    8.5029382458E-05
    8.3814799627E-05    8.2617508083E-05    8.1437262587E-05    8.0273821362E-05
    7.9126946049E-05    7.7996401655E-05    7.6881956507E-05    7.5783382206E-05
    7.4700453579E-05    7.3632948638E-05    7.2580648528E-05    7.1543337489E-05
    7.0520802812E-05    6.9512834791E-05    6.8519226688E-05    6.7539774684E-05
    6.6574277842E-05    6.5622538069E-05    6.4684360068E-05    6.3759551307E-05
    6.2847921975E-05    6.1949284943E-05    6.1063455733E-05    6.0190252472E-05
    5.9329495860E-05    5.8481009135E-05    5.7644618033E-05    5.6820150757E-05
    5.6007437939E-05    5.5206312606E-05    5.4416610151E-05    5.3638168294E-05
    5.2870827049E-05    5.2114428698E-05    5.1368817753E-05    5.0633840925E-05
    4.9909347098E-05    4.9195187293E-05    4.8491214639E-05    4.7797284344E-05
    4.7113253669E-05    4.6438981892E-05    4.5774330286E-05    4.5119162086E-05
    4.4473342465E-05    4.3836738505E-05    4.3209219171E-05    4.2590655282E-05
    4.1980919489E-05    4.1379886244E-05    4.0787431781E-05    4.0203434083E-05
    3.9627772865E-05    3.9060329545E-05    3.8500987221E-05    3.7949630646E-05
    3.7406146210E-05    3.6870421908E-05    3.6342347326E-05    3.5821813613E-05
    3.5308713462E-05    3.4802941086E-05    3.4304392198E-05    3.3812963990E-05
    3.3328555110E-05    3.2851065643E-05    3.2380397093E-05    3.1916452359E-05
    3.1459135715E-05    3.1008352796E-05    3.0564010573E-05    3.0126017338E-05
    2.9694282682E-05    2.9268717480E-05    2.8849233869E-05    2.8435745236E-05
    2.8028166193E-05    2.7626412566E-05    2.7230401375E-05    2.6840050817E-05
    2.6455280248E-05    2.6076010173E-05    2.5702162220E-05    2.5333659133E-05
    2.4970424752E-05    2.4612383996E-05    2.4259462853E-05    2.3911588358E-05
    2.3568688585E-05    2.3230692628E-05    2.2897530588E-05    2.2569133557E-05
    2.2245433609E-05    2.1926363780E-05    2.1611858058E-05    2.1301851367E-05
    2.0996279557E-05    2.0695079389E-05    2.0398188523E-05    2.0105545504E-05
    1.9817089748E-05    1.9532761536E-05    1.9252501993E-05    1.8976253086E-05
    1.8703957601E-05    1.8435559141E-05    1.8171002109E-05    1.7910231699E-05
    1.7653193883E-05    1.7399835402E-05    1.7150103754E-05    1.6903947182E-05
    1.6661314667E-05    1.6422155915E-05    1.6186421345E-05    1.5954062084E-05
    1.5725029952E-05    1.5499277455E-05    1.5276757774E-05    1.5057424757E-05
    1.4841232908E-05    1.4628137377E-05    1.4418093954E-05    1.4211059057E-05
    1.4006989723E-05    1.3805843603E-05    1.3607578948E-05    1.3412154604E-05
    1.3219530004E-05    1.3029665156E-05    1.2842520638E-05    1.2658057591E-05
    1.2476237707E-05    1.2297023224E-05    1.2120376917E-05    1.1946262092E-05
    1.1774642577E-05    1.1605482714E-05    1.1438747356E-05    1.1274401852E-05
    1.1112412049E-05    1.0952744276E-05    1.0795365345E-05    1.0640242539E-05
    1.0487343608E-05    1.0336636760E-05    1.0188090658E-05    1.0041674410E-05
    9.8973575638E-06    9.7551101022E-06    9.6149024352E-06    9.4767053945E-06
    9.3404902277E-06    9.2062285919E-06    9.0738925483E-06    8.9434545562E-06
    8.8148874677E-06    8.6881645218E-06    8.5632593389E-06    8.4401459156E-06
    8.3187986192E-06    8.1991921825E-06    8.0813016987E-06    7.9651026160E-06
    7.8505707327E-06    7.7376821925E-06    7.6264134792E-06    7.5167414119E-06
    7.4086431406E-06    7.3020961411E-06    7.1970782105E-06    7.0935674627E-06
    6.9915423239E-06    6.8909815281E-06    6.7918641128E-06    6.6941694143E-06
    6.5978770643E-06    6.5029669847E-06    6.4094193843E-06    6.3172147541E-06
    6.2263338638E-06    6.1367577575E-06    6.0484677498E-06    5.9614454222E-06
    5.8756726192E-06    5.7911314442E-06    5.7078042565E-06    5.6256736670E-06
    5.5447225352E-06    5.4649339652E-06    5.3862913023E-06    5.3087781298E-06
    5.2323782655E-06    5.1570757583E-06    5.0828548849E-06    5.0097001467E-06
    4.9375962664E-06    4.8665281851E-06    4.7964810588E-06    4.7274402559E-06
    4.6593913538E-06    4.5923201357E-06    4.5262125884E-06    4.4610548986E-06
    4.3968334507E-06    4.3335348234E-06    4.2711457875E-06    4.2096533029E-06
    4.1490445156E-06    4.0893067556E-06    4.0304275341E-06    3.9723945406E-06
    3.9151956409E-06    3.8588188741E-06    3.8032524503E-06    3.7484847483E-06
    3.6945043131E-06    3.6412998535E-06    3.5888602398E-06    3.5371745014E-06
    3.4862318246E-06    3.4360215506E-06    3.3865331728E-06    3.3377563351E-06
    3.2896808295E-06    3.2422965940E-06    3.1955937106E-06    3.1495624031E-06
    3.1041930355E-06    3.0594761093E-06    3.0154022621E-06    2.9719622657E-06
    2.9291470235E-06    2.8869475696E-06    2.8453550660E-06    2.8043608015E-06
    2.7639561894E-06    2.7241327662E-06    2.6848821892E-06    2.6461962353E-06
    2.6080667993E-06    2.5704858918E-06    2.5334456379E-06    2.4969382755E-06
    2.4609561536E-06    2.4254917307E-06    2.3905375735E-06    2.3560863550E-06
    2.3221308531E-06    2.2886639493E-06    2.2556786269E-06    2.2231679700E-06
    2.1911251614E-06    2.1595434818E-06    2.1284163080E-06    2.0977371120E-06
    2.0674994589E-06    2.0376970064E-06    2.0083235028E-06    1.9793727861E-06
    1.9508387827E-06    1.9227155057E-06    1.8949970545E-06    1.8676776126E-06
    1.8407514472E-06    1.8142129074E-06    1.7880564237E-06    1.7622765059E-06
    1.7368677429E-06    1.7118248011E-06    1.6871424233E-06    1.6628154277E-06
    1.6388387067E-06    1.6152072261E-06    1.5919160239E-06    1.5689602090E-06
    1.5463349608E-06    1.5240355274E-06    1.5020572255E-06    1.4803954386E-06
    1.4590456167E-06    1.4380032749E-06    1.4172639925E-06    1.3968234126E-06
    1.3766772405E-06    1.3568212431E-06    1.3372512482E-06    1.3179631433E-06
    1.2989528751E-06    1.2802164482E-06    1.2617499246E-06    1.2435494231E-06
    1.2256111178E-06    1.2079312379E-06    1.1905060666E-06    1.1733319406E-06
    1.1564052491E-06    1.1397224331E-06    1.1232799847E-06    1.1070744463E-06
    1.0911024100E-06    1.0753605168E-06    1.0598454560E-06    1.0445539642E-06
    1.0294828252E-06    1.0146288686E-06    9.9998896970E-07    9.8556004874E-07
    9.7133907005E-07    9.5732304162E-07    9.4350901437E-07    9.2989408158E-07
    9.1647537828E-07    9.0325008063E-07    8.9021540535E-07    8.7736860915E-07
    8.6470698812E-07    8.5222787720E-07    8.3992864961E-07    8.2780671630E-07
    8.1585952541E-07    8.0408456174E-07    7.9247934621E-07    7.8104143538E-07
    7.6976842091E-07    7.5865792905E-07    7.4770762016E-07    7.3691518823E-07
    7.2627836035E-07    7.1579489632E-07    7.0546258808E-07    6.9527925936E-07
    6.8524276511E-07    6.7535099114E-07    6.6560185363E-07    6.5599329872E-07
    6.4652330206E-07    6.3718986840E-07    6.2799103119E-07    6.1892485212E-07
    6.0998942075E-07    6.0118285411E-07    5.9250329630E-07    5.8394891809E-07
    5.7551791656E-07    5.6720851471E-07    5.5901896109E-07    5.5094752942E-07
    5.4299251826E-07    5.3515225063E-07    5.2742507364E-07    5.1980935821E-07
    5.1230349866E-07    5.0490591242E-07    4.9761503965E-07    4.9042934298E-07
    4.8334730713E-07    4.7636743860E-07    4.6948826541E-07    4.6270833672E-07
    4.5602622258E-07    4.4944051359E-07    4.4294982064E-07    4.3655277461E-07
    4.3024802604E-07    4.2403424492E-07    4.1791012036E-07    4.1187436034E-07
    4.0592569142E-07    4.0006285849E-07    3.9428462448E-07    3.8858977015E-07
    3.8297709377E-07    3.7744541093E-07    3.7199355426E-07    3.6662037319E-07
    3.6132473370E-07    3.5610551808E-07    3.5096162473E-07    3.4589196789E-07
    3.4089547744E-07    3.3597109865E-07    3.3111779197E-07    3.2633453282E-07
    3.2162031137E-07    3.1697413233E-07    3.1239501472E-07    3.0788199169E-07
    3.0343411033E-07    2.9905043141E-07    2.9473002925E-07    2.9047199150E-07
    2.8627541892E-07    2.8213942525E-07    2.7806313695E-07    2.7404569309E-07
    2.7008624514E-07    2.6618395677E-07    2.6233800369E-07    2.5854757351E-07
    2.5481186551E-07    2.5113009050E-07    2.4750147067E-07    2.4392523942E-07
    2.4040064118E-07    2.3692693124E-07    2.3350337566E-07    2.3012925103E-07
    2.2680384439E-07    2.2352645304E-07    2.2029638438E-07    2.1711295583E-07
    2.1397549462E-07    2.1088333765E-07    2.0783583141E-07    2.0483233179E-07
    2.0187220395E-07    1.9895482220E-07    1.9607956988E-07    1.9324583920E-07
    1.9045303113E-07    1.8770055527E-07    1.8498782974E-07    1.8231428102E-07
    1.7967934386E-07    1.7708246118E-07    1.7452308391E-07    1.7200067088E-07
    1.6951468874E-07    1.6706461181E-07    1.6464992201E-07    1.6227010869E-07
    1.5992466858E-07    1.5761310568E-07    1.5533493111E-07    1.5308966306E-07
    1.5087682663E-07    1.4869595381E-07    1.4654658331E-07    1.4442826048E-07
    1.4234053724E-07    1.4028297198E-07    1.3825512943E-07    1.3625658061E-07
    1.3428690272E-07    1.3234567906E-07    1.3043249894E-07    1.2854695756E-07
    1.2668865601E-07    1.2485720108E-07    1.2305220527E-07    1.2127328664E-07
    1.1952006876E-07    1.1779218065E-07    1.1608925664E-07    1.1441093638E-07
    1.1275686467E-07    1.1112669147E-07    1.0952007177E-07    1.0793666553E-07
    1.0637613762E-07    1.0483815776E-07    1.0332240039E-07    1.0182854469E-07
    1.0035627445E-07    9.8905278016E-08    9.7475248231E-08    9.6065882372E-08
    9.4676882079E-08    9.3307953298E-08    9.1958806211E-08    9.0629155188E-08
    8.9318718714E-08    8.8027219338E-08    8.6754383610E-08    8.5499942022E-08
    8.4263628958E-08    8.3045182630E-08    8.1844345028E-08    8.0660861865E-08
    7.9494482524E-08    7.8344960000E-08    7.7212050855E-08    7.6095515161E-08
    7.4995116452E-08    7.3910621674E-08    7.2841801134E-08    7.1788428457E-08
    7.0750280531E-08    6.9727137466E-08    6.8718782542E-08    6.7725002169E-08
    6.6745585837E-08    6.5780326073E-08    6.4829018400E-08    6.3891461291E-08
    6.2967456127E-08    6.2056807158E-08    6.1159321454E-08    6.0274808874E-08
    5.9403082017E-08    5.8543956190E-08    5.7697249362E-08    5.6862782133E-08
    5.6040377691E-08    5.5229861775E-08    5.4431062641E-08    5.3643811022E-08
    5.2867940095E-08    5.2103285445E-08    5.1349685029E-08    5.0606979145E-08
    4.9875010395E-08    4.9153623655E-08    4.8442666038E-08    4.7741986864E-08
    4.7051437631E-08    4.6370871978E-08    4.5700145655E-08    4.5039116500E-08
    4.4387644400E-08    4.3745591266E-08    4.3112821001E-08    4.2489199474E-08
    4.1874594492E-08    4.1268875767E-08    4.0671914894E-08    4.0083585323E-08
    3.9503762330E-08    3.8932322993E-08    3.8369146163E-08    3.7814112442E-08
    3.7267104155E-08    3.6728005328E-08    3.6196701657E-08    3.5673080494E-08
    3.5157030814E-08    3.4648443198E-08    3.4147209806E-08    3.3653224355E-08
    3.3166382097E-08    3.2686579796E-08    3.2213715708E-08    3.1747689556E-08
    3.1288402515E-08    3.0835757185E-08    3.0389657574E-08    2.9950009074E-08
    2.9516718446E-08    2.9089693796E-08    2.8668844557E-08    2.8254081472E-08
    2.7845316570E-08    2.7442463154E-08    2.7045435778E-08    2.6654150231E-08
    2.6268523516E-08    2.5888473837E-08    2.5513920578E-08    2.5144784289E-08
    2.4780986667E-08    2.4422450539E-08    2.4069099850E-08    2.3720859640E-08
    2.3377656034E-08    2.3039416224E-08    2.2706068453E-08    2.2377542001E-08
    2.2053767170E-08    2.1734675268E-08    2.1420198597E-08    2.1110270435E-08
    2.0804825027E-08    2.0503797565E-08    2.0207124178E-08    1.9914741919E-08
    1.9626588749E-08    1.9342603526E-08    1.9062725991E-08    1.8786896757E-08
    1.8515057294E-08    1.8247149919E-08    1.7983117779E-08    1.7722904847E-08
    1.7466455902E-08    1.7213716522E-08    1.6964633072E-08    1.6719152693E-08
    1.6477223287E-08    1.6238793511E-08    1.6003812764E-08    1.5772231174E-08
    1.5543999593E-08    1.5319069580E-08    1.5097393396E-08    1.4878923991E-08
    1.4663614995E-08    1.4451420710E-08    1.4242296096E-08    1.4036196765E-08
    1.3833078970E-08    1.3632899597E-08    1.3435616153E-08    1.3241186762E-08
    1.3049570152E-08    1.2860725648E-08    1.2674613161E-08    1.2491193184E-08
    1.2310426779E-08    1.2132275573E-08    1.1956701744E-08    1.1783668020E-08
    1.1613137667E-08    1.1445074480E-08    1.1279442781E-08    1.1116207404E-08
    1.0955333695E-08    1.0796787496E-08    1.0640535147E-08    1.0486543474E-08
    1.0334779779E-08    1.0185211842E-08    1.0037807904E-08    9.8925366693E-09
    9.7493672910E-09    9.6082693701E-09    9.4692129463E-09    9.3321684928E-09
    9.1971069093E-09    9.0639995160E-09    8.9328180486E-09    8.8035346510E-09
    8.6761218695E-09    8.5505526477E-09    8.4268003200E-09    8.3048386066E-09
    8.1846416074E-09    8.0661837967E-09    7.9494400178E-09    7.8343854784E-09
    7.7209957440E-09    7.6092467337E-09    7.4991147144E-09    7.3905762966E-09
    7.2836084284E-09    7.1781883917E-09    7.0742937964E-09    6.9719025764E-09
    6.8709929849E-09    6.7715435894E-09    6.6735332671E-09    6.5769412009E-09
    6.4817468743E-09    6.3879300679E-09    6.2954708543E-09    6.2043495941E-09
    6.1145469325E-09    6.0260437942E-09    5.9388213799E-09    5.8528611621E-09
    5.7681448811E-09    5.6846545413E-09    5.6023724073E-09    5.5212810003E-09
    5.4413630937E-09    5.3626017107E-09    5.2849801198E-09    5.2084818316E-09
    5.1330905948E-09    5.0587903935E-09    4.9855654432E-09    4.9134001876E-09
    4.8422792954E-09    4.7721876571E-09    4.7031103815E-09    4.6350327932E-09
    4.5679404288E-09    4.5018190341E-09    4.4366545610E-09    4.3724331647E-09
    4.3091412004E-09    4.2467652208E-09    4.1852919729E-09    4.1247083954E-09
    4.0650016164E-09    4.0061589497E-09    3.9481678928E-09    3.8910161238E-09
    3.8346914993E-09    3.7791820512E-09    3.7244759848E-09    3.6705616758E-09
    3.6174276679E-09    3.5650626709E-09    3.5134555579E-09    3.4625953626E-09
    3.4124712777E-09    3.3630726518E-09    3.3143889878E-09    3.2664099405E-09
    3.2191253142E-09    3.1725250605E-09    3.1265992767E-09    3.0813382034E-09
    3.0367322222E-09    2.9927718537E-09    2.9494477559E-09    2.9067507217E-09
    2.8646716773E-09    2.8232016801E-09    2.7823319168E-09    2.7420537016E-09
    2.7023584747E-09    2.6632377997E-09    2.6246833626E-09    2.5866869694E-09
    2.5492405446E-09    2.5123361297E-09    2.4759658813E-09    2.4401220693E-09
    2.4047970755E-09    2.3699833921E-09    2.3356736199E-09    2.3018604665E-09
    2.2685367451E-09    2.2356953730E-09    2.2033293698E-09    2.1714318563E-09
    2.1399960524E-09    2.1090152764E-09    2.0784829433E-09    2.0483925633E-09
    2.0187377406E-09    1.9895121718E-09    1.9607096446E-09    1.9323240369E-09
    1.9043493148E-09    1.8767795320E-09    1.8496088280E-09    1.8228314271E-09
    1.7964416374E-09    1.7704338492E-09    1.7448025341E-09    1.7195422435E-09
    1.6946476076E-09    1.6701133346E-09    1.6459342089E-09    1.6221050906E-09
    1.5986209138E-09    1.5754766866E-09    1.5526674887E-09    1.5301884713E-09
    1.5080348556E-09    1.4862019322E-09    1.4646850596E-09    1.4434796634E-09
    1.4225812356E-09    1.4019853333E-09    1.3816875778E-09    1.3616836541E-09
    1.3419693094E-09    1.3225403524E-09    1.3033926525E-09    1.2845221390E-09
    1.2659247998E-09    1.2475966812E-09    1.2295338866E-09    1.2117325754E-09
    1.1941889631E-09    1.1768993199E-09    1.1598599697E-09    1.1430672898E-09
    1.1265177099E-09    1.1102077113E-09    1.0941338263E-09    1.0782926373E-09
    1.0626807761E-09    1.0472949233E-09    1.0321318076E-09    1.0171882051E-09
    1.0024609384E-09    9.8794687618E-10    9.7364293236E-10    9.5954606556E-10
    9.4565327840E-10    9.3196161688E-10    9.1846816970E-10    9.0517006772E-10
    8.9206448341E-10    8.7914863009E-10    8.6641976143E-10    8.5387517082E-10
    8.4151219083E-10    8.2932819262E-10    8.1732058541E-10    8.0548681590E-10
    7.9382436769E-10    7.8233076087E-10    7.7100355146E-10    7.5984033079E-10
    7.4883872508E-10    7.3799639487E-10    7.2731103457E-10    7.1678037196E-10
    7.0640216771E-10    6.9617421488E-10    6.8609433843E-10    6.7616039487E-10
    6.6637027175E-10    6.5672188717E-10    6.4721318936E-10    6.3784215622E-10
    6.2860679493E-10    6.1950514153E-10    6.1053526046E-10    6.0169524418E-10
    5.9298321269E-10    5.8439731333E-10    5.7593572021E-10    5.6759663385E-10
    5.5937828083E-10    5.5127891338E-10    5.4329680904E-10    5.3543027027E-10
    5.2767762410E-10    5.2003722177E-10    5.1250743834E-10    5.0508667248E-10
    4.9777334602E-10    4.9056590360E-10    4.8346281240E-10    4.7646256177E-10
    4.6956366291E-10    4.6276464860E-10    4.5606407283E-10    4.4946051054E-10
    4.4295255723E-10    4.3653882881E-10    4.3021796123E-10    4.2398861017E-10
    4.1784945073E-10    4.1179917723E-10    4.0583650287E-10    3.9996015947E-10
    3.9416889722E-10    3.8846148439E-10    3.8283670703E-10    3.7729336885E-10
    3.7183029086E-10    3.6644631111E-10    3.6114028449E-10    3.5591108244E-10
    3.5075759276E-10    3.4567871934E-10    3.4067338192E-10    3.3574051590E-10
    3.3087907204E-10    3.2608801635E-10    3.2136632979E-10    3.1671300809E-10
    3.1212706149E-10    3.0760751456E-10    3.0315340600E-10    2.9876378841E-10
    2.9443772811E-10    2.9017430495E-10    2.8597261206E-10    2.8183175571E-10
    2.7775085515E-10    2.7372904237E-10    2.6976546189E-10    2.6585927064E-10
    2.6200963775E-10    2.5821574437E-10    2.5447678350E-10    2.5079195984E-10
    2.4716048959E-10    2.4358160025E-10    2.4005453059E-10    2.3657853037E-10
    2.3315286020E-10    2.2977679140E-10    2.2644960583E-10    2.2317059576E-10
    2.1993906368E-10    2.1675432220E-10    2.1361569388E-10    2.1052251104E-10
    2.0747411573E-10    2.0446985951E-10    2.0150910333E-10    1.9859121737E-10
    1.9571558094E-10    1.9288158234E-10    1.9008861872E-10    1.8733609594E-10
    1.8462342850E-10    1.8195003933E-10    1.7931535972E-10    1.7671882923E-10
    1.7415989554E-10    1.7163801429E-10    1.6915264900E-10    1.6670327098E-10
    1.6428935919E-10    1.6191040011E-10    1.5956588767E-10    1.5725532313E-10
    1.5497821495E-10    1.5273407872E-10    1.5052243707E-10    1.4834281951E-10
    1.4619476237E-10    1.4407780870E-10    1.4199150814E-10    1.3993541687E-10
    1.3790909751E-10    1.3591211897E-10
   </PP_CHI.3>
   <PP_CHI.4
       type="real"
       size="1766"
       columns="4"
       index="4"
       occupation=" 0.600"
       pseudo_energy="   -0.1824171196E+00"
       label="4D"
       l="2" >
    1.7366842556E-13    8.2936768353E-07    6.6333930105E-06    2.2378994399E-05
    5.3017626657E-05    1.0347758641E-04    1.7865636211E-04    2.8341304328E-04
    4.2256080348E-04    6.0085947118E-04    8.2300820270E-04    1.0936382707E-03
    1.4173059818E-03    1.7984857362E-03    2.2415632417E-03    2.7508288949E-03
    3.3304713404E-03    3.9845712200E-03    4.7170951217E-03    5.5318897395E-03
    6.4326762534E-03    7.4230449373E-03    8.5064500058E-03    9.6862047048E-03
    1.0965476655E-02    1.2347283455E-02    1.3834488546E-02    1.5429797355E-02
    1.7135753701E-02    1.8954736489E-02    2.0888956686E-02    2.2940454576E-02
    2.5111097313E-02    2.7402576753E-02    2.9816407584E-02    3.2353925746E-02
    3.5016287139E-02    3.7804466625E-02    4.0719257322E-02    4.3761270185E-02
    4.6930933868E-02    5.0228494885E-02    5.3654018037E-02    5.7207387130E-02
    6.0888305962E-02    6.4696299584E-02    6.8630715828E-02    7.2690727096E-02
    7.6875332413E-02    8.1183359723E-02    8.5613468440E-02    9.0164152239E-02
    9.4833742082E-02    9.9620409471E-02    1.0452216993E-01    1.0953688668E-01
    1.1466227459E-01    1.1989590421E-01    1.2523520613E-01    1.3067747543E-01
    1.3621987636E-01    1.4185944716E-01    1.4759310508E-01    1.5341765148E-01
    1.5932977718E-01    1.6532606785E-01    1.7140300958E-01    1.7755699455E-01
    1.8378432681E-01    1.9008122815E-01    1.9644384407E-01    2.0286824984E-01
    2.0935045659E-01    2.1588641746E-01    2.2247203386E-01    2.2910316168E-01
    2.3577561760E-01    2.4248518533E-01    2.4922762195E-01    2.5599866416E-01
    2.6279403456E-01    2.6960944787E-01    2.7644061713E-01    2.8328325985E-01
    2.9013310405E-01    2.9698589430E-01    3.0383739760E-01    3.1068340921E-01
    3.1751975837E-01    3.2434231387E-01    3.3114698952E-01    3.3792974950E-01
    3.4468661348E-01    3.5141366172E-01    3.5810703985E-01    3.6476296360E-01
    3.7137772327E-01    3.7794768805E-01    3.8446931014E-01    3.9093912865E-01
    3.9735377328E-01    4.0370996783E-01    4.1000453344E-01    4.1623439165E-01
    4.2239656719E-01    4.2848819055E-01    4.3450650037E-01    4.4044884547E-01
    4.4631268682E-01    4.5209559908E-01    4.5779527209E-01    4.6340951197E-01
    4.6893624206E-01    4.7437350367E-01    4.7971945648E-01    4.8497237885E-01
    4.9013066782E-01    4.9519283891E-01    5.0015752577E-01    5.0502347951E-01
    5.0978956797E-01    5.1445477468E-01    5.1901819771E-01    5.2347904831E-01
    5.2783664940E-01    5.3209043389E-01    5.3623994285E-01    5.4028482352E-01
    5.4422482725E-01    5.4805980720E-01    5.5178971609E-01    5.5541460363E-01
    5.5893461409E-01    5.6234998357E-01    5.6566103733E-01    5.6886818698E-01
    5.7197192765E-01    5.7497283509E-01    5.7787156268E-01    5.8066883850E-01
    5.8336546229E-01    5.8596230240E-01    5.8846029277E-01    5.9086042986E-01
    5.9316376957E-01    5.9537142422E-01    5.9748455945E-01    5.9950439124E-01
    6.0143218289E-01    6.0326924199E-01    6.0501691749E-01    6.0667659678E-01
    6.0824970277E-01    6.0973769104E-01    6.1114204705E-01    6.1246428332E-01
    6.1370593671E-01    6.1486856578E-01    6.1595374809E-01    6.1696307765E-01
    6.1789816239E-01    6.1876062162E-01    6.1955208366E-01    6.2027418341E-01
    6.2092856001E-01    6.2151685461E-01    6.2204070809E-01    6.2250175893E-01
    6.2290164104E-01    6.2324198176E-01    6.2352439980E-01    6.2375050329E-01
    6.2392188793E-01    6.2404013508E-01    6.2410681005E-01    6.2412346034E-01
    6.2409161397E-01    6.2401277792E-01    6.2388843656E-01    6.2372005020E-01
    6.2350905370E-01    6.2325685512E-01    6.2296483445E-01    6.2263434247E-01
    6.2226669958E-01    6.2186319481E-01    6.2142508486E-01    6.2095359322E-01
    6.2044990939E-01    6.1991518819E-01    6.1935054914E-01    6.1875707594E-01
    6.1813581610E-01    6.1748778051E-01    6.1681394332E-01    6.1611524173E-01
    6.1539257598E-01    6.1464680943E-01    6.1387876869E-01    6.1308924395E-01
    6.1227898926E-01    6.1144872306E-01    6.1059912873E-01    6.0973085522E-01
    6.0884451785E-01    6.0794069913E-01    6.0701994968E-01    6.0608278928E-01
    6.0512970797E-01    6.0416116721E-01    6.0317760115E-01    6.0217941795E-01
    6.0116700114E-01    6.0014071109E-01    5.9910088645E-01    5.9804784574E-01
    5.9698188883E-01    5.9590329861E-01    5.9481234253E-01    5.9370927425E-01
    5.9259433526E-01    5.9146775648E-01    5.9032975985E-01    5.8918055993E-01
    5.8802036542E-01    5.8684938066E-01    5.8566780709E-01    5.8447584465E-01
    5.8327369307E-01    5.8206155316E-01    5.8083962796E-01    5.7960812383E-01
    5.7836725144E-01    5.7711722665E-01    5.7585827124E-01    5.7459061361E-01
    5.7331448925E-01    5.7203014119E-01    5.7073782024E-01    5.6943778518E-01
    5.6813030270E-01    5.6681564741E-01    5.6549409932E-01    5.6416593954E-01
    5.6283144363E-01    5.6149087979E-01    5.6014450971E-01    5.5879258943E-01
    5.5743536919E-01    5.5607309295E-01    5.5470599876E-01    5.5333431876E-01
    5.5195827919E-01    5.5057810046E-01    5.4919399719E-01    5.4780617827E-01
    5.4641484687E-01    5.4502020053E-01    5.4362243115E-01    5.4222172510E-01
    5.4081826323E-01    5.3941222092E-01    5.3800376817E-01    5.3659306963E-01
    5.3518028465E-01    5.3376556737E-01    5.3234906681E-01    5.3093092687E-01
    5.2951128648E-01    5.2809027964E-01    5.2666803552E-01    5.2524467857E-01
    5.2382032857E-01    5.2239510075E-01    5.2096910591E-01    5.1954245050E-01
    5.1811523673E-01    5.1668756271E-01    5.1525952253E-01    5.1383120640E-01
    5.1240270076E-01    5.1097408841E-01    5.0954544862E-01    5.0811685728E-01
    5.0668838698E-01    5.0526010718E-01    5.0383208430E-01    5.0240438187E-01
    5.0097706064E-01    4.9955017870E-01    4.9812379160E-01    4.9669795247E-01
    4.9527271215E-01    4.9384811925E-01    4.9242422035E-01    4.9100106001E-01
    4.8957868094E-01    4.8815712407E-01    4.8673642866E-01    4.8531663239E-01
    4.8389777144E-01    4.8247988060E-01    4.8106299332E-01    4.7964714182E-01
    4.7823235712E-01    4.7681866919E-01    4.7540610691E-01    4.7399469824E-01
    4.7258447021E-01    4.7117544900E-01    4.6976765998E-01    4.6836112780E-01
    4.6695587640E-01    4.6555192904E-01    4.6414930841E-01    4.6274803657E-01
    4.6134813509E-01    4.5994962499E-01    4.5855252686E-01    4.5715686081E-01
    4.5576264654E-01    4.5436990335E-01    4.5297865018E-01    4.5158890561E-01
    4.5020068791E-01    4.4881401500E-01    4.4742890453E-01    4.4604537388E-01
    4.4466344014E-01    4.4328312016E-01    4.4190443054E-01    4.4052738767E-01
    4.3915200770E-01    4.3777830658E-01    4.3640630006E-01    4.3503600369E-01
    4.3366743283E-01    4.3230060268E-01    4.3093552825E-01    4.2957222439E-01
    4.2821070578E-01    4.2685098695E-01    4.2549308228E-01    4.2413700599E-01
    4.2278277216E-01    4.2143039474E-01    4.2007988752E-01    4.1873126418E-01
    4.1738453825E-01    4.1603972314E-01    4.1469683214E-01    4.1335587839E-01
    4.1201687495E-01    4.1067983472E-01    4.0934477050E-01    4.0801169500E-01
    4.0668062077E-01    4.0535156029E-01    4.0402452591E-01    4.0269952987E-01
    4.0137658432E-01    4.0005570131E-01    3.9873689275E-01    3.9742017050E-01
    3.9610554629E-01    3.9479303176E-01    3.9348263846E-01    3.9217437783E-01
    3.9086826125E-01    3.8956429997E-01    3.8826250518E-01    3.8696288796E-01
    3.8566545933E-01    3.8437023019E-01    3.8307721138E-01    3.8178641365E-01
    3.8049784767E-01    3.7921152404E-01    3.7792745326E-01    3.7664564577E-01
    3.7536611192E-01    3.7408886199E-01    3.7281390620E-01    3.7154125468E-01
    3.7027091749E-01    3.6900290462E-01    3.6773722599E-01    3.6647389147E-01
    3.6521291083E-01    3.6395429380E-01    3.6269805004E-01    3.6144418913E-01
    3.6019272059E-01    3.5894365391E-01    3.5769699846E-01    3.5645276360E-01
    3.5521095860E-01    3.5397159269E-01    3.5273467502E-01    3.5150021470E-01
    3.5026822077E-01    3.4903870222E-01    3.4781166798E-01    3.4658712692E-01
    3.4536508786E-01    3.4414555957E-01    3.4292855074E-01    3.4171407004E-01
    3.4050212607E-01    3.3929272736E-01    3.3808588240E-01    3.3688159964E-01
    3.3567988745E-01    3.3448075417E-01    3.3328420807E-01    3.3209025736E-01
    3.3089891023E-01    3.2971017477E-01    3.2852405906E-01    3.2734057109E-01
    3.2615971883E-01    3.2498151015E-01    3.2380595291E-01    3.2263305490E-01
    3.2146282383E-01    3.2029526739E-01    3.1913039319E-01    3.1796820880E-01
    3.1680872171E-01    3.1565193937E-01    3.1449786916E-01    3.1334651842E-01
    3.1219789439E-01    3.1105200430E-01    3.0990885527E-01    3.0876845439E-01
    3.0763080867E-01    3.0649592507E-01    3.0536381047E-01    3.0423447169E-01
    3.0310791548E-01    3.0198414853E-01    3.0086317744E-01    2.9974500878E-01
    2.9862964901E-01    2.9751710452E-01    2.9640738166E-01    2.9530048666E-01
    2.9419642572E-01    2.9309520493E-01    2.9199683031E-01    2.9090130781E-01
    2.8980864329E-01    2.8871884253E-01    2.8763191123E-01    2.8654785501E-01
    2.8546667940E-01    2.8438838984E-01    2.8331299169E-01    2.8224049022E-01
    2.8117089060E-01    2.8010419792E-01    2.7904041718E-01    2.7797955328E-01
    2.7692161102E-01    2.7586659512E-01    2.7481451018E-01    2.7376536073E-01
    2.7271915118E-01    2.7167588585E-01    2.7063556894E-01    2.6959820458E-01
    2.6856379676E-01    2.6753234940E-01    2.6650386629E-01    2.6547835112E-01
    2.6445580747E-01    2.6343623882E-01    2.6241964853E-01    2.6140603986E-01
    2.6039541594E-01    2.5938777981E-01    2.5838313439E-01    2.5738148247E-01
    2.5638282675E-01    2.5538716979E-01    2.5439451406E-01    2.5340486189E-01
    2.5241821551E-01    2.5143457702E-01    2.5045394841E-01    2.4947633155E-01
    2.4850172817E-01    2.4753013991E-01    2.4656156828E-01    2.4559601465E-01
    2.4463348030E-01    2.4367396637E-01    2.4271747388E-01    2.4176400373E-01
    2.4081355670E-01    2.3986613344E-01    2.3892173449E-01    2.3798036025E-01
    2.3704201101E-01    2.3610668694E-01    2.3517438808E-01    2.3424511436E-01
    2.3331886556E-01    2.3239564137E-01    2.3147544134E-01    2.3055826490E-01
    2.2964411137E-01    2.2873297993E-01    2.2782486964E-01    2.2691977947E-01
    2.2601770824E-01    2.2511865465E-01    2.2422261730E-01    2.2332959466E-01
    2.2243958507E-01    2.2155258678E-01    2.2066859791E-01    2.1978761645E-01
    2.1890964028E-01    2.1803466720E-01    2.1716269483E-01    2.1629372074E-01
    2.1542774236E-01    2.1456475699E-01    2.1370476185E-01    2.1284775403E-01
    2.1199373052E-01    2.1114268821E-01    2.1029462385E-01    2.0944953412E-01
    2.0860741557E-01    2.0776826466E-01    2.0693207773E-01    2.0609885104E-01
    2.0526858073E-01    2.0444126284E-01    2.0361689332E-01    2.0279546802E-01
    2.0197698267E-01    2.0116143295E-01    2.0034881439E-01    1.9953912248E-01
    1.9873235257E-01    1.9792849994E-01    1.9712755979E-01    1.9632952721E-01
    1.9553439722E-01    1.9474216473E-01    1.9395282459E-01    1.9316637155E-01
    1.9238280027E-01    1.9160210536E-01    1.9082428130E-01    1.9004932254E-01
    1.8927722342E-01    1.8850797821E-01    1.8774158112E-01    1.8697802626E-01
    1.8621730768E-01    1.8545941936E-01    1.8470435521E-01    1.8395210906E-01
    1.8320267468E-01    1.8245604578E-01    1.8171221599E-01    1.8097117889E-01
    1.8023292798E-01    1.7949745670E-01    1.7876475846E-01    1.7803482658E-01
    1.7730765431E-01    1.7658323489E-01    1.7586156147E-01    1.7514262715E-01
    1.7442642497E-01    1.7371294795E-01    1.7300218903E-01    1.7229414111E-01
    1.7158879703E-01    1.7088614961E-01    1.7018619161E-01    1.6948891573E-01
    1.6879431464E-01    1.6810238099E-01    1.6741310735E-01    1.6672648628E-01
    1.6604251028E-01    1.6536117182E-01    1.6468246335E-01    1.6400637727E-01
    1.6333290594E-01    1.6266204169E-01    1.6199377683E-01    1.6132810364E-01
    1.6066501435E-01    1.6000450118E-01    1.5934655631E-01    1.5869117191E-01
    1.5803834011E-01    1.5738805302E-01    1.5674030273E-01    1.5609508130E-01
    1.5545238077E-01    1.5481219318E-01    1.5417451053E-01    1.5353932479E-01
    1.5290662795E-01    1.5227641194E-01    1.5164866872E-01    1.5102339019E-01
    1.5040056828E-01    1.4978019486E-01    1.4916226184E-01    1.4854676108E-01
    1.4793368444E-01    1.4732302378E-01    1.4671477094E-01    1.4610891776E-01
    1.4550545606E-01    1.4490437769E-01    1.4430567444E-01    1.4370933815E-01
    1.4311536061E-01    1.4252373364E-01    1.4193444904E-01    1.4134749863E-01
    1.4076287419E-01    1.4018056754E-01    1.3960057048E-01    1.3902287482E-01
    1.3844747236E-01    1.3787435492E-01    1.3730351431E-01    1.3673494234E-01
    1.3616863085E-01    1.3560457165E-01    1.3504275659E-01    1.3448317751E-01
    1.3392582624E-01    1.3337069465E-01    1.3281777461E-01    1.3226705797E-01
    1.3171853663E-01    1.3117220248E-01    1.3062804741E-01    1.3008606334E-01
    1.2954624220E-01    1.2900857591E-01    1.2847305644E-01    1.2793967573E-01
    1.2740842577E-01    1.2687929854E-01    1.2635228604E-01    1.2582738029E-01
    1.2530457333E-01    1.2478385719E-01    1.2426522395E-01    1.2374866567E-01
    1.2323417447E-01    1.2272174244E-01    1.2221136173E-01    1.2170302447E-01
    1.2119672283E-01    1.2069244901E-01    1.2019019519E-01    1.1968995361E-01
    1.1919171650E-01    1.1869547613E-01    1.1820122477E-01    1.1770895472E-01
    1.1721865832E-01    1.1673032789E-01    1.1624395581E-01    1.1575953445E-01
    1.1527705623E-01    1.1479651357E-01    1.1431789892E-01    1.1384120475E-01
    1.1336642356E-01    1.1289354787E-01    1.1242257020E-01    1.1195348314E-01
    1.1148627925E-01    1.1102095116E-01    1.1055749149E-01    1.1009589290E-01
    1.0963614808E-01    1.0917824972E-01    1.0872219056E-01    1.0826796334E-01
    1.0781556085E-01    1.0736497588E-01    1.0691620127E-01    1.0646922987E-01
    1.0602405455E-01    1.0558066821E-01    1.0513906378E-01    1.0469923422E-01
    1.0426117249E-01    1.0382487161E-01    1.0339032460E-01    1.0295752451E-01
    1.0252646443E-01    1.0209713745E-01    1.0166953672E-01    1.0124365538E-01
    1.0081948662E-01    1.0039702364E-01    9.9976259684E-02    9.9557188009E-02
    9.9139801900E-02    9.8724094670E-02    9.8310059657E-02    9.7897690225E-02
    9.7486979763E-02    9.7077921689E-02    9.6670509445E-02    9.6264736499E-02
    9.5860596345E-02    9.5458082505E-02    9.5057188524E-02    9.4657907975E-02
    9.4260234458E-02    9.3864161596E-02    9.3469683041E-02    9.3076792469E-02
    9.2685483583E-02    9.2295750110E-02    9.1907585806E-02    9.1520984451E-02
    9.1135939850E-02    9.0752445835E-02    9.0370496263E-02    8.9990085018E-02
    8.9611206008E-02    8.9233853167E-02    8.8858020455E-02    8.8483701857E-02
    8.8110891383E-02    8.7739583069E-02    8.7369770976E-02    8.7001449190E-02
    8.6634611822E-02    8.6269253008E-02    8.5905366910E-02    8.5542947714E-02
    8.5181989630E-02    8.4822486895E-02    8.4464433767E-02    8.4107824533E-02
    8.3752653502E-02    8.3398915006E-02    8.3046603405E-02    8.2695713079E-02
    8.2346238437E-02    8.1998173907E-02    8.1651513944E-02    8.1306253027E-02
    8.0962385658E-02    8.0619906361E-02    8.0278809687E-02    7.9939090207E-02
    7.9600742518E-02    7.9263761239E-02    7.8928141013E-02    7.8593876505E-02
    7.8260962404E-02    7.7929393421E-02    7.7599164290E-02    7.7270269768E-02
    7.6942704634E-02    7.6616463691E-02    7.6291541763E-02    7.5967933695E-02
    7.5645634357E-02    7.5324638640E-02    7.5004941455E-02    7.4686537737E-02
    7.4369422443E-02    7.4053590549E-02    7.3739037056E-02    7.3425756983E-02
    7.3113745373E-02    7.2802997288E-02    7.2493507813E-02    7.2185272053E-02
    7.1878285133E-02    7.1572542200E-02    7.1268038422E-02    7.0964768985E-02
    7.0662729099E-02    7.0361913991E-02    7.0062318911E-02    6.9763939126E-02
    6.9466769925E-02    6.9170806618E-02    6.8876044532E-02    6.8582479014E-02
    6.8290105433E-02    6.7998919176E-02    6.7708915648E-02    6.7420090274E-02
    6.7132438500E-02    6.6845955788E-02    6.6560637621E-02    6.6276479500E-02
    6.5993476945E-02    6.5711625493E-02    6.5430920703E-02    6.5151358148E-02
    6.4872933423E-02    6.4595642138E-02    6.4319479924E-02    6.4044442427E-02
    6.3770525314E-02    6.3497724267E-02    6.3226034987E-02    6.2955453191E-02
    6.2685974617E-02    6.2417595016E-02    6.2150310159E-02    6.1884115833E-02
    6.1619007842E-02    6.1354982008E-02    6.1092034169E-02    6.0830160179E-02
    6.0569355911E-02    6.0309617251E-02    6.0050940106E-02    5.9793320394E-02
    5.9536754054E-02    5.9281237038E-02    5.9026765316E-02    5.8773334873E-02
    5.8520941710E-02    5.8269581844E-02    5.8019251308E-02    5.7769946150E-02
    5.7521662433E-02    5.7274396238E-02    5.7028143658E-02    5.6782900803E-02
    5.6538663798E-02    5.6295428783E-02    5.6053191914E-02    5.5811949360E-02
    5.5571697306E-02    5.5332431951E-02    5.5094149510E-02    5.4856846212E-02
    5.4620518299E-02    5.4385162030E-02    5.4150773676E-02    5.3917349524E-02
    5.3684885874E-02    5.3453379042E-02    5.3222825354E-02    5.2993221155E-02
    5.2764562800E-02    5.2536846660E-02    5.2310069118E-02    5.2084226572E-02
    5.1859315434E-02    5.1635332128E-02    5.1412273091E-02    5.1190134777E-02
    5.0968913648E-02    5.0748606183E-02    5.0529208874E-02    5.0310718224E-02
    5.0093130750E-02    4.9876442983E-02    4.9660651466E-02    4.9445752754E-02
    4.9231743416E-02    4.9018620032E-02    4.8806379198E-02    4.8595017519E-02
    4.8384531613E-02    4.8174918113E-02    4.7966173661E-02    4.7758294914E-02
    4.7551278540E-02    4.7345121218E-02    4.7139819642E-02    4.6935370516E-02
    4.6731770556E-02    4.6529016491E-02    4.6327105060E-02    4.6126033016E-02
    4.5925797123E-02    4.5726394156E-02    4.5527820902E-02    4.5330074161E-02
    4.5133150741E-02    4.4937047466E-02    4.4741761169E-02    4.4547288693E-02
    4.4353626895E-02    4.4160772643E-02    4.3968722814E-02    4.3777474298E-02
    4.3587023995E-02    4.3397368819E-02    4.3208505691E-02    4.3020431545E-02
    4.2833143326E-02    4.2646637989E-02    4.2460912502E-02    4.2275963840E-02
    4.2091788992E-02    4.1908384957E-02    4.1725748744E-02    4.1543877373E-02
    4.1362767874E-02    4.1182417287E-02    4.1002822665E-02    4.0823981070E-02
    4.0645889572E-02    4.0468545256E-02    4.0291945213E-02    4.0116086547E-02
    3.9940966371E-02    3.9766581809E-02    3.9592929993E-02    3.9420008068E-02
    3.9247813187E-02    3.9076342514E-02    3.8905593222E-02    3.8735562496E-02
    3.8566247528E-02    3.8397645522E-02    3.8229753691E-02    3.8062569257E-02
    3.7896089455E-02    3.7730311525E-02    3.7565232720E-02    3.7400850301E-02
    3.7237161541E-02    3.7074163718E-02    3.6911854124E-02    3.6750230059E-02
    3.6589288831E-02    3.6429027759E-02    3.6269444172E-02    3.6110535406E-02
    3.5952298809E-02    3.5794731736E-02    3.5637831552E-02    3.5481595632E-02
    3.5326021360E-02    3.5171106127E-02    3.5016847337E-02    3.4863242400E-02
    3.4710288735E-02    3.4557983773E-02    3.4406324950E-02    3.4255309715E-02
    3.4104935522E-02    3.3955199837E-02    3.3806100133E-02    3.3657633893E-02
    3.3509798608E-02    3.3362591779E-02    3.3216010913E-02    3.3070053529E-02
    3.2924717153E-02    3.2779999320E-02    3.2635897573E-02    3.2492409465E-02
    3.2349532556E-02    3.2207264416E-02    3.2065602622E-02    3.1924544761E-02
    3.1784088428E-02    3.1644231226E-02    3.1504970766E-02    3.1366304669E-02
    3.1228230563E-02    3.1090746085E-02    3.0953848880E-02    3.0817536601E-02
    3.0681806910E-02    3.0546657477E-02    3.0412085980E-02    3.0278090105E-02
    3.0144667546E-02    3.0011816006E-02    2.9879533196E-02    2.9747816834E-02
    2.9616664648E-02    2.9486074372E-02    2.9356043748E-02    2.9226570528E-02
    2.9097652471E-02    2.8969287342E-02    2.8841472918E-02    2.8714206980E-02
    2.8587487318E-02    2.8461311732E-02    2.8335678026E-02    2.8210584015E-02
    2.8086027521E-02    2.7962006373E-02    2.7838518407E-02    2.7715561469E-02
    2.7593133412E-02    2.7471232094E-02    2.7349855385E-02    2.7229001159E-02
    2.7108667300E-02    2.6988851697E-02    2.6869552250E-02    2.6750766863E-02
    2.6632493450E-02    2.6514729932E-02    2.6397474236E-02    2.6280724298E-02
    2.6164478060E-02    2.6048733474E-02    2.5933488497E-02    2.5818741094E-02
    2.5704489236E-02    2.5590730905E-02    2.5477464087E-02    2.5364686775E-02
    2.5252396972E-02    2.5140592686E-02    2.5029271934E-02    2.4918432737E-02
    2.4808073127E-02    2.4698191141E-02    2.4588784823E-02    2.4479852225E-02
    2.4371391405E-02    2.4263400430E-02    2.4155877372E-02    2.4048820311E-02
    2.3942227333E-02    2.3836096533E-02    2.3730426010E-02    2.3625213874E-02
    2.3520458238E-02    2.3416157224E-02    2.3312308960E-02    2.3208911582E-02
    2.3105963231E-02    2.3003462057E-02    2.2901406215E-02    2.2799793867E-02
    2.2698623183E-02    2.2597892339E-02    2.2497599517E-02    2.2397742907E-02
    2.2298320705E-02    2.2199331113E-02    2.2100772341E-02    2.2002642606E-02
    2.1904940128E-02    2.1807663139E-02    2.1710809873E-02    2.1614378572E-02
    2.1518367486E-02    2.1422774870E-02    2.1327598986E-02    2.1232838102E-02
    2.1138490493E-02    2.1044554439E-02    2.0951028229E-02    2.0857910157E-02
    2.0765198523E-02    2.0672891633E-02    2.0580987801E-02    2.0489485346E-02
    2.0398382594E-02    2.0307677877E-02    2.0217369532E-02    2.0127455906E-02
    2.0037935347E-02    1.9948806214E-02    1.9860066869E-02    1.9771715682E-02
    1.9683751027E-02    1.9596171288E-02    1.9508974850E-02    1.9422160109E-02
    1.9335725464E-02    1.9249669321E-02    1.9163990092E-02    1.9078686195E-02
    1.8993756054E-02    1.8909198100E-02    1.8825010767E-02    1.8741192498E-02
    1.8657741742E-02    1.8574656951E-02    1.8491936586E-02    1.8409579112E-02
    1.8327583000E-02    1.8245946728E-02    1.8164668780E-02    1.8083747643E-02
    1.8003181813E-02    1.7922969791E-02    1.7843110082E-02    1.7763601199E-02
    1.7684441659E-02    1.7605629986E-02    1.7527164709E-02    1.7449044363E-02
    1.7371267488E-02    1.7293832631E-02    1.7216738343E-02    1.7139983181E-02
    1.7063565709E-02    1.6987484495E-02    1.6911738113E-02    1.6836325142E-02
    1.6761244169E-02    1.6686493782E-02    1.6612072579E-02    1.6537979161E-02
    1.6464212134E-02    1.6390770112E-02    1.6317651712E-02    1.6244855558E-02
    1.6172380277E-02    1.6100224504E-02    1.6028386878E-02    1.5956866044E-02
    1.5885660652E-02    1.5814769357E-02    1.5744190820E-02    1.5673923705E-02
    1.5603966685E-02    1.5534318436E-02    1.5464977638E-02    1.5395942979E-02
    1.5327213151E-02    1.5258786850E-02    1.5190662778E-02    1.5122839644E-02
    1.5055316158E-02    1.4988091039E-02    1.4921163009E-02    1.4854530796E-02
    1.4788193132E-02    1.4722148755E-02    1.4656396407E-02    1.4590934837E-02
    1.4525762797E-02    1.4460879044E-02    1.4396282341E-02    1.4331971456E-02
    1.4267945160E-02    1.4204202232E-02    1.4140741453E-02    1.4077561610E-02
    1.4014661496E-02    1.3952039906E-02    1.3889695643E-02    1.3827627512E-02
    1.3765834326E-02    1.3704314898E-02    1.3643068051E-02    1.3582092610E-02
    1.3521387404E-02    1.3460951269E-02    1.3400783044E-02    1.3340881572E-02
    1.3281245703E-02    1.3221874291E-02    1.3162766192E-02    1.3103920271E-02
    1.3045335394E-02    1.2987010432E-02    1.2928944263E-02    1.2871135768E-02
    1.2813583830E-02    1.2756287342E-02    1.2699245197E-02    1.2642456294E-02
    1.2585919536E-02    1.2529633832E-02    1.2473598093E-02    1.2417811238E-02
    1.2362272185E-02    1.2306979862E-02    1.2251933198E-02    1.2197131127E-02
    1.2142572588E-02    1.2088256524E-02    1.2034181883E-02    1.1980347615E-02
    1.1926752676E-02    1.1873396028E-02    1.1820276633E-02    1.1767393461E-02
    1.1714745485E-02    1.1662331681E-02    1.1610151031E-02    1.1558202521E-02
    1.1506485139E-02    1.1454997880E-02    1.1403739741E-02    1.1352709725E-02
    1.1301906838E-02    1.1251330090E-02    1.1200978494E-02    1.1150851071E-02
    1.1100946841E-02    1.1051264831E-02    1.1001804072E-02    1.0952563599E-02
    1.0903542449E-02    1.0854739665E-02    1.0806154294E-02    1.0757785386E-02
    1.0709631995E-02    1.0661693179E-02    1.0613968000E-02    1.0566455525E-02
    1.0519154823E-02    1.0472064968E-02    1.0425185038E-02    1.0378514114E-02
    1.0332051280E-02    1.0285795627E-02    1.0239746248E-02    1.0193902238E-02
    1.0148262697E-02    1.0102826732E-02    1.0057593448E-02    1.0012561958E-02
    9.9677313764E-03    9.9231008231E-03    9.8786694205E-03    9.8344362948E-03
    9.7904005762E-03    9.7465613981E-03    9.7029178979E-03    9.6594692166E-03
    9.6162144985E-03    9.5731528917E-03    9.5302835480E-03    9.4876056225E-03
    9.4451182740E-03    9.4028206648E-03    9.3607119607E-03    9.3187913310E-03
    9.2770579486E-03    9.2355109898E-03    9.1941496343E-03    9.1529730654E-03
    9.1119804697E-03    9.0711710374E-03    9.0305439619E-03    8.9900984402E-03
    8.9498336727E-03    8.9097488629E-03    8.8698432180E-03    8.8301159484E-03
    8.7905662679E-03    8.7511933934E-03    8.7119965454E-03    8.6729749476E-03
    8.6341278270E-03    8.5954544139E-03    8.5569539417E-03    8.5186256472E-03
    8.4804687706E-03    8.4424825549E-03    8.4046662467E-03    8.3670190956E-03
    8.3295403545E-03    8.2922292794E-03    8.2550851295E-03    8.2181071672E-03
    8.1812946579E-03    8.1446468702E-03    8.1081630759E-03    8.0718425498E-03
    8.0356845699E-03    7.9996884171E-03    7.9638533755E-03    7.9281787323E-03
    7.8926637776E-03    7.8573078047E-03    7.8221101098E-03    7.7870699921E-03
    7.7521867538E-03    7.7174597003E-03    7.6828881397E-03    7.6484713831E-03
    7.6142087446E-03    7.5800995414E-03    7.5461430934E-03    7.5123387235E-03
    7.4786857574E-03    7.4451835240E-03    7.4118313547E-03    7.3786285840E-03
    7.3455745492E-03    7.3126685905E-03    7.2799100508E-03    7.2472982760E-03
    7.2148326147E-03    7.1825124183E-03    7.1503370411E-03    7.1183058400E-03
    7.0864181748E-03    7.0546734081E-03    7.0230709052E-03    6.9916100340E-03
    6.9602901653E-03    6.9291106725E-03    6.8980709319E-03    6.8671703222E-03
    6.8364082251E-03    6.8057840247E-03    6.7752971079E-03    6.7449468642E-03
    6.7147326858E-03    6.6846539675E-03    6.6547101066E-03    6.6249005033E-03
    6.5952245600E-03    6.5656816821E-03    6.5362712773E-03    6.5069927559E-03
    6.4778455309E-03    6.4488290177E-03    6.4199426343E-03    6.3911858011E-03
    6.3625579413E-03    6.3340584803E-03    6.3056868462E-03    6.2774424695E-03
    6.2493247831E-03    6.2213332225E-03    6.1934672257E-03    6.1657262329E-03
    6.1381096869E-03    6.1106170330E-03    6.0832477187E-03    6.0560011941E-03
    6.0288769116E-03    6.0018743260E-03    5.9749928945E-03    5.9482320767E-03
    5.9215913344E-03    5.8950701318E-03    5.8686679356E-03    5.8423842148E-03
    5.8162184404E-03    5.7901700861E-03    5.7642386276E-03    5.7384235432E-03
    5.7127243132E-03    5.6871404203E-03    5.6616713495E-03    5.6363165878E-03
    5.6110756249E-03    5.5859479522E-03    5.5609330638E-03    5.5360304557E-03
    5.5112396263E-03    5.4865600759E-03    5.4619913074E-03    5.4375328257E-03
    5.4131841376E-03    5.3889447525E-03    5.3648141818E-03    5.3407919388E-03
    5.3168775393E-03    5.2930705009E-03    5.2693703437E-03    5.2457765894E-03
    5.2222887623E-03    5.1989063885E-03    5.1756289962E-03    5.1524561158E-03
    5.1293872796E-03    5.1064220221E-03    5.0835598797E-03    5.0608003910E-03
    5.0381430966E-03    5.0155875390E-03    4.9931332628E-03    4.9707798146E-03
    4.9485267429E-03    4.9263735984E-03    4.9043199336E-03    4.8823653030E-03
    4.8605092632E-03    4.8387513724E-03    4.8170911912E-03    4.7955282819E-03
    4.7740622087E-03    4.7526925377E-03    4.7314188371E-03    4.7102406769E-03
    4.6891576289E-03    4.6681692670E-03    4.6472751667E-03    4.6264749057E-03
    4.6057680632E-03    4.5851542207E-03    4.5646329611E-03    4.5442038695E-03
    4.5238665326E-03    4.5036205390E-03    4.4834654792E-03    4.4634009453E-03
    4.4434265315E-03    4.4235418335E-03    4.4037464491E-03    4.3840399775E-03
    4.3644220200E-03    4.3448921795E-03    4.3254500608E-03    4.3060952702E-03
    4.2868274160E-03    4.2676461081E-03    4.2485509581E-03    4.2295415795E-03
    4.2106175873E-03    4.1917785984E-03    4.1730242311E-03    4.1543541058E-03
    4.1357678442E-03    4.1172650700E-03    4.0988454083E-03    4.0805084861E-03
    4.0622539319E-03    4.0440813758E-03    4.0259904497E-03    4.0079807870E-03
    3.9900520229E-03    3.9722037941E-03    3.9544357388E-03    3.9367474971E-03
    3.9191387104E-03    3.9016090219E-03    3.8841580762E-03    3.8667855198E-03
    3.8494910003E-03    3.8322741674E-03    3.8151346718E-03    3.7980721663E-03
    3.7810863048E-03    3.7641767431E-03    3.7473431382E-03    3.7305851488E-03
    3.7139024352E-03    3.6972946591E-03    3.6807614836E-03    3.6643025735E-03
    3.6479175951E-03    3.6316062159E-03    3.6153681053E-03    3.5992029337E-03
    3.5831103735E-03    3.5670900981E-03    3.5511417826E-03    3.5352651035E-03
    3.5194597387E-03    3.5037253675E-03    3.4880616709E-03    3.4724683309E-03
    3.4569450312E-03    3.4414914569E-03    3.4261072945E-03    3.4107922317E-03
    3.3955459578E-03    3.3803681635E-03    3.3652585407E-03    3.3502167829E-03
    3.3352425848E-03    3.3203356425E-03    3.3054956536E-03    3.2907223168E-03
    3.2760153322E-03    3.2613744016E-03    3.2467992275E-03    3.2322895144E-03
    3.2178449675E-03    3.2034652939E-03    3.1891502015E-03    3.1748993998E-03
    3.1607125995E-03    3.1465895128E-03    3.1325298527E-03    3.1185333341E-03
    3.1045996727E-03    3.0907285856E-03    3.0769197913E-03    3.0631730095E-03
    3.0494879610E-03    3.0358643681E-03    3.0223019541E-03    3.0088004437E-03
    2.9953595627E-03    2.9819790384E-03    2.9686585989E-03    2.9553979740E-03
    2.9421968943E-03    2.9290550917E-03    2.9159722996E-03    2.9029482521E-03
    2.8899826850E-03    2.8770753348E-03    2.8642259396E-03    2.8514342384E-03
    2.8386999715E-03    2.8260228803E-03    2.8134027074E-03    2.8008391966E-03
    2.7883320926E-03    2.7758811417E-03    2.7634860908E-03    2.7511466884E-03
    2.7388626839E-03    2.7266338278E-03    2.7144598717E-03    2.7023405686E-03
    2.6902756723E-03    2.6782649378E-03    2.6663081211E-03    2.6544049796E-03
    2.6425552715E-03    2.6307587561E-03    2.6190151939E-03    2.6073243465E-03
    2.5956859764E-03    2.5840998474E-03    2.5725657240E-03    2.5610833722E-03
    2.5496525588E-03    2.5382730516E-03    2.5269446195E-03    2.5156670326E-03
    2.5044400618E-03    2.4932634792E-03    2.4821370577E-03    2.4710605716E-03
    2.4600337958E-03    2.4490565064E-03    2.4381284806E-03    2.4272494965E-03
    2.4164193331E-03    2.4056377705E-03    2.3949045900E-03    2.3842195734E-03
    2.3735825038E-03    2.3629931654E-03    2.3524513430E-03    2.3419568227E-03
    2.3315093913E-03    2.3211088368E-03    2.3107549479E-03    2.3004475145E-03
    2.2901863273E-03    2.2799711780E-03    2.2698018591E-03    2.2596781643E-03
    2.2495998880E-03    2.2395668256E-03    2.2295787734E-03    2.2196355286E-03
    2.2097368895E-03    2.1998826550E-03    2.1900726251E-03    2.1803066007E-03
    2.1705843836E-03    2.1609057763E-03    2.1512705825E-03    2.1416786065E-03
    2.1321296537E-03    2.1226235302E-03    2.1131600432E-03    2.1037390004E-03
    2.0943602108E-03    2.0850234839E-03    2.0757286302E-03    2.0664754612E-03
    2.0572637891E-03    2.0480934268E-03    2.0389641883E-03    2.0298758883E-03
    2.0208283425E-03    2.0118213671E-03    2.0028547795E-03    1.9939283977E-03
    1.9850420405E-03    1.9761955277E-03    1.9673886797E-03    1.9586213179E-03
    1.9498932644E-03    1.9412043421E-03    1.9325543746E-03    1.9239431867E-03
    1.9153706034E-03    1.9068364510E-03    1.8983405563E-03    1.8898827470E-03
    1.8814628514E-03    1.8730806988E-03    1.8647361192E-03    1.8564289433E-03
    1.8481590026E-03    1.8399261294E-03    1.8317301567E-03    1.8235709183E-03
    1.8154482487E-03    1.8073619832E-03    1.7993119577E-03    1.7912980091E-03
    1.7833199749E-03    1.7753776932E-03    1.7674710030E-03    1.7595997440E-03
    1.7517637567E-03    1.7439628820E-03    1.7361969619E-03    1.7284658389E-03
    1.7207693563E-03    1.7131073581E-03    1.7054796889E-03    1.6978861940E-03
    1.6903267197E-03    1.6828011126E-03    1.6753092203E-03    1.6678508907E-03
    1.6604259729E-03    1.6530343163E-03    1.6456757711E-03    1.6383501881E-03
    1.6310574190E-03    1.6237973159E-03    1.6165697317E-03    1.6093745200E-03
    1.6022115350E-03    1.5950806315E-03    1.5879816651E-03    1.5809144919E-03
    1.5738789687E-03    1.5668749531E-03    1.5599023031E-03    1.5529608775E-03
    1.5460505357E-03    1.5391711376E-03    1.5323225441E-03    1.5255046163E-03
    1.5187172161E-03    1.5119602061E-03    1.5052334495E-03    1.4985368101E-03
    1.4918701521E-03    1.4852333407E-03    1.4786262414E-03    1.4720487205E-03
    1.4655006447E-03    1.4589818816E-03    1.4524922990E-03    1.4460317658E-03
    1.4396001510E-03    1.4331973244E-03    1.4268231565E-03    1.4204775183E-03
    1.4141602812E-03    1.4078713175E-03    1.4016104998E-03    1.3953777015E-03
    1.3891727964E-03    1.3829956590E-03    1.3768461642E-03    1.3707241876E-03
    1.3646296053E-03    1.3585622941E-03    1.3525221312E-03    1.3465089943E-03
    1.3405227619E-03    1.3345633128E-03    1.3286305265E-03    1.3227242830E-03
    1.3168444628E-03    1.3109909469E-03    1.3051636171E-03    1.2993623554E-03
    1.2935870446E-03    1.2878375678E-03    1.2821138087E-03    1.2764156517E-03
    1.2707429815E-03    1.2650956835E-03    1.2594736434E-03    1.2538767476E-03
    1.2483048830E-03    1.2427579368E-03    1.2372357971E-03    1.2317383521E-03
    1.2262654908E-03    1.2208171026E-03    1.2153930772E-03    1.2099933052E-03
    1.2046176774E-03    1.1992660851E-03    1.1939384203E-03    1.1886345752E-03
    1.1833544428E-03    1.1780979164E-03    1.1728648896E-03    1.1676552570E-03
    1.1624689131E-03    1.1573057532E-03    1.1521656731E-03    1.1470485690E-03
    1.1419543374E-03    1.1368828755E-03    1.1318340810E-03    1.1268078517E-03
    1.1218040863E-03    1.1168226837E-03    1.1118635433E-03    1.1069265651E-03
    1.1020116492E-03    1.0971186966E-03    1.0922476085E-03    1.0873982864E-03
    1.0825706326E-03    1.0777645497E-03    1.0729799405E-03    1.0682167085E-03
    1.0634747577E-03    1.0587539923E-03    1.0540543170E-03    1.0493756371E-03
    1.0447178582E-03    1.0400808862E-03    1.0354646277E-03    1.0308689895E-03
    1.0262938788E-03    1.0217392035E-03    1.0172048717E-03    1.0126907918E-03
    1.0081968729E-03    1.0037230243E-03    9.9926915586E-04    9.9483517770E-04
    9.9042100044E-04    9.8602653507E-04    9.8165169300E-04    9.7729638602E-04
    9.7296052635E-04    9.6864402657E-04    9.6434679969E-04    9.6006875907E-04
    9.5580981851E-04    9.5156989216E-04
   </PP_CHI.4>
   <PP_CHI.5
       type="real"
       size="1766"
       columns="4"
       index="5"
       occupation=" 0.400"
       pseudo_energy="   -0.1887966721E+00"
       label="4D"
       l="2" >
    1.8026872313E-13    8.4887969335E-07    6.7894431626E-06    2.2905405431E-05
    5.4264559365E-05    1.0591085309E-04    1.8285651352E-04    2.9007423113E-04
    4.3248942088E-04    6.1497257426E-04    8.4233171651E-04    1.1193049837E-03
    1.4505533329E-03    1.8406533996E-03    2.2940905145E-03    2.8152518928E-03
    3.4084200085E-03    4.0777661636E-03    4.8273442653E-03    5.6610848205E-03
    6.5827891567E-03    7.5961238811E-03    8.7046155835E-03    9.9116457934E-03
    1.1220446197E-02    1.2634094124E-02    1.4155508304E-02    1.5787444905E-02
    1.7532493855E-02    1.9393075453E-02    2.1371437271E-02    2.3469651346E-02
    2.5689611679E-02    2.8033032026E-02    3.0501443988E-02    3.3096195406E-02
    3.5818449057E-02    3.8669181644E-02    4.1649183093E-02    4.4759056143E-02
    4.7999216236E-02    5.1369891695E-02    5.4871124199E-02    5.8502769540E-02
    6.2264498668E-02    6.6155799014E-02    7.0175976089E-02    7.4324155354E-02
    7.8599284352E-02    8.3000135108E-02    8.7525306779E-02    9.2173228547E-02
    9.6942162767E-02    1.0183020834E-01    1.0683530432E-01    1.1195523374E-01
    1.1718762767E-01    1.2252996943E-01    1.2797959908E-01    1.3353371805E-01
    1.3918939394E-01    1.4494356555E-01    1.5079304802E-01    1.5673453819E-01
    1.6276462003E-01    1.6887977025E-01    1.7507636408E-01    1.8135068109E-01
    1.8769891118E-01    1.9411716064E-01    2.0060145830E-01    2.0714776180E-01
    2.1375196383E-01    2.2040989858E-01    2.2711734810E-01    2.3387004872E-01
    2.4066369759E-01    2.4749395910E-01    2.5435647143E-01    2.6124685294E-01
    2.6816070872E-01    2.7509363693E-01    2.8204123523E-01    2.8899910709E-01
    2.9596286804E-01    3.0292815183E-01    3.0989061655E-01    3.1684595060E-01
    3.2378987856E-01    3.3071816692E-01    3.3762662976E-01    3.4451113414E-01
    3.5136760550E-01    3.5819203275E-01    3.6498047330E-01    3.7172905783E-01
    3.7843399495E-01    3.8509157555E-01    3.9169817708E-01    3.9825026750E-01
    4.0474440908E-01    4.1117726197E-01    4.1754558751E-01    4.2384625136E-01
    4.3007622631E-01    4.3623259496E-01    4.4231255204E-01    4.4831340660E-01
    4.5423258387E-01    4.6006762691E-01    4.6581619803E-01    4.7147607991E-01
    4.7704517657E-01    4.8252151399E-01    4.8790324061E-01    4.9318862748E-01
    4.9837606830E-01    5.0346407914E-01    5.0845129799E-01    5.1333648411E-01
    5.1811851714E-01    5.2279639602E-01    5.2736923777E-01    5.3183627603E-01
    5.3619685940E-01    5.4045044976E-01    5.4459662024E-01    5.4863505321E-01
    5.5256553800E-01    5.5638796863E-01    5.6010234126E-01    5.6370875169E-01
    5.6720739264E-01    5.7059855103E-01    5.7388260509E-01    5.7706002148E-01
    5.8013135230E-01    5.8309723206E-01    5.8595837462E-01    5.8871557004E-01
    5.9136968148E-01    5.9392164204E-01    5.9637245153E-01    5.9872317337E-01
    6.0097493131E-01    6.0312890637E-01    6.0518633356E-01    6.0714849881E-01
    6.0901673581E-01    6.1079242294E-01    6.1247698015E-01    6.1407186598E-01
    6.1557857453E-01    6.1699863251E-01    6.1833359634E-01    6.1958504926E-01
    6.2075459853E-01    6.2184387265E-01    6.2285451862E-01    6.2378819932E-01
    6.2464659083E-01    6.2543137992E-01    6.2614426152E-01    6.2678693624E-01
    6.2736110803E-01    6.2786848178E-01    6.2831076107E-01    6.2868964590E-01
    6.2900683056E-01    6.2926400149E-01    6.2946283522E-01    6.2960499636E-01
    6.2969213570E-01    6.2972588827E-01    6.2970787156E-01    6.2963968374E-01
    6.2952290200E-01    6.2935908086E-01    6.2914975066E-01    6.2889641604E-01
    6.2860055452E-01    6.2826361514E-01    6.2788701718E-01    6.2747214899E-01
    6.2702036678E-01    6.2653299369E-01    6.2601131873E-01    6.2545659596E-01
    6.2487004368E-01    6.2425284374E-01    6.2360614095E-01    6.2293104252E-01
    6.2222861772E-01    6.2149989748E-01    6.2074587427E-01    6.1996750190E-01
    6.1916569555E-01    6.1834133186E-01    6.1749524913E-01    6.1662824759E-01
    6.1574108984E-01    6.1483450132E-01    6.1390917095E-01    6.1296575183E-01
    6.1200486200E-01    6.1102708540E-01    6.1003297283E-01    6.0902304304E-01
    6.0799778389E-01    6.0695765360E-01    6.0590308204E-01    6.0483447219E-01
    6.0375220151E-01    6.0265662351E-01    6.0154806927E-01    6.0042684908E-01
    5.9929325405E-01    5.9814755779E-01    5.9699001809E-01    5.9582087859E-01
    5.9464037055E-01    5.9344871446E-01    5.9224612176E-01    5.9103279648E-01
    5.8980893685E-01    5.8857473687E-01    5.8733038788E-01    5.8607607992E-01
    5.8481200323E-01    5.8353834950E-01    5.8225531310E-01    5.8096309226E-01
    5.7966189007E-01    5.7835191542E-01    5.7703338380E-01    5.7570651800E-01
    5.7437154863E-01    5.7302871461E-01    5.7167826341E-01    5.7032045127E-01
    5.6895554317E-01    5.6758381280E-01    5.6620554026E-01    5.6482100774E-01
    5.6343049195E-01    5.6203426150E-01    5.6063257726E-01    5.5922569518E-01
    5.5781386561E-01    5.5639733219E-01    5.5497633267E-01    5.5355109888E-01
    5.5212185668E-01    5.5068882604E-01    5.4925222111E-01    5.4781225026E-01
    5.4636911609E-01    5.4492301554E-01    5.4347413988E-01    5.4202267479E-01
    5.4056880040E-01    5.3911269135E-01    5.3765451686E-01    5.3619444076E-01
    5.3473262158E-01    5.3326921259E-01    5.3180436190E-01    5.3033821251E-01
    5.2887090241E-01    5.2740256465E-01    5.2593332742E-01    5.2446331417E-01
    5.2299264366E-01    5.2152143011E-01    5.2004978327E-01    5.1857780853E-01
    5.1710560704E-01    5.1563327583E-01    5.1416090790E-01    5.1268859236E-01
    5.1121641455E-01    5.0974445616E-01    5.0827279534E-01    5.0680150684E-01
    5.0533066214E-01    5.0386032955E-01    5.0239057436E-01    5.0092145896E-01
    4.9945304294E-01    4.9798538326E-01    4.9651853431E-01    4.9505254809E-01
    4.9358747425E-01    4.9212336028E-01    4.9066025159E-01    4.8919819159E-01
    4.8773722183E-01    4.8627738210E-01    4.8481871049E-01    4.8336124353E-01
    4.8190501625E-01    4.8045006227E-01    4.7899641390E-01    4.7754410219E-01
    4.7609315703E-01    4.7464360721E-01    4.7319548049E-01    4.7174880364E-01
    4.7030360256E-01    4.6885990228E-01    4.6741772702E-01    4.6597710026E-01
    4.6453804480E-01    4.6310058277E-01    4.6166473567E-01    4.6023052444E-01
    4.5879796949E-01    4.5736709071E-01    4.5593790751E-01    4.5451043886E-01
    4.5308470333E-01    4.5166071905E-01    4.5023850383E-01    4.4881807509E-01
    4.4739944995E-01    4.4598264519E-01    4.4456767731E-01    4.4315456254E-01
    4.4174331682E-01    4.4033395586E-01    4.3892649511E-01    4.3752094981E-01
    4.3611733496E-01    4.3471566536E-01    4.3331595562E-01    4.3191822015E-01
    4.3052247315E-01    4.2912872868E-01    4.2773700059E-01    4.2634730260E-01
    4.2495964823E-01    4.2357405088E-01    4.2219052377E-01    4.2080907997E-01
    4.1942973243E-01    4.1805249394E-01    4.1667737716E-01    4.1530439461E-01
    4.1393355869E-01    4.1256488165E-01    4.1119837564E-01    4.0983405267E-01
    4.0847192463E-01    4.0711200330E-01    4.0575430034E-01    4.0439882729E-01
    4.0304559559E-01    4.0169461656E-01    4.0034590142E-01    3.9899946126E-01
    3.9765530710E-01    3.9631344984E-01    3.9497390027E-01    3.9363666909E-01
    3.9230176690E-01    3.9096920422E-01    3.8963899144E-01    3.8831113889E-01
    3.8698565679E-01    3.8566255528E-01    3.8434184439E-01    3.8302353409E-01
    3.8170763426E-01    3.8039415467E-01    3.7908310504E-01    3.7777449498E-01
    3.7646833403E-01    3.7516463167E-01    3.7386339727E-01    3.7256464014E-01
    3.7126836951E-01    3.6997459454E-01    3.6868332432E-01    3.6739456785E-01
    3.6610833409E-01    3.6482463190E-01    3.6354347008E-01    3.6226485738E-01
    3.6098880246E-01    3.5971531392E-01    3.5844440031E-01    3.5717607010E-01
    3.5591033171E-01    3.5464719348E-01    3.5338666370E-01    3.5212875061E-01
    3.5087346238E-01    3.4962080712E-01    3.4837079287E-01    3.4712342765E-01
    3.4587871938E-01    3.4463667595E-01    3.4339730520E-01    3.4216061488E-01
    3.4092661272E-01    3.3969530639E-01    3.3846670349E-01    3.3724081158E-01
    3.3601763816E-01    3.3479719068E-01    3.3357947655E-01    3.3236450309E-01
    3.3115227762E-01    3.2994280736E-01    3.2873609950E-01    3.2753216118E-01
    3.2633099948E-01    3.2513262144E-01    3.2393703402E-01    3.2274424415E-01
    3.2155425872E-01    3.2036708452E-01    3.1918272834E-01    3.1800119687E-01
    3.1682249678E-01    3.1564663467E-01    3.1447361708E-01    3.1330345051E-01
    3.1213614140E-01    3.1097169611E-01    3.0981012098E-01    3.0865142226E-01
    3.0749560617E-01    3.0634267883E-01    3.0519264635E-01    3.0404551474E-01
    3.0290128997E-01    3.0175997794E-01    3.0062158448E-01    2.9948611537E-01
    2.9835357631E-01    2.9722397294E-01    2.9609731085E-01    2.9497359552E-01
    2.9385283241E-01    2.9273502688E-01    2.9162018422E-01    2.9050830965E-01
    2.8939940833E-01    2.8829348533E-01    2.8719054565E-01    2.8609059422E-01
    2.8499363587E-01    2.8389967538E-01    2.8280871743E-01    2.8172076663E-01
    2.8063582749E-01    2.7955390446E-01    2.7847500189E-01    2.7739912405E-01
    2.7632627512E-01    2.7525645918E-01    2.7418968026E-01    2.7312594225E-01
    2.7206524898E-01    2.7100760417E-01    2.6995301147E-01    2.6890147440E-01
    2.6785299642E-01    2.6680758086E-01    2.6576523098E-01    2.6472594992E-01
    2.6368974073E-01    2.6265660636E-01    2.6162654965E-01    2.6059957333E-01
    2.5957568006E-01    2.5855487235E-01    2.5753715263E-01    2.5652252322E-01
    2.5551098633E-01    2.5450254407E-01    2.5349719841E-01    2.5249495125E-01
    2.5149580436E-01    2.5049975939E-01    2.4950681790E-01    2.4851698131E-01
    2.4753025095E-01    2.4654662803E-01    2.4556611363E-01    2.4458870874E-01
    2.4361441422E-01    2.4264323081E-01    2.4167515915E-01    2.4071019974E-01
    2.3974835298E-01    2.3878961916E-01    2.3783399844E-01    2.3688149085E-01
    2.3593209633E-01    2.3498581469E-01    2.3404264561E-01    2.3310258867E-01
    2.3216564333E-01    2.3123180892E-01    2.3030108466E-01    2.2937346965E-01
    2.2844896288E-01    2.2752756321E-01    2.2660926939E-01    2.2569408006E-01
    2.2478199372E-01    2.2387300878E-01    2.2296712352E-01    2.2206433611E-01
    2.2116464460E-01    2.2026804692E-01    2.1937454090E-01    2.1848412424E-01
    2.1759679455E-01    2.1671254930E-01    2.1583138587E-01    2.1495330151E-01
    2.1407829337E-01    2.1320635849E-01    2.1233749380E-01    2.1147169612E-01
    2.1060896216E-01    2.0974928853E-01    2.0889267172E-01    2.0803910812E-01
    2.0718859404E-01    2.0634112564E-01    2.0549669902E-01    2.0465531015E-01
    2.0381695492E-01    2.0298162910E-01    2.0214932837E-01    2.0132004832E-01
    2.0049378444E-01    1.9967053210E-01    1.9885028662E-01    1.9803304318E-01
    1.9721879691E-01    1.9640754281E-01    1.9559927582E-01    1.9479399077E-01
    1.9399168242E-01    1.9319234542E-01    1.9239597436E-01    1.9160256373E-01
    1.9081210793E-01    1.9002460130E-01    1.8924003808E-01    1.8845841244E-01
    1.8767971847E-01    1.8690395018E-01    1.8613110150E-01    1.8536116629E-01
    1.8459413834E-01    1.8383001137E-01    1.8306877902E-01    1.8231043485E-01
    1.8155497238E-01    1.8080238505E-01    1.8005266622E-01    1.7930580919E-01
    1.7856180722E-01    1.7782065349E-01    1.7708234110E-01    1.7634686313E-01
    1.7561421257E-01    1.7488438237E-01    1.7415736541E-01    1.7343315452E-01
    1.7271174249E-01    1.7199312204E-01    1.7127728585E-01    1.7056422654E-01
    1.6985393669E-01    1.6914640883E-01    1.6844163543E-01    1.6773960895E-01
    1.6704032176E-01    1.6634376623E-01    1.6564993466E-01    1.6495881932E-01
    1.6427041244E-01    1.6358470622E-01    1.6290169280E-01    1.6222136431E-01
    1.6154371284E-01    1.6086873042E-01    1.6019640908E-01    1.5952674082E-01
    1.5885971758E-01    1.5819533129E-01    1.5753357386E-01    1.5687443715E-01
    1.5621791302E-01    1.5556399328E-01    1.5491266973E-01    1.5426393416E-01
    1.5361777831E-01    1.5297419392E-01    1.5233317270E-01    1.5169470634E-01
    1.5105878652E-01    1.5042540491E-01    1.4979455314E-01    1.4916622284E-01
    1.4854040563E-01    1.4791709311E-01    1.4729627688E-01    1.4667794850E-01
    1.4606209954E-01    1.4544872157E-01    1.4483780613E-01    1.4422934477E-01
    1.4362332901E-01    1.4301975039E-01    1.4241860044E-01    1.4181987065E-01
    1.4122355256E-01    1.4062963768E-01    1.4003811750E-01    1.3944898355E-01
    1.3886222731E-01    1.3827784032E-01    1.3769581406E-01    1.3711614004E-01
    1.3653880979E-01    1.3596381481E-01    1.3539114661E-01    1.3482079672E-01
    1.3425275667E-01    1.3368701798E-01    1.3312357219E-01    1.3256241085E-01
    1.3200352550E-01    1.3144690771E-01    1.3089254903E-01    1.3034044106E-01
    1.2979057536E-01    1.2924294354E-01    1.2869753720E-01    1.2815434795E-01
    1.2761336744E-01    1.2707458729E-01    1.2653799917E-01    1.2600359473E-01
    1.2547136566E-01    1.2494130365E-01    1.2441340042E-01    1.2388764767E-01
    1.2336403716E-01    1.2284256064E-01    1.2232320988E-01    1.2180597666E-01
    1.2129085280E-01    1.2077783011E-01    1.2026690044E-01    1.1975805564E-01
    1.1925128759E-01    1.1874658819E-01    1.1824394934E-01    1.1774336300E-01
    1.1724482110E-01    1.1674831563E-01    1.1625383858E-01    1.1576138197E-01
    1.1527093783E-01    1.1478249822E-01    1.1429605523E-01    1.1381160095E-01
    1.1332912752E-01    1.1284862707E-01    1.1237009178E-01    1.1189351384E-01
    1.1141888547E-01    1.1094619891E-01    1.1047544641E-01    1.1000662026E-01
    1.0953971279E-01    1.0907471631E-01    1.0861162319E-01    1.0815042582E-01
    1.0769111660E-01    1.0723368797E-01    1.0677813238E-01    1.0632444231E-01
    1.0587261029E-01    1.0542262883E-01    1.0497449051E-01    1.0452818790E-01
    1.0408371362E-01    1.0364106031E-01    1.0320022063E-01    1.0276118727E-01
    1.0232395294E-01    1.0188851039E-01    1.0145485239E-01    1.0102297173E-01
    1.0059286124E-01    1.0016451376E-01    9.9737922164E-02    9.9313079363E-02
    9.8889978281E-02    9.8468611875E-02    9.8048973128E-02    9.7631055050E-02
    9.7214850677E-02    9.6800353073E-02    9.6387555330E-02    9.5976450565E-02
    9.5567031923E-02    9.5159292578E-02    9.4753225728E-02    9.4348824600E-02
    9.3946082448E-02    9.3544992553E-02    9.3145548222E-02    9.2747742791E-02
    9.2351569623E-02    9.1957022106E-02    9.1564093657E-02    9.1172777720E-02
    9.0783067765E-02    9.0394957290E-02    9.0008439820E-02    8.9623508905E-02
    8.9240158124E-02    8.8858381083E-02    8.8478171414E-02    8.8099522775E-02
    8.7722428852E-02    8.7346883357E-02    8.6972880030E-02    8.6600412635E-02
    8.6229474965E-02    8.5860060837E-02    8.5492164097E-02    8.5125778616E-02
    8.4760898290E-02    8.4397517044E-02    8.4035628826E-02    8.3675227613E-02
    8.3316307406E-02    8.2958862232E-02    8.2602886145E-02    8.2248373223E-02
    8.1895317570E-02    8.1543713318E-02    8.1193554621E-02    8.0844835660E-02
    8.0497550642E-02    8.0151693797E-02    7.9807259382E-02    7.9464241679E-02
    7.9122634994E-02    7.8782433657E-02    7.8443632025E-02    7.8106224479E-02
    7.7770205423E-02    7.7435569286E-02    7.7102310523E-02    7.6770423611E-02
    7.6439903052E-02    7.6110743372E-02    7.5782939122E-02    7.5456484874E-02
    7.5131375227E-02    7.4807604801E-02    7.4485168241E-02    7.4164060214E-02
    7.3844275412E-02    7.3525808549E-02    7.3208654363E-02    7.2892807613E-02
    7.2578263082E-02    7.2265015577E-02    7.1953059925E-02    7.1642390978E-02
    7.1333003608E-02    7.1024892712E-02    7.0718053206E-02    7.0412480031E-02
    7.0108168148E-02    6.9805112540E-02    6.9503308213E-02    6.9202750193E-02
    6.8903433529E-02    6.8605353290E-02    6.8308504566E-02    6.8012882470E-02
    6.7718482135E-02    6.7425298715E-02    6.7133327383E-02    6.6842563337E-02
    6.6553001791E-02    6.6264637981E-02    6.5977467166E-02    6.5691484621E-02
    6.5406685644E-02    6.5123065553E-02    6.4840619683E-02    6.4559343392E-02
    6.4279232056E-02    6.4000281073E-02    6.3722485856E-02    6.3445841841E-02
    6.3170344483E-02    6.2895989254E-02    6.2622771647E-02    6.2350687174E-02
    6.2079731363E-02    6.1809899765E-02    6.1541187947E-02    6.1273591494E-02
    6.1007106011E-02    6.0741727120E-02    6.0477450463E-02    6.0214271697E-02
    5.9952186501E-02    5.9691190568E-02    5.9431279611E-02    5.9172449361E-02
    5.8914695565E-02    5.8658013988E-02    5.8402400412E-02    5.8147850639E-02
    5.7894360484E-02    5.7641925781E-02    5.7390542383E-02    5.7140206156E-02
    5.6890912985E-02    5.6642658773E-02    5.6395439436E-02    5.6149250909E-02
    5.5904089144E-02    5.5659950106E-02    5.5416829781E-02    5.5174724167E-02
    5.4933629279E-02    5.4693541150E-02    5.4454455826E-02    5.4216369372E-02
    5.3979277864E-02    5.3743177399E-02    5.3508064085E-02    5.3273934049E-02
    5.3040783430E-02    5.2808608385E-02    5.2577405084E-02    5.2347169713E-02
    5.2117898474E-02    5.1889587583E-02    5.1662233270E-02    5.1435831781E-02
    5.1210379376E-02    5.0985872329E-02    5.0762306931E-02    5.0539679484E-02
    5.0317986307E-02    5.0097223732E-02    4.9877388106E-02    4.9658475788E-02
    4.9440483154E-02    4.9223406593E-02    4.9007242505E-02    4.8791987309E-02
    4.8577637434E-02    4.8364189324E-02    4.8151639435E-02    4.7939984240E-02
    4.7729220221E-02    4.7519343877E-02    4.7310351718E-02    4.7102240270E-02
    4.6895006068E-02    4.6688645665E-02    4.6483155622E-02    4.6278532518E-02
    4.6074772941E-02    4.5871873493E-02    4.5669830790E-02    4.5468641459E-02
    4.5268302141E-02    4.5068809489E-02    4.4870160169E-02    4.4672350858E-02
    4.4475378247E-02    4.4279239039E-02    4.4083929948E-02    4.3889447703E-02
    4.3695789043E-02    4.3502950719E-02    4.3310929495E-02    4.3119722146E-02
    4.2929325461E-02    4.2739736239E-02    4.2550951291E-02    4.2362967440E-02
    4.2175781521E-02    4.1989390381E-02    4.1803790877E-02    4.1618979880E-02
    4.1434954270E-02    4.1251710940E-02    4.1069246795E-02    4.0887558749E-02
    4.0706643730E-02    4.0526498675E-02    4.0347120533E-02    4.0168506266E-02
    3.9990652843E-02    3.9813557248E-02    3.9637216474E-02    3.9461627526E-02
    3.9286787419E-02    3.9112693180E-02    3.8939341844E-02    3.8766730461E-02
    3.8594856089E-02    3.8423715797E-02    3.8253306664E-02    3.8083625783E-02
    3.7914670253E-02    3.7746437186E-02    3.7578923704E-02    3.7412126940E-02
    3.7246044036E-02    3.7080672147E-02    3.6916008434E-02    3.6752050073E-02
    3.6588794247E-02    3.6426238150E-02    3.6264378987E-02    3.6103213971E-02
    3.5942740328E-02    3.5782955292E-02    3.5623856108E-02    3.5465440029E-02
    3.5307704321E-02    3.5150646257E-02    3.4994263122E-02    3.4838552209E-02
    3.4683510822E-02    3.4529136274E-02    3.4375425888E-02    3.4222376998E-02
    3.4069986944E-02    3.3918253080E-02    3.3767172766E-02    3.3616743373E-02
    3.3466962282E-02    3.3317826883E-02    3.3169334574E-02    3.3021482765E-02
    3.2874268873E-02    3.2727690326E-02    3.2581744559E-02    3.2436429020E-02
    3.2291741163E-02    3.2147678451E-02    3.2004238359E-02    3.1861418368E-02
    3.1719215971E-02    3.1577628667E-02    3.1436653967E-02    3.1296289389E-02
    3.1156532459E-02    3.1017380716E-02    3.0878831704E-02    3.0740882977E-02
    3.0603532098E-02    3.0466776640E-02    3.0330614182E-02    3.0195042315E-02
    3.0060058636E-02    2.9925660751E-02    2.9791846278E-02    2.9658612839E-02
    2.9525958067E-02    2.9393879603E-02    2.9262375098E-02    2.9131442210E-02
    2.9001078604E-02    2.8871281958E-02    2.8742049954E-02    2.8613380285E-02
    2.8485270650E-02    2.8357718760E-02    2.8230722331E-02    2.8104279088E-02
    2.7978386766E-02    2.7853043106E-02    2.7728245859E-02    2.7603992784E-02
    2.7480281646E-02    2.7357110221E-02    2.7234476291E-02    2.7112377648E-02
    2.6990812091E-02    2.6869777426E-02    2.6749271469E-02    2.6629292043E-02
    2.6509836979E-02    2.6390904117E-02    2.6272491302E-02    2.6154596391E-02
    2.6037217245E-02    2.5920351735E-02    2.5803997740E-02    2.5688153146E-02
    2.5572815847E-02    2.5457983745E-02    2.5343654748E-02    2.5229826775E-02
    2.5116497750E-02    2.5003665606E-02    2.4891328282E-02    2.4779483727E-02
    2.4668129895E-02    2.4557264750E-02    2.4446886262E-02    2.4336992410E-02
    2.4227581177E-02    2.4118650559E-02    2.4010198554E-02    2.3902223170E-02
    2.3794722423E-02    2.3687694336E-02    2.3581136938E-02    2.3475048266E-02
    2.3369426365E-02    2.3264269288E-02    2.3159575092E-02    2.3055341845E-02
    2.2951567620E-02    2.2848250498E-02    2.2745388567E-02    2.2642979922E-02
    2.2541022666E-02    2.2439514907E-02    2.2338454763E-02    2.2237840356E-02
    2.2137669818E-02    2.2037941286E-02    2.1938652905E-02    2.1839802826E-02
    2.1741389209E-02    2.1643410218E-02    2.1545864027E-02    2.1448748814E-02
    2.1352062766E-02    2.1255804076E-02    2.1159970944E-02    2.1064561576E-02
    2.0969574188E-02    2.0875006998E-02    2.0780858234E-02    2.0687126129E-02
    2.0593808925E-02    2.0500904869E-02    2.0408412215E-02    2.0316329222E-02
    2.0224654160E-02    2.0133385300E-02    2.0042520924E-02    1.9952059320E-02
    1.9861998779E-02    1.9772337603E-02    1.9683074099E-02    1.9594206579E-02
    1.9505733362E-02    1.9417652776E-02    1.9329963152E-02    1.9242662829E-02
    1.9155750153E-02    1.9069223475E-02    1.8983081154E-02    1.8897321553E-02
    1.8811943043E-02    1.8726944002E-02    1.8642322812E-02    1.8558077864E-02
    1.8474207552E-02    1.8390710279E-02    1.8307584452E-02    1.8224828487E-02
    1.8142440803E-02    1.8060419828E-02    1.7978763993E-02    1.7897471739E-02
    1.7816541509E-02    1.7735971755E-02    1.7655760934E-02    1.7575907508E-02
    1.7496409948E-02    1.7417266727E-02    1.7338476327E-02    1.7260037235E-02
    1.7181947944E-02    1.7104206953E-02    1.7026812765E-02    1.6949763893E-02
    1.6873058852E-02    1.6796696164E-02    1.6720674358E-02    1.6644991967E-02
    1.6569647532E-02    1.6494639597E-02    1.6419966713E-02    1.6345627438E-02
    1.6271620335E-02    1.6197943970E-02    1.6124596919E-02    1.6051577761E-02
    1.5978885081E-02    1.5906517470E-02    1.5834473524E-02    1.5762751846E-02
    1.5691351043E-02    1.5620269727E-02    1.5549506519E-02    1.5479060041E-02
    1.5408928924E-02    1.5339111802E-02    1.5269607317E-02    1.5200414113E-02
    1.5131530843E-02    1.5062956163E-02    1.4994688736E-02    1.4926727228E-02
    1.4859070313E-02    1.4791716669E-02    1.4724664980E-02    1.4657913934E-02
    1.4591462225E-02    1.4525308552E-02    1.4459451621E-02    1.4393890141E-02
    1.4328622827E-02    1.4263648399E-02    1.4198965582E-02    1.4134573108E-02
    1.4070469711E-02    1.4006654132E-02    1.3943125117E-02    1.3879881417E-02
    1.3816921788E-02    1.3754244991E-02    1.3691849792E-02    1.3629734962E-02
    1.3567899277E-02    1.3506341518E-02    1.3445060472E-02    1.3384054928E-02
    1.3323323684E-02    1.3262865539E-02    1.3202679299E-02    1.3142763775E-02
    1.3083117783E-02    1.3023740142E-02    1.2964629677E-02    1.2905785219E-02
    1.2847205603E-02    1.2788889666E-02    1.2730836255E-02    1.2673044217E-02
    1.2615512407E-02    1.2558239682E-02    1.2501224906E-02    1.2444466947E-02
    1.2387964676E-02    1.2331716972E-02    1.2275722715E-02    1.2219980793E-02
    1.2164490095E-02    1.2109249518E-02    1.2054257960E-02    1.1999514328E-02
    1.1945017530E-02    1.1890766480E-02    1.1836760095E-02    1.1782997298E-02
    1.1729477017E-02    1.1676198183E-02    1.1623159732E-02    1.1570360604E-02
    1.1517799744E-02    1.1465476101E-02    1.1413388628E-02    1.1361536284E-02
    1.1309918031E-02    1.1258532835E-02    1.1207379668E-02    1.1156457503E-02
    1.1105765322E-02    1.1055302106E-02    1.1005066845E-02    1.0955058530E-02
    1.0905276158E-02    1.0855718730E-02    1.0806385249E-02    1.0757274726E-02
    1.0708386173E-02    1.0659718607E-02    1.0611271050E-02    1.0563042527E-02
    1.0515032067E-02    1.0467238705E-02    1.0419661478E-02    1.0372299427E-02
    1.0325151599E-02    1.0278217043E-02    1.0231494813E-02    1.0184983967E-02
    1.0138683567E-02    1.0092592678E-02    1.0046710369E-02    1.0001035716E-02
    9.9555677936E-03    9.9103056851E-03    9.8652484753E-03    9.8203952533E-03
    9.7757451120E-03    9.7312971485E-03    9.6870504632E-03    9.6430041609E-03
    9.5991573496E-03    9.5555091416E-03    9.5120586526E-03    9.4688050023E-03
    9.4257473140E-03    9.3828847148E-03    9.3402163354E-03    9.2977413104E-03
    9.2554587780E-03    9.2133678799E-03    9.1714677617E-03    9.1297575725E-03
    9.0882364652E-03    9.0469035960E-03    9.0057581250E-03    8.9647992158E-03
    8.9240260356E-03    8.8834377550E-03    8.8430335483E-03    8.8028125933E-03
    8.7627740714E-03    8.7229171674E-03    8.6832410696E-03    8.6437449697E-03
    8.6044280631E-03    8.5652895485E-03    8.5263286281E-03    8.4875445073E-03
    8.4489363953E-03    8.4105035044E-03    8.3722450505E-03    8.3341602525E-03
    8.2962483332E-03    8.2585085183E-03    8.2209400370E-03    8.1835421220E-03
    8.1463140089E-03    8.1092549369E-03    8.0723641484E-03    8.0356408892E-03
    7.9990844080E-03    7.9626939572E-03    7.9264687921E-03    7.8904081713E-03
    7.8545113566E-03    7.8187776132E-03    7.7832062091E-03    7.7477964158E-03
    7.7125475078E-03    7.6774587627E-03    7.6425294614E-03    7.6077588878E-03
    7.5731463289E-03    7.5386910747E-03    7.5043924186E-03    7.4702496568E-03
    7.4362620886E-03    7.4024290163E-03    7.3687497455E-03    7.3352235844E-03
    7.3018498445E-03    7.2686278403E-03    7.2355568891E-03    7.2026363114E-03
    7.1698654305E-03    7.1372435726E-03    7.1047700671E-03    7.0724442460E-03
    7.0402654444E-03    7.0082330003E-03    6.9763462545E-03    6.9446045508E-03
    6.9130072358E-03    6.8815536589E-03    6.8502431725E-03    6.8190751316E-03
    6.7880488942E-03    6.7571638211E-03    6.7264192759E-03    6.6958146248E-03
    6.6653492370E-03    6.6350224844E-03    6.6048337416E-03    6.5747823861E-03
    6.5448677978E-03    6.5150893597E-03    6.4854464572E-03    6.4559384786E-03
    6.4265648148E-03    6.3973248595E-03    6.3682180088E-03    6.3392436617E-03
    6.3104012197E-03    6.2816900871E-03    6.2531096705E-03    6.2246593795E-03
    6.1963386260E-03    6.1681468247E-03    6.1400833927E-03    6.1121477497E-03
    6.0843393182E-03    6.0566575228E-03    6.0291017911E-03    6.0016715529E-03
    5.9743662407E-03    5.9471852893E-03    5.9201281362E-03    5.8931942214E-03
    5.8663829871E-03    5.8396938783E-03    5.8131263422E-03    5.7866798286E-03
    5.7603537896E-03    5.7341476799E-03    5.7080609564E-03    5.6820930786E-03
    5.6562435083E-03    5.6305117096E-03    5.6048971492E-03    5.5793992958E-03
    5.5540176209E-03    5.5287515980E-03    5.5036007031E-03    5.4785644144E-03
    5.4536422126E-03    5.4288335805E-03    5.4041380034E-03    5.3795549686E-03
    5.3550839660E-03    5.3307244875E-03    5.3064760274E-03    5.2823380823E-03
    5.2583101508E-03    5.2343917341E-03    5.2105823352E-03    5.1868814596E-03
    5.1632886148E-03    5.1398033108E-03    5.1164250594E-03    5.0931533749E-03
    5.0699877734E-03    5.0469277736E-03    5.0239728961E-03    5.0011226635E-03
    4.9783766007E-03    4.9557342348E-03    4.9331950948E-03    4.9107587120E-03
    4.8884246197E-03    4.8661923532E-03    4.8440614499E-03    4.8220314495E-03
    4.8001018934E-03    4.7782723253E-03    4.7565422908E-03    4.7349113376E-03
    4.7133790155E-03    4.6919448761E-03    4.6706084732E-03    4.6493693624E-03
    4.6282271016E-03    4.6071812503E-03    4.5862313702E-03    4.5653770250E-03
    4.5446177801E-03    4.5239532032E-03    4.5033828636E-03    4.4829063327E-03
    4.4625231839E-03    4.4422329922E-03    4.4220353350E-03    4.4019297910E-03
    4.3819159413E-03    4.3619933686E-03    4.3421616575E-03    4.3224203946E-03
    4.3027691682E-03    4.2832075685E-03    4.2637351876E-03    4.2443516192E-03
    4.2250564592E-03    4.2058493051E-03    4.1867297561E-03    4.1676974134E-03
    4.1487518799E-03    4.1298927603E-03    4.1111196610E-03    4.0924321904E-03
    4.0738299584E-03    4.0553125767E-03    4.0368796589E-03    4.0185308202E-03
    4.0002656776E-03    3.9820838497E-03    3.9639849571E-03    3.9459686217E-03
    3.9280344675E-03    3.9101821199E-03    3.8924112061E-03    3.8747213551E-03
    3.8571121973E-03    3.8395833650E-03    3.8221344920E-03    3.8047652139E-03
    3.7874751679E-03    3.7702639927E-03    3.7531313287E-03    3.7360768181E-03
    3.7191001045E-03    3.7022008331E-03    3.6853786508E-03    3.6686332061E-03
    3.6519641491E-03    3.6353711314E-03    3.6188538061E-03    3.6024118280E-03
    3.5860448536E-03    3.5697525406E-03    3.5535345485E-03    3.5373905382E-03
    3.5213201723E-03    3.5053231147E-03    3.4893990310E-03    3.4735475883E-03
    3.4577684551E-03    3.4420613015E-03    3.4264257990E-03    3.4108616206E-03
    3.3953684408E-03    3.3799459358E-03    3.3645937828E-03    3.3493116607E-03
    3.3340992501E-03    3.3189562326E-03    3.3038822915E-03    3.2888771116E-03
    3.2739403788E-03    3.2590717808E-03    3.2442710064E-03    3.2295377461E-03
    3.2148716916E-03    3.2002725361E-03    3.1857399740E-03    3.1712737014E-03
    3.1568734155E-03    3.1425388151E-03    3.1282696001E-03    3.1140654719E-03
    3.0999261334E-03    3.0858512886E-03    3.0718406430E-03    3.0578939034E-03
    3.0440107778E-03    3.0301909758E-03    3.0164342081E-03    3.0027401867E-03
    2.9891086250E-03    2.9755392377E-03    2.9620317408E-03    2.9485858516E-03
    2.9352012886E-03    2.9218777715E-03    2.9086150216E-03    2.8954127611E-03
    2.8822707138E-03    2.8691886044E-03    2.8561661592E-03    2.8432031054E-03
    2.8302991717E-03    2.8174540880E-03    2.8046675853E-03    2.7919393959E-03
    2.7792692534E-03    2.7666568924E-03    2.7541020489E-03    2.7416044600E-03
    2.7291638641E-03    2.7167800007E-03    2.7044526104E-03    2.6921814352E-03
    2.6799662181E-03    2.6678067033E-03    2.6557026363E-03    2.6436537636E-03
    2.6316598328E-03    2.6197205929E-03    2.6078357938E-03    2.5960051867E-03
    2.5842285238E-03    2.5725055585E-03    2.5608360453E-03    2.5492197400E-03
    2.5376563991E-03    2.5261457806E-03    2.5146876434E-03    2.5032817477E-03
    2.4919278544E-03    2.4806257259E-03    2.4693751255E-03    2.4581758177E-03
    2.4470275677E-03    2.4359301423E-03    2.4248833090E-03    2.4138868365E-03
    2.4029404945E-03    2.3920440537E-03    2.3811972860E-03    2.3703999643E-03
    2.3596518624E-03    2.3489527552E-03    2.3383024188E-03    2.3277006300E-03
    2.3171471669E-03    2.3066418084E-03    2.2961843347E-03    2.2857745266E-03
    2.2754121662E-03    2.2650970365E-03    2.2548289215E-03    2.2446076062E-03
    2.2344328765E-03    2.2243045195E-03    2.2142223229E-03    2.2041860758E-03
    2.1941955678E-03    2.1842505899E-03    2.1743509338E-03    2.1644963922E-03
    2.1546867588E-03    2.1449218282E-03    2.1352013958E-03    2.1255252583E-03
    2.1158932129E-03    2.1063050580E-03    2.0967605929E-03    2.0872596177E-03
    2.0778019335E-03    2.0683873423E-03    2.0590156469E-03    2.0496866513E-03
    2.0404001600E-03    2.0311559786E-03    2.0219539137E-03    2.0127937725E-03
    2.0036753634E-03    1.9945984953E-03    1.9855629784E-03    1.9765686234E-03
    1.9676152421E-03    1.9587026470E-03    1.9498306517E-03    1.9409990703E-03
    1.9322077180E-03    1.9234564108E-03    1.9147449656E-03    1.9060731999E-03
    1.8974409324E-03    1.8888479822E-03    1.8802941696E-03    1.8717793155E-03
    1.8633032418E-03    1.8548657710E-03    1.8464667266E-03    1.8381059328E-03
    1.8297832146E-03    1.8214983979E-03    1.8132513092E-03    1.8050417761E-03
    1.7968696268E-03    1.7887346901E-03    1.7806367960E-03    1.7725757749E-03
    1.7645514583E-03    1.7565636782E-03    1.7486122675E-03    1.7406970598E-03
    1.7328178896E-03    1.7249745920E-03    1.7171670029E-03    1.7093949590E-03
    1.7016582978E-03    1.6939568573E-03    1.6862904765E-03    1.6786589950E-03
    1.6710622532E-03    1.6635000921E-03    1.6559723537E-03    1.6484788805E-03
    1.6410195158E-03    1.6335941035E-03    1.6262024883E-03    1.6188445157E-03
    1.6115200319E-03    1.6042288836E-03    1.5969709183E-03    1.5897459844E-03
    1.5825539307E-03    1.5753946069E-03    1.5682678633E-03    1.5611735508E-03
    1.5541115212E-03    1.5470816267E-03    1.5400837205E-03    1.5331176563E-03
    1.5261832884E-03    1.5192804718E-03    1.5124090623E-03    1.5055689163E-03
    1.4987598907E-03    1.4919818433E-03    1.4852346324E-03    1.4785181169E-03
    1.4718321566E-03    1.4651766117E-03    1.4585513430E-03    1.4519562122E-03
    1.4453910815E-03    1.4388558136E-03    1.4323502720E-03    1.4258743208E-03
    1.4194278246E-03    1.4130106489E-03    1.4066226595E-03    1.4002637229E-03
    1.3939337064E-03    1.3876324777E-03    1.3813599052E-03    1.3751158578E-03
    1.3689002052E-03    1.3627128175E-03    1.3565535654E-03    1.3504223205E-03
    1.3443189545E-03    1.3382433401E-03    1.3321953503E-03    1.3261748589E-03
    1.3201817403E-03    1.3142158691E-03    1.3082771209E-03    1.3023653717E-03
    1.2964804981E-03    1.2906223771E-03    1.2847908866E-03    1.2789859047E-03
    1.2732073103E-03    1.2674549829E-03    1.2617288022E-03    1.2560286488E-03
    1.2503544038E-03    1.2447059487E-03    1.2390831656E-03    1.2334859372E-03
    1.2279141467E-03    1.2223676778E-03    1.2168464149E-03    1.2113502426E-03
    1.2058790464E-03    1.2004327120E-03    1.1950111259E-03    1.1896141750E-03
    1.1842417467E-03    1.1788937289E-03    1.1735700100E-03    1.1682704791E-03
    1.1629950255E-03    1.1577435393E-03    1.1525159110E-03    1.1473120315E-03
    1.1421317923E-03    1.1369750854E-03    1.1318418033E-03    1.1267318389E-03
    1.1216450858E-03    1.1165814378E-03    1.1115407893E-03    1.1065230354E-03
    1.1015280714E-03    1.0965557932E-03    1.0916060971E-03    1.0866788801E-03
    1.0817740393E-03    1.0768914726E-03    1.0720310782E-03    1.0671927549E-03
    1.0623764018E-03    1.0575819185E-03    1.0528092052E-03    1.0480581625E-03
    1.0433286912E-03    1.0386206930E-03    1.0339340697E-03    1.0292687238E-03
    1.0246245579E-03    1.0200014755E-03    1.0153993801E-03    1.0108181760E-03
    1.0062577678E-03    1.0017180604E-03    9.9719895944E-04    9.9270037067E-04
    9.8822220048E-04    9.8376435563E-04    9.7932674329E-04    9.7490927109E-04
    9.7051184707E-04    9.6613437968E-04    9.6177677780E-04    9.5743895073E-04
    9.5312080819E-04    9.4882226029E-04    9.4454321759E-04    9.4028359103E-04
    9.3604329197E-04    9.3182223217E-04    9.2762032381E-04    9.2343747946E-04
    9.1927361210E-04    9.1512863509E-04    9.1100246220E-04    9.0689500762E-04
    9.0280618588E-04    8.9873591195E-04    8.9468410117E-04    8.9065066927E-04
    8.8663553236E-04    8.8263860695E-04    8.7865980992E-04    8.7469905855E-04
    8.7075627046E-04    8.6683136369E-04    8.6292425664E-04    8.5903486808E-04
    8.5516311715E-04    8.5130892338E-04
   </PP_CHI.5>
   <PP_CHI.6
       type="real"
       size="1766"
       columns="4"
       index="6"
       occupation=" 2.000"
       pseudo_energy="   -0.3014973201E+00"
       label="5S"
       l="0" >
    3.8712089090E-14   -3.3179871681E-03   -6.6362366602E-03   -9.9550077324E-03
   -1.3274553512E-02   -1.6595117947E-02   -1.9916932780E-02   -2.3240214536E-02
   -2.6565161556E-02   -2.9891951055E-02   -3.3220736228E-02   -3.6551643412E-02
   -3.9884769293E-02   -4.3220178179E-02   -4.6557899347E-02   -4.9897924453E-02
   -5.3240205029E-02   -5.6584650065E-02   -5.9931123676E-02   -6.3279442875E-02
   -6.6629375441E-02   -6.9980637897E-02   -7.3332893604E-02   -7.6685750967E-02
   -8.0038761770E-02   -8.3391419634E-02   -8.6743158610E-02   -9.0093351913E-02
   -9.3441310784E-02   -9.6786283513E-02   -1.0012745460E-01   -1.0346394407E-01
   -1.0679480693E-01   -1.1011903285E-01   -1.1343554587E-01   -1.1674320442E-01
   -1.2004080141E-01   -1.2332706449E-01   -1.2660065653E-01   -1.2986017623E-01
   -1.3310415888E-01   -1.3633107733E-01   -1.3953934308E-01   -1.4272730758E-01
   -1.4589326368E-01   -1.4903544722E-01   -1.5215203878E-01   -1.5524116565E-01
   -1.5830090383E-01   -1.6132928033E-01   -1.6432427550E-01   -1.6728382551E-01
   -1.7020582506E-01   -1.7308813009E-01   -1.7592856072E-01   -1.7872490424E-01
   -1.8147491825E-01   -1.8417633386E-01   -1.8682685905E-01   -1.8942418206E-01
   -1.9196597491E-01   -1.9444989694E-01   -1.9687359844E-01   -1.9923472435E-01
   -2.0153091799E-01   -2.0375982484E-01   -2.0591909632E-01   -2.0800639361E-01
   -2.1001939149E-01   -2.1195578216E-01   -2.1381327907E-01   -2.1558962070E-01
   -2.1728257438E-01   -2.1888993998E-01   -2.2040955365E-01   -2.2183929142E-01
   -2.2317707282E-01   -2.2442086439E-01   -2.2556868309E-01   -2.2661859965E-01
   -2.2756874186E-01   -2.2841729769E-01   -2.2916251836E-01   -2.2980272126E-01
   -2.3033629279E-01   -2.3076169106E-01   -2.3107744841E-01   -2.3128217388E-01
   -2.3137455553E-01   -2.3135336251E-01   -2.3121744715E-01   -2.3096574677E-01
   -2.3059728541E-01   -2.3011117539E-01   -2.2950661869E-01   -2.2878290823E-01
   -2.2793942893E-01   -2.2697565869E-01   -2.2589116913E-01   -2.2468562626E-01
   -2.2335879091E-01   -2.2191051909E-01   -2.2034076214E-01   -2.1864956677E-01
   -2.1683707492E-01   -2.1490352349E-01   -2.1284924396E-01   -2.1067466182E-01
   -2.0838029588E-01   -2.0596675750E-01   -2.0343474961E-01   -2.0078506565E-01
   -1.9801858842E-01   -1.9513628874E-01   -1.9213922409E-01   -1.8902853704E-01
   -1.8580545365E-01   -1.8247128179E-01   -1.7902740925E-01   -1.7547530192E-01
   -1.7181650172E-01   -1.6805262459E-01   -1.6418535832E-01   -1.6021646032E-01
   -1.5614775536E-01   -1.5198113315E-01   -1.4771854599E-01   -1.4336200628E-01
   -1.3891358397E-01   -1.3437540399E-01   -1.2974964365E-01   -1.2503852995E-01
   -1.2024433690E-01   -1.1536938276E-01   -1.1041602729E-01   -1.0538666895E-01
   -1.0028374208E-01   -9.5109714051E-02   -8.9867082431E-02   -8.4558372084E-02
   -7.9186132308E-02   -7.3752933938E-02   -6.8261366458E-02   -6.2714035103E-02
   -5.7113557976E-02   -5.1462563158E-02   -4.5763685842E-02   -4.0019565472E-02
   -3.4232842903E-02   -2.8406157580E-02   -2.2542144750E-02   -1.6643432687E-02
   -1.0712639968E-02   -4.7523727770E-03    1.2347777555E-03    7.2462381567E-03
    1.3279455175E-02    1.9331898287E-02    2.5401062149E-02    3.1484468987E-02
    3.7579670921E-02    4.3684252218E-02    4.9795831478E-02    5.5912063730E-02
    6.2030642465E-02    6.8149301562E-02    7.4265817144E-02    8.0378009330E-02
    8.6483743890E-02    9.2580933813E-02    9.8667540756E-02    1.0474157640E-01
    1.1080110368E-01    1.1684423793E-01    1.2286914791E-01    1.2887405669E-01
    1.3485724244E-01    1.4081703912E-01    1.4675183698E-01    1.5266008309E-01
    1.5854028153E-01    1.6439099369E-01    1.7021083829E-01    1.7599849135E-01
    1.8175268604E-01    1.8747221239E-01    1.9315591695E-01    1.9880270226E-01
    2.0441152626E-01    2.0998140161E-01    2.1551139488E-01    2.2100062565E-01
    2.2644826556E-01    2.3185353723E-01    2.3721571309E-01    2.4253411424E-01
    2.4780810910E-01    2.5303711208E-01    2.5822058223E-01    2.6335802176E-01
    2.6844897455E-01    2.7349302467E-01    2.7848979482E-01    2.8343894479E-01
    2.8834016986E-01    2.9319319927E-01    2.9799779463E-01    3.0275374836E-01
    3.0746088217E-01    3.1211904557E-01    3.1672811433E-01    3.2128798913E-01
    3.2579859408E-01    3.3025987545E-01    3.3467180039E-01    3.3903435567E-01
    3.4334754661E-01    3.4761139600E-01    3.5182594315E-01    3.5599124295E-01
    3.6010736497E-01    3.6417439276E-01    3.6819242316E-01    3.7216156577E-01
    3.7608194248E-01    3.7995368707E-01    3.8377694496E-01    3.8755187248E-01
    3.9127863576E-01    3.9495740939E-01    3.9858837601E-01    4.0217172613E-01
    4.0570765794E-01    4.0919637679E-01    4.1263809492E-01    4.1603303116E-01
    4.1938141060E-01    4.2268346430E-01    4.2593942897E-01    4.2914954672E-01
    4.3231406471E-01    4.3543323490E-01    4.3850731379E-01    4.4153656210E-01
    4.4452124451E-01    4.4746162942E-01    4.5035798863E-01    4.5321059714E-01
    4.5601973285E-01    4.5878567633E-01    4.6150871055E-01    4.6418912066E-01
    4.6682719373E-01    4.6942321852E-01    4.7197748527E-01    4.7449028543E-01
    4.7696191151E-01    4.7939265679E-01    4.8178281518E-01    4.8413268095E-01
    4.8644254864E-01    4.8871271276E-01    4.9094346769E-01    4.9313510749E-01
    4.9528792574E-01    4.9740221537E-01    4.9947826854E-01    5.0151637651E-01
    5.0351682950E-01    5.0547991655E-01    5.0740592549E-01    5.0929514277E-01
    5.1114785341E-01    5.1296434090E-01    5.1474488716E-01    5.1648977247E-01
    5.1819927539E-01    5.1987367277E-01    5.2151323970E-01    5.2311824944E-01
    5.2468897347E-01    5.2622568145E-01    5.2772864119E-01    5.2919811871E-01
    5.3063437818E-01    5.3203768200E-01    5.3340829078E-01    5.3474646337E-01
    5.3605245688E-01    5.3732652672E-01    5.3856892664E-01    5.3977990874E-01
    5.4095972353E-01    5.4210861996E-01    5.4322684546E-01    5.4431464597E-01
    5.4537226600E-01    5.4639994865E-01    5.4739793567E-01    5.4836646748E-01
    5.4930578323E-01    5.5021612081E-01    5.5109771691E-01    5.5195080705E-01
    5.5277562562E-01    5.5357240587E-01    5.5434138000E-01    5.5508277917E-01
    5.5579683349E-01    5.5648377210E-01    5.5714382313E-01    5.5777721381E-01
    5.5838417039E-01    5.5896491823E-01    5.5951968178E-01    5.6004868461E-01
    5.6055214942E-01    5.6103029804E-01    5.6148335145E-01    5.6191152979E-01
    5.6231505236E-01    5.6269413764E-01    5.6304900325E-01    5.6337986603E-01
    5.6368694197E-01    5.6397044623E-01    5.6423059319E-01    5.6446759637E-01
    5.6468166849E-01    5.6487302143E-01    5.6504186626E-01    5.6518841321E-01
    5.6531287169E-01    5.6541545026E-01    5.6549635664E-01    5.6555579772E-01
    5.6559397953E-01    5.6561110724E-01    5.6560738518E-01    5.6558301680E-01
    5.6553820468E-01    5.6547315053E-01    5.6538805518E-01    5.6528311857E-01
    5.6515853976E-01    5.6501451691E-01    5.6485124726E-01    5.6466892718E-01
    5.6446775209E-01    5.6424791653E-01    5.6400961409E-01    5.6375303745E-01
    5.6347837836E-01    5.6318582763E-01    5.6287557515E-01    5.6254780985E-01
    5.6220271972E-01    5.6184049180E-01    5.6146131220E-01    5.6106536604E-01
    5.6065283751E-01    5.6022390982E-01    5.5977876525E-01    5.5931758508E-01
    5.5884054965E-01    5.5834783831E-01    5.5783962945E-01    5.5731610050E-01
    5.5677742791E-01    5.5622378714E-01    5.5565535270E-01    5.5507229810E-01
    5.5447479591E-01    5.5386301770E-01    5.5323713405E-01    5.5259731459E-01
    5.5194372797E-01    5.5127654184E-01    5.5059592291E-01    5.4990203690E-01
    5.4919504853E-01    5.4847512159E-01    5.4774241887E-01    5.4699710219E-01
    5.4623933240E-01    5.4546926939E-01    5.4468707208E-01    5.4389289840E-01
    5.4308690535E-01    5.4226924895E-01    5.4144008424E-01    5.4059956532E-01
    5.3974784534E-01    5.3888507647E-01    5.3801140993E-01    5.3712699601E-01
    5.3623198401E-01    5.3532652232E-01    5.3441075835E-01    5.3348483859E-01
    5.3254890858E-01    5.3160311290E-01    5.3064759523E-01    5.2968249829E-01
    5.2870796386E-01    5.2772413281E-01    5.2673114506E-01    5.2572913961E-01
    5.2471825456E-01    5.2369862705E-01    5.2267039331E-01    5.2163368868E-01
    5.2058864756E-01    5.1953540343E-01    5.1847408889E-01    5.1740483560E-01
    5.1632777433E-01    5.1524303495E-01    5.1415074641E-01    5.1305103680E-01
    5.1194403326E-01    5.1082986208E-01    5.0970864863E-01    5.0858051741E-01
    5.0744559201E-01    5.0630399516E-01    5.0515584867E-01    5.0400127351E-01
    5.0284038973E-01    5.0167331654E-01    5.0050017224E-01    4.9932107428E-01
    4.9813613921E-01    4.9694548275E-01    4.9574921971E-01    4.9454746407E-01
    4.9334032890E-01    4.9212792645E-01    4.9091036809E-01    4.8968776433E-01
    4.8846022481E-01    4.8722785833E-01    4.8599077283E-01    4.8474907540E-01
    4.8350287227E-01    4.8225226882E-01    4.8099736958E-01    4.7973827824E-01
    4.7847509764E-01    4.7720792977E-01    4.7593687578E-01    4.7466203598E-01
    4.7338350983E-01    4.7210139597E-01    4.7081579219E-01    4.6952679544E-01
    4.6823450183E-01    4.6693900666E-01    4.6564040438E-01    4.6433878860E-01
    4.6303425213E-01    4.6172688693E-01    4.6041678413E-01    4.5910403404E-01
    4.5778872617E-01    4.5647094916E-01    4.5515079088E-01    4.5382833833E-01
    4.5250367774E-01    4.5117689450E-01    4.4984807317E-01    4.4851729754E-01
    4.4718465054E-01    4.4585021432E-01    4.4451407022E-01    4.4317629876E-01
    4.4183697966E-01    4.4049619186E-01    4.3915401345E-01    4.3781052178E-01
    4.3646579335E-01    4.3511990390E-01    4.3377292836E-01    4.3242494087E-01
    4.3107601479E-01    4.2972622268E-01    4.2837563633E-01    4.2702432673E-01
    4.2567236411E-01    4.2431981790E-01    4.2296675678E-01    4.2161324863E-01
    4.2025936058E-01    4.1890515899E-01    4.1755070945E-01    4.1619607678E-01
    4.1484132506E-01    4.1348651759E-01    4.1213171694E-01    4.1077698491E-01
    4.0942238256E-01    4.0806797021E-01    4.0671380743E-01    4.0535995306E-01
    4.0400646520E-01    4.0265340121E-01    4.0130081773E-01    3.9994877069E-01
    3.9859731527E-01    3.9724650595E-01    3.9589639649E-01    3.9454703994E-01
    3.9319848864E-01    3.9185079424E-01    3.9050400768E-01    3.8915817919E-01
    3.8781335834E-01    3.8646959399E-01    3.8512693433E-01    3.8378542685E-01
    3.8244511839E-01    3.8110605510E-01    3.7976828247E-01    3.7843184533E-01
    3.7709678785E-01    3.7576315354E-01    3.7443098527E-01    3.7310032527E-01
    3.7177121510E-01    3.7044369571E-01    3.6911780742E-01    3.6779358991E-01
    3.6647108224E-01    3.6515032286E-01    3.6383134960E-01    3.6251419969E-01
    3.6119890973E-01    3.5988551577E-01    3.5857405322E-01    3.5726455692E-01
    3.5595706112E-01    3.5465159951E-01    3.5334820518E-01    3.5204691066E-01
    3.5074774791E-01    3.4945074835E-01    3.4815594282E-01    3.4686336163E-01
    3.4557303453E-01    3.4428499074E-01    3.4299925894E-01    3.4171586728E-01
    3.4043484339E-01    3.3915621438E-01    3.3788000683E-01    3.3660624683E-01
    3.3533495996E-01    3.3406617130E-01    3.3279990542E-01    3.3153618643E-01
    3.3027503792E-01    3.2901648303E-01    3.2776054442E-01    3.2650724426E-01
    3.2525660427E-01    3.2400864573E-01    3.2276338942E-01    3.2152085571E-01
    3.2028106451E-01    3.1904403529E-01    3.1780978708E-01    3.1657833848E-01
    3.1534970769E-01    3.1412391245E-01    3.1290097012E-01    3.1168089762E-01
    3.1046371149E-01    3.0924942785E-01    3.0803806244E-01    3.0682963058E-01
    3.0562414724E-01    3.0442162699E-01    3.0322208401E-01    3.0202553213E-01
    3.0083198481E-01    2.9964145512E-01    2.9845395580E-01    2.9726949923E-01
    2.9608809743E-01    2.9490976208E-01    2.9373450453E-01    2.9256233577E-01
    2.9139326649E-01    2.9022730701E-01    2.8906446737E-01    2.8790475727E-01
    2.8674818609E-01    2.8559476291E-01    2.8444449650E-01    2.8329739534E-01
    2.8215346759E-01    2.8101272113E-01    2.7987516356E-01    2.7874080217E-01
    2.7760964399E-01    2.7648169575E-01    2.7535696395E-01    2.7423545476E-01
    2.7311717414E-01    2.7200212776E-01    2.7089032103E-01    2.6978175911E-01
    2.6867644693E-01    2.6757438914E-01    2.6647559016E-01    2.6538005419E-01
    2.6428778517E-01    2.6319878682E-01    2.6211306262E-01    2.6103061584E-01
    2.5995144951E-01    2.5887556647E-01    2.5780296932E-01    2.5673366045E-01
    2.5566764207E-01    2.5460491615E-01    2.5354548447E-01    2.5248934863E-01
    2.5143651001E-01    2.5038696981E-01    2.4934072905E-01    2.4829778854E-01
    2.4725814893E-01    2.4622181068E-01    2.4518877408E-01    2.4415903924E-01
    2.4313260611E-01    2.4210947445E-01    2.4108964388E-01    2.4007311385E-01
    2.3905988364E-01    2.3804995239E-01    2.3704331907E-01    2.3603998251E-01
    2.3503994139E-01    2.3404319425E-01    2.3304973946E-01    2.3205957529E-01
    2.3107269983E-01    2.3008911108E-01    2.2910880686E-01    2.2813178489E-01
    2.2715804275E-01    2.2618757790E-01    2.2522038766E-01    2.2425646926E-01
    2.2329581978E-01    2.2233843620E-01    2.2138431538E-01    2.2043345406E-01
    2.1948584888E-01    2.1854149638E-01    2.1760039297E-01    2.1666253497E-01
    2.1572791861E-01    2.1479653999E-01    2.1386839513E-01    2.1294347997E-01
    2.1202179031E-01    2.1110332191E-01    2.1018807040E-01    2.0927603135E-01
    2.0836720021E-01    2.0746157238E-01    2.0655914316E-01    2.0565990776E-01
    2.0476386133E-01    2.0387099892E-01    2.0298131553E-01    2.0209480605E-01
    2.0121146533E-01    2.0033128814E-01    1.9945426916E-01    1.9858040303E-01
    1.9770968429E-01    1.9684210745E-01    1.9597766694E-01    1.9511635711E-01
    1.9425817228E-01    1.9340310669E-01    1.9255115453E-01    1.9170230991E-01
    1.9085656693E-01    1.9001391959E-01    1.8917436187E-01    1.8833788767E-01
    1.8750449086E-01    1.8667416525E-01    1.8584690460E-01    1.8502270263E-01
    1.8420155302E-01    1.8338344939E-01    1.8256838532E-01    1.8175635435E-01
    1.8094734999E-01    1.8014136568E-01    1.7933839485E-01    1.7853843088E-01
    1.7774146711E-01    1.7694749685E-01    1.7615651336E-01    1.7536850989E-01
    1.7458347964E-01    1.7380141578E-01    1.7302231145E-01    1.7224615975E-01
    1.7147295376E-01    1.7070268654E-01    1.6993535110E-01    1.6917094044E-01
    1.6840944753E-01    1.6765086531E-01    1.6689518669E-01    1.6614240457E-01
    1.6539251182E-01    1.6464550128E-01    1.6390136578E-01    1.6316009813E-01
    1.6242169110E-01    1.6168613746E-01    1.6095342996E-01    1.6022356133E-01
    1.5949652426E-01    1.5877231146E-01    1.5805091559E-01    1.5733232933E-01
    1.5661654531E-01    1.5590355616E-01    1.5519335449E-01    1.5448593292E-01
    1.5378128403E-01    1.5307940040E-01    1.5238027459E-01    1.5168389916E-01
    1.5099026666E-01    1.5029936961E-01    1.4961120053E-01    1.4892575196E-01
    1.4824301638E-01    1.4756298630E-01    1.4688565421E-01    1.4621101259E-01
    1.4553905392E-01    1.4486977067E-01    1.4420315530E-01    1.4353920026E-01
    1.4287789802E-01    1.4221924103E-01    1.4156322171E-01    1.4090983253E-01
    1.4025906590E-01    1.3961091427E-01    1.3896537007E-01    1.3832242572E-01
    1.3768207365E-01    1.3704430629E-01    1.3640911606E-01    1.3577649538E-01
    1.3514643667E-01    1.3451893235E-01    1.3389397485E-01    1.3327155659E-01
    1.3265166998E-01    1.3203430745E-01    1.3141946142E-01    1.3080712433E-01
    1.3019728858E-01    1.2958994662E-01    1.2898509088E-01    1.2838271378E-01
    1.2778280777E-01    1.2718536527E-01    1.2659037875E-01    1.2599784063E-01
    1.2540774337E-01    1.2482007943E-01    1.2423484125E-01    1.2365202131E-01
    1.2307161206E-01    1.2249360599E-01    1.2191799556E-01    1.2134477326E-01
    1.2077393158E-01    1.2020546300E-01    1.1963936003E-01    1.1907561517E-01
    1.1851422093E-01    1.1795516983E-01    1.1739845439E-01    1.1684406714E-01
    1.1629200062E-01    1.1574224738E-01    1.1519479996E-01    1.1464965092E-01
    1.1410679284E-01    1.1356621828E-01    1.1302791984E-01    1.1249189008E-01
    1.1195812163E-01    1.1142660708E-01    1.1089733905E-01    1.1037031016E-01
    1.0984551304E-01    1.0932294034E-01    1.0880258471E-01    1.0828443880E-01
    1.0776849529E-01    1.0725474686E-01    1.0674318618E-01    1.0623380597E-01
    1.0572659892E-01    1.0522155775E-01    1.0471867519E-01    1.0421794398E-01
    1.0371935686E-01    1.0322290660E-01    1.0272858595E-01    1.0223638771E-01
    1.0174630465E-01    1.0125832957E-01    1.0077245530E-01    1.0028867464E-01
    9.9806980433E-02    9.9327365522E-02    9.8849822761E-02    9.8374345015E-02
    9.7900925163E-02    9.7429556092E-02    9.6960230703E-02    9.6492941909E-02
    9.6027682633E-02    9.5564445809E-02    9.5103224387E-02    9.4644011324E-02
    9.4186799592E-02    9.3731582175E-02    9.3278352068E-02    9.2827102278E-02
    9.2377825825E-02    9.1930515743E-02    9.1485165076E-02    9.1041766881E-02
    9.0600314228E-02    9.0160800201E-02    8.9723217893E-02    8.9287560413E-02
    8.8853820883E-02    8.8421992436E-02    8.7992068219E-02    8.7564041392E-02
    8.7137905127E-02    8.6713652611E-02    8.6291277043E-02    8.5870771635E-02
    8.5452129614E-02    8.5035344218E-02    8.4620408701E-02    8.4207316328E-02
    8.3796060379E-02    8.3386634147E-02    8.2979030938E-02    8.2573244075E-02
    8.2169266890E-02    8.1767092732E-02    8.1366714963E-02    8.0968126958E-02
    8.0571322107E-02    8.0176293813E-02    7.9783035495E-02    7.9391540584E-02
    7.9001802525E-02    7.8613814779E-02    7.8227570819E-02    7.7843064134E-02
    7.7460288227E-02    7.7079236614E-02    7.6699902827E-02    7.6322280411E-02
    7.5946362925E-02    7.5572143946E-02    7.5199617061E-02    7.4828775874E-02
    7.4459614003E-02    7.4092125081E-02    7.3726302755E-02    7.3362140687E-02
    7.2999632554E-02    7.2638772047E-02    7.2279552872E-02    7.1921968751E-02
    7.1566013418E-02    7.1211680626E-02    7.0858964138E-02    7.0507857737E-02
    7.0158355216E-02    6.9810450388E-02    6.9464137076E-02    6.9119409122E-02
    6.8776260381E-02    6.8434684724E-02    6.8094676037E-02    6.7756228220E-02
    6.7419335189E-02    6.7083990876E-02    6.6750189227E-02    6.6417924204E-02
    6.6087189784E-02    6.5757979959E-02    6.5430288736E-02    6.5104110139E-02
    6.4779438206E-02    6.4456266990E-02    6.4134590561E-02    6.3814403002E-02
    6.3495698414E-02    6.3178470912E-02    6.2862714626E-02    6.2548423704E-02
    6.2235592306E-02    6.1924214610E-02    6.1614284809E-02    6.1305797111E-02
    6.0998745740E-02    6.0693124936E-02    6.0388928953E-02    6.0086152063E-02
    5.9784788551E-02    5.9484832720E-02    5.9186278888E-02    5.8889121387E-02
    5.8593354567E-02    5.8298972792E-02    5.8005970442E-02    5.7714341915E-02
    5.7424081621E-02    5.7135183987E-02    5.6847643459E-02    5.6561454493E-02
    5.6276611566E-02    5.5993109167E-02    5.5710941804E-02    5.5430103997E-02
    5.5150590285E-02    5.4872395222E-02    5.4595513376E-02    5.4319939334E-02
    5.4045667697E-02    5.3772693081E-02    5.3501010118E-02    5.3230613459E-02
    5.2961497766E-02    5.2693657720E-02    5.2427088017E-02    5.2161783370E-02
    5.1897738505E-02    5.1634948166E-02    5.1373407113E-02    5.1113110120E-02
    5.0854051980E-02    5.0596227498E-02    5.0339631498E-02    5.0084258817E-02
    4.9830104312E-02    4.9577162850E-02    4.9325429320E-02    4.9074898623E-02
    4.8825565675E-02    4.8577425412E-02    4.8330472782E-02    4.8084702751E-02
    4.7840110300E-02    4.7596690424E-02    4.7354438138E-02    4.7113348469E-02
    4.6873416462E-02    4.6634637177E-02    4.6397005689E-02    4.6160517090E-02
    4.5925166487E-02    4.5690949004E-02    4.5457859779E-02    4.5225893967E-02
    4.4995046737E-02    4.4765313277E-02    4.4536688788E-02    4.4309168487E-02
    4.4082747607E-02    4.3857421397E-02    4.3633185122E-02    4.3410034062E-02
    4.3187963512E-02    4.2966968785E-02    4.2747045206E-02    4.2528188119E-02
    4.2310392882E-02    4.2093654869E-02    4.1877969469E-02    4.1663332087E-02
    4.1449738144E-02    4.1237183076E-02    4.1025662335E-02    4.0815171386E-02
    4.0605705714E-02    4.0397260816E-02    4.0189832205E-02    3.9983415411E-02
    3.9778005978E-02    3.9573599465E-02    3.9370191447E-02    3.9167777516E-02
    3.8966353277E-02    3.8765914351E-02    3.8566456375E-02    3.8367975000E-02
    3.8170465894E-02    3.7973924739E-02    3.7778347232E-02    3.7583729086E-02
    3.7390066029E-02    3.7197353805E-02    3.7005588172E-02    3.6814764902E-02
    3.6624879786E-02    3.6435928625E-02    3.6247907240E-02    3.6060811463E-02
    3.5874637145E-02    3.5689380147E-02    3.5505036350E-02    3.5321601647E-02
    3.5139071947E-02    3.4957443173E-02    3.4776711263E-02    3.4596872172E-02
    3.4417921867E-02    3.4239856332E-02    3.4062671563E-02    3.3886363575E-02
    3.3710928393E-02    3.3536362061E-02    3.3362660634E-02    3.3189820185E-02
    3.3017836798E-02    3.2846706576E-02    3.2676425632E-02    3.2506990098E-02
    3.2338396116E-02    3.2170639847E-02    3.2003717462E-02    3.1837625151E-02
    3.1672359115E-02    3.1507915571E-02    3.1344290750E-02    3.1181480896E-02
    3.1019482270E-02    3.0858291146E-02    3.0697903811E-02    3.0538316568E-02
    3.0379525734E-02    3.0221527639E-02    3.0064318628E-02    2.9907895060E-02
    2.9752253308E-02    2.9597389759E-02    2.9443300814E-02    2.9289982889E-02
    2.9137432412E-02    2.8985645827E-02    2.8834619589E-02    2.8684350171E-02
    2.8534834056E-02    2.8386067744E-02    2.8238047745E-02    2.8090770586E-02
    2.7944232807E-02    2.7798430961E-02    2.7653361614E-02    2.7509021348E-02
    2.7365406756E-02    2.7222514445E-02    2.7080341039E-02    2.6938883170E-02
    2.6798137486E-02    2.6658100651E-02    2.6518769337E-02    2.6380140235E-02
    2.6242210044E-02    2.6104975481E-02    2.5968433272E-02    2.5832580160E-02
    2.5697412899E-02    2.5562928257E-02    2.5429123014E-02    2.5295993965E-02
    2.5163537916E-02    2.5031751687E-02    2.4900632111E-02    2.4770176033E-02
    2.4640380314E-02    2.4511241824E-02    2.4382757448E-02    2.4254924083E-02
    2.4127738639E-02    2.4001198040E-02    2.3875299220E-02    2.3750039128E-02
    2.3625414724E-02    2.3501422983E-02    2.3378060889E-02    2.3255325443E-02
    2.3133213653E-02    2.3011722545E-02    2.2890849154E-02    2.2770590529E-02
    2.2650943729E-02    2.2531905828E-02    2.2413473912E-02    2.2295645077E-02
    2.2178416434E-02    2.2061785104E-02    2.1945748221E-02    2.1830302932E-02
    2.1715446394E-02    2.1601175779E-02    2.1487488267E-02    2.1374381054E-02
    2.1261851345E-02    2.1149896359E-02    2.1038513325E-02    2.0927699485E-02
    2.0817452093E-02    2.0707768413E-02    2.0598645723E-02    2.0490081310E-02
    2.0382072477E-02    2.0274616533E-02    2.0167710803E-02    2.0061352621E-02
    1.9955539334E-02    1.9850268300E-02    1.9745536888E-02    1.9641342479E-02
    1.9537682464E-02    1.9434554247E-02    1.9331955242E-02    1.9229882876E-02
    1.9128334585E-02    1.9027307818E-02    1.8926800033E-02    1.8826808702E-02
    1.8727331305E-02    1.8628365335E-02    1.8529908296E-02    1.8431957702E-02
    1.8334511079E-02    1.8237565961E-02    1.8141119897E-02    1.8045170445E-02
    1.7949715172E-02    1.7854751659E-02    1.7760277495E-02    1.7666290280E-02
    1.7572787627E-02    1.7479767157E-02    1.7387226502E-02    1.7295163305E-02
    1.7203575220E-02    1.7112459911E-02    1.7021815051E-02    1.6931638326E-02
    1.6841927430E-02    1.6752680069E-02    1.6663893957E-02    1.6575566821E-02
    1.6487696397E-02    1.6400280430E-02    1.6313316677E-02    1.6226802904E-02
    1.6140736888E-02    1.6055116414E-02    1.5969939278E-02    1.5885203288E-02
    1.5800906258E-02    1.5717046016E-02    1.5633620396E-02    1.5550627245E-02
    1.5468064417E-02    1.5385929778E-02    1.5304221203E-02    1.5222936575E-02
    1.5142073789E-02    1.5061630748E-02    1.4981605366E-02    1.4901995566E-02
    1.4822799278E-02    1.4744014445E-02    1.4665639018E-02    1.4587670958E-02
    1.4510108233E-02    1.4432948822E-02    1.4356190715E-02    1.4279831908E-02
    1.4203870408E-02    1.4128304231E-02    1.4053131402E-02    1.3978349954E-02
    1.3903957932E-02    1.3829953387E-02    1.3756334379E-02    1.3683098980E-02
    1.3610245268E-02    1.3537771331E-02    1.3465675266E-02    1.3393955179E-02
    1.3322609182E-02    1.3251635401E-02    1.3181031965E-02    1.3110797017E-02
    1.3040928705E-02    1.2971425186E-02    1.2902284628E-02    1.2833505204E-02
    1.2765085098E-02    1.2697022503E-02    1.2629315618E-02    1.2561962652E-02
    1.2494961822E-02    1.2428311354E-02    1.2362009481E-02    1.2296054446E-02
    1.2230444498E-02    1.2165177897E-02    1.2100252908E-02    1.2035667807E-02
    1.1971420877E-02    1.1907510408E-02    1.1843934700E-02    1.1780692060E-02
    1.1717780803E-02    1.1655199251E-02    1.1592945737E-02    1.1531018599E-02
    1.1469416183E-02    1.1408136845E-02    1.1347178946E-02    1.1286540856E-02
    1.1226220954E-02    1.1166217625E-02    1.1106529262E-02    1.1047154267E-02
    1.0988091046E-02    1.0929338018E-02    1.0870893604E-02    1.0812756237E-02
    1.0754924355E-02    1.0697396403E-02    1.0640170836E-02    1.0583246114E-02
    1.0526620706E-02    1.0470293086E-02    1.0414261738E-02    1.0358525151E-02
    1.0303081824E-02    1.0247930261E-02    1.0193068972E-02    1.0138496478E-02
    1.0084211304E-02    1.0030211984E-02    9.9764970565E-03    9.9230650697E-03
    9.8699145774E-03    9.8170441409E-03    9.7644523282E-03    9.7121377141E-03
    9.6600988806E-03    9.6083344162E-03    9.5568429165E-03    9.5056229838E-03
    9.4546732271E-03    9.4039922622E-03    9.3535787116E-03    9.3034312044E-03
    9.2535483764E-03    9.2039288702E-03    9.1545713346E-03    9.1054744252E-03
    9.0566368042E-03    9.0080571402E-03    8.9597341083E-03    8.9116663899E-03
    8.8638526731E-03    8.8162916523E-03    8.7689820280E-03    8.7219225074E-03
    8.6751118039E-03    8.6285486370E-03    8.5822317328E-03    8.5361598232E-03
    8.4903316466E-03    8.4447459476E-03    8.3994014767E-03    8.3542969908E-03
    8.3094312527E-03    8.2648030313E-03    8.2204111015E-03    8.1762542443E-03
    8.1323312468E-03    8.0886409017E-03    8.0451820080E-03    8.0019533703E-03
    7.9589537994E-03    7.9161821116E-03    7.8736371294E-03    7.8313176807E-03
    7.7892225996E-03    7.7473507256E-03    7.7057009041E-03    7.6642719862E-03
    7.6230628286E-03    7.5820722936E-03    7.5412992493E-03    7.5007425693E-03
    7.4604011327E-03    7.4202738243E-03    7.3803595343E-03    7.3406571584E-03
    7.3011655979E-03    7.2618837594E-03    7.2228105550E-03    7.1839449021E-03
    7.1452857237E-03    7.1068319479E-03    7.0685825082E-03    7.0305363435E-03
    6.9926923979E-03    6.9550496208E-03    6.9176069667E-03    6.8803633954E-03
    6.8433178719E-03    6.8064693663E-03    6.7698168540E-03    6.7333593152E-03
    6.6970957355E-03    6.6610251054E-03    6.6251464204E-03    6.5894586812E-03
    6.5539608933E-03    6.5186520673E-03    6.4835312187E-03    6.4485973679E-03
    6.4138495402E-03    6.3792867660E-03    6.3449080801E-03    6.3107125227E-03
    6.2766991383E-03    6.2428669765E-03    6.2092150916E-03    6.1757425426E-03
    6.1424483933E-03    6.1093317121E-03    6.0763915722E-03    6.0436270513E-03
    6.0110372320E-03    5.9786212012E-03    5.9463780506E-03    5.9143068764E-03
    5.8824067795E-03    5.8506768650E-03    5.8191162429E-03    5.7877240274E-03
    5.7564993372E-03    5.7254412957E-03    5.6945490304E-03    5.6638216734E-03
    5.6332583611E-03    5.6028582344E-03    5.5726204382E-03    5.5425441222E-03
    5.5126284400E-03    5.4828725497E-03    5.4532756137E-03    5.4238367984E-03
    5.3945552745E-03    5.3654302172E-03    5.3364608055E-03    5.3076462228E-03
    5.2789856564E-03    5.2504782980E-03    5.2221233432E-03    5.1939199919E-03
    5.1658674477E-03    5.1379649187E-03    5.1102116167E-03    5.0826067576E-03
    5.0551495612E-03    5.0278392515E-03    5.0006750563E-03    4.9736562072E-03
    4.9467819400E-03    4.9200514941E-03    4.8934641130E-03    4.8670190440E-03
    4.8407155382E-03    4.8145528505E-03    4.7885302396E-03    4.7626469680E-03
    4.7369023021E-03    4.7112955117E-03    4.6858258708E-03    4.6604926567E-03
    4.6352951506E-03    4.6102326373E-03    4.5853044054E-03    4.5605097469E-03
    4.5358479575E-03    4.5113183367E-03    4.4869201873E-03    4.4626528159E-03
    4.4385155325E-03    4.4145076507E-03    4.3906284877E-03    4.3668773640E-03
    4.3432536037E-03    4.3197565344E-03    4.2963854872E-03    4.2731397964E-03
    4.2500187999E-03    4.2270218390E-03    4.2041482584E-03    4.1813974059E-03
    4.1587686331E-03    4.1362612947E-03    4.1138747485E-03    4.0916083560E-03
    4.0694614818E-03    4.0474334937E-03    4.0255237629E-03    4.0037316637E-03
    3.9820565737E-03    3.9604978738E-03    3.9390549479E-03    3.9177271832E-03
    3.8965139699E-03    3.8754147017E-03    3.8544287750E-03    3.8335555896E-03
    3.8127945482E-03    3.7921450569E-03    3.7716065245E-03    3.7511783630E-03
    3.7308599876E-03    3.7106508162E-03    3.6905502699E-03    3.6705577729E-03
    3.6506727522E-03    3.6308946377E-03    3.6112228625E-03    3.5916568625E-03
    3.5721960764E-03    3.5528399460E-03    3.5335879159E-03    3.5144394336E-03
    3.4953939495E-03    3.4764509168E-03    3.4576097914E-03    3.4388700323E-03
    3.4202311011E-03    3.4016924623E-03    3.3832535831E-03    3.3649139336E-03
    3.3466729863E-03    3.3285302170E-03    3.3104851037E-03    3.2925371274E-03
    3.2746857717E-03    3.2569305229E-03    3.2392708700E-03    3.2217063046E-03
    3.2042363210E-03    3.1868604161E-03    3.1695780895E-03    3.1523888431E-03
    3.1352921819E-03    3.1182876129E-03    3.1013746462E-03    3.0845527941E-03
    3.0678215716E-03    3.0511804962E-03    3.0346290878E-03    3.0181668690E-03
    3.0017933647E-03    2.9855081024E-03    2.9693106120E-03    2.9532004259E-03
    2.9371770790E-03    2.9212401084E-03    2.9053890539E-03    2.8896234574E-03
    2.8739428635E-03    2.8583468191E-03    2.8428348732E-03    2.8274065774E-03
    2.8120614857E-03    2.7967991543E-03    2.7816191417E-03    2.7665210089E-03
    2.7515043189E-03    2.7365686372E-03    2.7217135315E-03    2.7069385719E-03
    2.6922433305E-03    2.6776273817E-03    2.6630903024E-03    2.6486316714E-03
    2.6342510698E-03    2.6199480810E-03    2.6057222904E-03    2.5915732858E-03
    2.5775006569E-03    2.5635039957E-03    2.5495828964E-03    2.5357369551E-03
    2.5219657704E-03    2.5082689426E-03    2.4946460743E-03    2.4810967702E-03
    2.4676206369E-03    2.4542172834E-03    2.4408863205E-03    2.4276273610E-03
    2.4144400198E-03    2.4013239140E-03    2.3882786625E-03    2.3753038863E-03
    2.3623992083E-03    2.3495642534E-03    2.3367986486E-03    2.3241020228E-03
    2.3114740068E-03    2.2989142333E-03    2.2864223370E-03    2.2739979547E-03
    2.2616407247E-03    2.2493502876E-03    2.2371262857E-03    2.2249683633E-03
    2.2128761663E-03    2.2008493428E-03    2.1888875425E-03    2.1769904172E-03
    2.1651576202E-03    2.1533888071E-03    2.1416836347E-03    2.1300417622E-03
    2.1184628503E-03    2.1069465614E-03    2.0954925599E-03    2.0841005119E-03
    2.0727700852E-03    2.0615009494E-03    2.0502927759E-03    2.0391452377E-03
    2.0280580097E-03    2.0170307683E-03    2.0060631918E-03    1.9951549602E-03
    1.9843057549E-03    1.9735152594E-03    1.9627831587E-03    1.9521091392E-03
    1.9414928894E-03    1.9309340993E-03    1.9204324603E-03    1.9099876656E-03
    1.8995994103E-03    1.8892673906E-03    1.8789913046E-03    1.8687708521E-03
    1.8586057342E-03    1.8484956537E-03    1.8384403152E-03    1.8284394244E-03
    1.8184926891E-03    1.8085998182E-03    1.7987605223E-03    1.7889745136E-03
    1.7792415058E-03    1.7695612140E-03    1.7599333549E-03    1.7503576469E-03
    1.7408338094E-03    1.7313615638E-03    1.7219406326E-03    1.7125707400E-03
    1.7032516117E-03    1.6939829745E-03    1.6847645571E-03    1.6755960894E-03
    1.6664773027E-03    1.6574079298E-03    1.6483877050E-03    1.6394163638E-03
    1.6304936433E-03    1.6216192820E-03    1.6127930195E-03    1.6040145972E-03
    1.5952837576E-03    1.5866002446E-03    1.5779638035E-03    1.5693741811E-03
    1.5608311251E-03    1.5523343851E-03    1.5438837117E-03    1.5354788568E-03
    1.5271195739E-03    1.5188056174E-03    1.5105367434E-03    1.5023127090E-03
    1.4941332729E-03    1.4859981947E-03    1.4779072356E-03    1.4698601579E-03
    1.4618567253E-03    1.4538967026E-03    1.4459798560E-03    1.4381059527E-03
    1.4302747616E-03    1.4224860523E-03    1.4147395959E-03    1.4070351648E-03
    1.3993725324E-03    1.3917514735E-03    1.3841717640E-03    1.3766331809E-03
    1.3691355026E-03    1.3616785085E-03    1.3542619793E-03    1.3468856968E-03
    1.3395494440E-03    1.3322530049E-03    1.3249961650E-03    1.3177787107E-03
    1.3106004294E-03    1.3034611100E-03    1.2963605422E-03    1.2892985170E-03
    1.2822748266E-03    1.2752892640E-03    1.2683416235E-03    1.2614317006E-03
    1.2545592916E-03    1.2477241943E-03    1.2409262071E-03    1.2341651299E-03
    1.2274407634E-03    1.2207529095E-03    1.2141013710E-03    1.2074859520E-03
    1.2009064574E-03    1.1943626933E-03    1.1878544669E-03    1.1813815861E-03
    1.1749438602E-03    1.1685410993E-03    1.1621731146E-03    1.1558397183E-03
    1.1495407235E-03    1.1432759446E-03    1.1370451966E-03    1.1308482957E-03
    1.1246850592E-03    1.1185553050E-03    1.1124588524E-03    1.1063955214E-03
    1.1003651331E-03    1.0943675094E-03    1.0884024733E-03    1.0824698487E-03
    1.0765694605E-03    1.0707011343E-03    1.0648646970E-03    1.0590599762E-03
    1.0532868004E-03    1.0475449991E-03    1.0418344026E-03    1.0361548424E-03
    1.0305061506E-03    1.0248881603E-03    1.0193007055E-03    1.0137436211E-03
    1.0082167428E-03    1.0027199074E-03    9.9725295230E-04    9.9181571595E-04
    9.8640803761E-04    9.8102975741E-04    9.7568071631E-04    9.7036075617E-04
    9.6506971967E-04    9.5980745033E-04    9.5457379253E-04    9.4936859145E-04
    9.4419169314E-04    9.3904294446E-04    9.3392219307E-04    9.2882928749E-04
    9.2376407701E-04    9.1872641177E-04    9.1371614267E-04    9.0873312145E-04
    9.0377720061E-04    8.9884823348E-04    8.9394607415E-04    8.8907057750E-04
    8.8422159920E-04    8.7939899566E-04    8.7460262412E-04    8.6983234252E-04
    8.6508800962E-04    8.6036948491E-04    8.5567662863E-04    8.5100930179E-04
    8.4636736613E-04    8.4175068414E-04    8.3715911906E-04    8.3259253484E-04
    8.2805079618E-04    8.2353376850E-04    8.1904131795E-04    8.1457331139E-04
    8.1012961640E-04    8.0571010127E-04    8.0131463501E-04    7.9694308732E-04
    7.9259532861E-04    7.8827122997E-04    7.8397066320E-04    7.7969350079E-04
    7.7543961591E-04    7.7120888241E-04    7.6700117482E-04    7.6281636835E-04
    7.5865433888E-04    7.5451496295E-04    7.5039811778E-04    7.4630368123E-04
    7.4223153184E-04    7.3818154878E-04    7.3415361189E-04    7.3014760165E-04
    7.2616339917E-04    7.2220088623E-04    7.1825994523E-04    7.1434045918E-04
    7.1044231176E-04    7.0656538726E-04
   </PP_CHI.6>
 </PP_PSWFC>
 <PP_NLCC type="real"  size="1766" columns="4">
    2.0806777809E+00    2.0802083075E+00    2.0788004826E+00    2.0764560902E+00
    2.0731781000E+00    2.0689706614E+00    2.0638390951E+00    2.0577898827E+00
    2.0508306539E+00    2.0429701714E+00    2.0342183135E+00    2.0245860550E+00
    2.0140854452E+00    2.0027295848E+00    1.9905325996E+00    1.9775096136E+00
    1.9636767194E+00    1.9490509466E+00    1.9336502295E+00    1.9174933723E+00
    1.9006000128E+00    1.8829905853E+00    1.8646862816E+00    1.8457090106E+00
    1.8260813578E+00    1.8058265419E+00    1.7849683727E+00    1.7635312061E+00
    1.7415399000E+00    1.7190197682E+00    1.6959965350E+00    1.6724962887E+00
    1.6485454349E+00    1.6241706498E+00    1.5993988332E+00    1.5742570620E+00
    1.5487725431E+00    1.5229725673E+00    1.4968844632E+00    1.4705355514E+00
    1.4439531000E+00    1.4171642795E+00    1.3901961200E+00    1.3630754680E+00
    1.3358289445E+00    1.3084829047E+00    1.2810633978E+00    1.2535961291E+00
    1.2261064222E+00    1.1986191836E+00    1.1711588680E+00    1.1437494450E+00
    1.1164143681E+00    1.0891765444E+00    1.0620583063E+00    1.0350813849E+00
    1.0082668845E+00    9.8163526017E-01    9.5520629523E-01    9.2899908203E-01
    9.0303200373E-01    8.7732271802E-01    8.5188814275E-01    8.2674444318E-01
    8.0190702119E-01    7.7739050613E-01    7.5320874755E-01    7.2937480961E-01
    7.0590096726E-01    6.8279870409E-01    6.6007871189E-01    6.3775089183E-01
    6.1582435723E-01    5.9430743793E-01    5.7320768610E-01    5.5253188361E-01
    5.3228605078E-01    5.1247545641E-01    4.9310462927E-01    4.7417737072E-01
    4.5569676854E-01    4.3766521194E-01    4.2008440754E-01    4.0295539643E-01
    3.8627857210E-01    3.7005369925E-01    3.5427993341E-01    3.3895584126E-01
    3.2407942160E-01    3.0964812694E-01    2.9565888556E-01    2.8210812404E-01
    2.6899179019E-01    2.5630537625E-01    2.4404394239E-01    2.3220214031E-01
    2.2077423705E-01    2.0975413878E-01    1.9913541463E-01    1.8891132044E-01
    1.7907482235E-01    1.6961862030E-01    1.6053517121E-01    1.5181671190E-01
    1.4345528175E-01    1.3544274486E-01    1.2777081190E-01    1.2043106143E-01
    1.1341496077E-01    1.0671388628E-01    1.0031914314E-01    9.4221984449E-02
    8.8413629791E-02    8.2885283059E-02    7.7628149670E-02    7.2633453059E-02
    6.7892450471E-02    6.3396448024E-02    5.9136815044E-02    5.5104997650E-02
    5.1292531587E-02    4.7691054311E-02    4.4292316310E-02    4.1088191670E-02
    3.8070687895E-02    3.5231954967E-02    3.2564293673E-02    3.0060163197E-02
    2.7712187988E-02    2.5513163921E-02    2.3456063765E-02    2.1534041962E-02
    1.9740438753E-02    1.8068783657E-02    1.6512798322E-02    1.5066398774E-02
    1.3723697082E-02    1.2479002466E-02    1.1326821864E-02    1.0261859988E-02
    9.2790188910E-03    8.3733970691E-03    7.5402881251E-03    6.7751790196E-03
    6.0737479334E-03    5.4318617676E-03    4.8455733071E-03    4.3111180729E-03
    3.8249108878E-03    3.3835421816E-03    2.9837740588E-03    2.6225361541E-03
    2.2969212989E-03    2.0041810220E-03    1.7417209065E-03    1.5070958253E-03
    1.2980050759E-03    1.1122874349E-03    9.4791615156E-04    8.0299389947E-04
    6.7574770413E-04    5.6452386302E-04    4.6778287473E-04    3.8409439214E-04
    3.1213221390E-04    2.5066932769E-04    1.9857301753E-04    1.5480004682E-04
    1.1839192757E-04    8.8470285549E-05    6.4232330142E-05    4.4946436833E-05
    2.9947849295E-05    1.8634507327E-05    1.0463005974E-05    4.9446904162E-06
    1.6418904079E-06    1.6429731990E-07    1.6548612889E-07    1.3395840018E-06
    3.4180864824E-06    6.1668216696E-06    9.3830621933E-06    1.2892784249E-05
    1.6548072443E-05    2.0224668709E-05    2.3819663154E-05    2.7249324231E-05
    3.0447065330E-05    3.3361544487E-05    3.5954893653E-05    3.8201073683E-05
    4.0084350962E-05    4.1597891420E-05    4.2742467458E-05    4.3525273247E-05
    4.3958843674E-05    4.4060072189E-05    4.3849322701E-05    4.3349630686E-05
    4.2585988623E-05    4.1584710914E-05    4.0372873473E-05    3.8977823225E-05
    3.7426752819E-05    3.5746335967E-05    3.3962418918E-05    3.2099763684E-05
    3.0181838775E-05    2.8230653346E-05    2.6266630800E-05    2.4308518037E-05
    2.2373326750E-05    2.0476303267E-05    1.8630923677E-05    1.6848911126E-05
    1.5140272336E-05    1.3513350623E-05    1.1974892803E-05    1.0530127619E-05
    9.1828534597E-06    7.9355333274E-06    6.7893951772E-06    5.7445359126E-06
    4.8000274996E-06    3.9540238056E-06    3.2038669114E-06    2.5461918041E-06
    1.9770284915E-06    1.4919007137E-06    1.0859205311E-06    7.5387821091E-07
    4.9032693138E-07    2.8966193378E-07    1.4619381699E-07    5.4215803915E-08
    8.0648570177E-09    2.1765974568E-09    3.1134052251E-08    8.9710318885E-08
    1.7290528346E-07    2.7597656179E-07    3.9446490030E-07    5.2421428740E-07
    6.6138705356E-07    8.0247427380E-07    9.4430179599E-07    1.0840322295E-06
    1.2191632443E-06    1.3475225308E-06    1.4672597714E-06    1.5768359766E-06
    1.6750105278E-06    1.7608262623E-06    1.8335929315E-06    1.8928693383E-06
    1.9384444550E-06    1.9703178091E-06    1.9886793910E-06    1.9938893398E-06
    1.9864576338E-06    1.9670239848E-06    1.9363381357E-06    1.8952407267E-06
    1.8446448660E-06    1.7855185551E-06    1.7188680623E-06    1.6457223326E-06
    1.5671185270E-06    1.4840887211E-06    1.3976478196E-06    1.3087827082E-06
    1.2184426422E-06    1.1275308837E-06    1.0368975603E-06    9.4733371962E-07
    8.5956655214E-07    7.7425572317E-07    6.9199077322E-07    6.1328952096E-07
    5.3859740354E-07    4.6828769069E-07    4.0266249288E-07    3.4195449480E-07
    2.8632933373E-07    2.3588854910E-07    1.9067302319E-07    1.5066684124E-07
    1.1580149309E-07    8.5960346227E-08    6.0983323286E-08    4.0671710581E-08
    2.4793048319E-08    1.3086027766E-08    5.2653572732E-09    1.0265362510E-09
    5.0496341035E-11    2.0080735029E-09    6.5642634649E-09    1.3382249390E-08
    2.2127151804E-08    3.2469503534E-08    4.4088413574E-08    5.6674420131E-08
    6.9932019294E-08    8.3581863769E-08    9.7362638727E-08    1.1103260502E-07
    1.2437083272E-07    1.3717811524E-07    1.4927759387E-07    1.6051509152E-07
    1.7075918310E-07    1.7990101218E-07    1.8785387831E-07    1.9455261192E-07
    1.9995275979E-07    2.0402960132E-07    2.0677701883E-07    2.0820624191E-07
    2.0834449060E-07    2.0723353418E-07    2.0492819303E-07    2.0149479464E-07
    1.9700961415E-07    1.9155730463E-07    1.8522934793E-07    1.7812252757E-07
    1.7033745230E-07    1.6197712918E-07    1.5314561166E-07    1.4394671914E-07
    1.3448284969E-07    1.2485388060E-07    1.1515617446E-07    1.0548168334E-07
    9.5917165561E-08    8.6543505247E-08    7.7435146197E-08    6.8659628477E-08
    6.0277236251E-08    5.2340743922E-08    4.4895266484E-08    3.7978200190E-08
    3.1619256983E-08    2.5840578652E-08    2.0656931544E-08    1.6075972321E-08
    1.2098627626E-08    8.7191656306E-09    5.9283127873E-09    3.7033699226E-09
    2.0125734164E-09    8.6516933006E-10    2.5171480409E-10    2.4761330574E-11
   -1.9791670657E-11   -8.3861810590E-12    6.1044477682E-12    5.7008742253E-12
   -9.8188670278E-13   -1.5555447665E-12    0.0000000000E+00    0.0000000000E+00
    0.0000000000E+00    0.0000000000E+00    0.0000000000E+00    0.0000000000E+00
    0.0000000000E+00    0.0000000000E+00    0.0000000000E+00    0.0000000000E+00
    0.0000000000E+00    0.0000000000E+00    0.0000000000E+00    0.0000000000E+00
    0.0000000000E+00    0.0000000000E+00    0.0000000000E+00    0.0000000000E+00
    0.0000000000E+00    0.0000000000E+00    0.0000000000E+00    0.0000000000E+00
    0.0000000000E+00    0.0000000000E+00    0.0000000000E+00    0.0000000000E+00
    0.0000000000E+00    0.0000000000E+00    0.0000000000E+00    0.0000000000E+00
    0.0000000000E+00    0.0000000000E+00    0.0000000000E+00    0.0000000000E+00
    0.0000000000E+00    0.0000000000E+00    0.0000000000E+00    0.0000000000E+00
    0.0000000000E+00    0.0000000000E+00    0.0000000000E+00    0.0000000000E+00
    0.0000000000E+00    0.0000000000E+00    0.0000000000E+00    0.0000000000E+00
    0.0000000000E+00    0.0000000000E+00    0.0000000000E+00    0.0000000000E+00
    0.0000000000E+00    0.0000000000E+00    0.0000000000E+00    0.0000000000E+00
    0.0000000000E+00    0.0000000000E+00    0.0000000000E+00    0.0000000000E+00
    0.0000000000E+00    0.0000000000E+00    0.0000000000E+00    0.0000000000E+00
    0.0000000000E+00    0.0000000000E+00    0.0000000000E+00    0.0000000000E+00
    0.0000000000E+00    0.0000000000E+00    0.0000000000E+00    0.0000000000E+00
    0.0000000000E+00    0.0000000000E+00    0.0000000000E+00    0.0000000000E+00
    0.0000000000E+00    0.0000000000E+00    0.0000000000E+00    0.0000000000E+00
    0.0000000000E+00    0.0000000000E+00    0.0000000000E+00    0.0000000000E+00
    0.0000000000E+00    0.0000000000E+00    0.0000000000E+00    0.0000000000E+00
    0.0000000000E+00    0.0000000000E+00    0.0000000000E+00    0.0000000000E+00
    0.0000000000E+00    0.0000000000E+00    0.0000000000E+00    0.0000000000E+00
    0.0000000000E+00    0.0000000000E+00    0.0000000000E+00    0.0000000000E+00
    0.0000000000E+00    0.0000000000E+00    0.0000000000E+00    0.0000000000E+00
    0.0000000000E+00    0.0000000000E+00    0.0000000000E+00    0.0000000000E+00
    0.0000000000E+00    0.0000000000E+00    0.0000000000E+00    0.0000000000E+00
    0.0000000000E+00    0.0000000000E+00    0.0000000000E+00    0.0000000000E+00
    0.0000000000E+00    0.0000000000E+00    0.0000000000E+00    0.0000000000E+00
    0.0000000000E+00    0.0000000000E+00    0.0000000000E+00    0.0000000000E+00
    0.0000000000E+00    0.0000000000E+00    0.0000000000E+00    0.0000000000E+00
    0.0000000000E+00    0.0000000000E+00    0.0000000000E+00    0.0000000000E+00
    0.0000000000E+00    0.0000000000E+00    0.0000000000E+00    0.0000000000E+00
    0.0000000000E+00    0.0000000000E+00    0.0000000000E+00    0.0000000000E+00
    0.0000000000E+00    0.0000000000E+00    0.0000000000E+00    0.0000000000E+00
    0.0000000000E+00    0.0000000000E+00    0.0000000000E+00    0.0000000000E+00
    0.0000000000E+00    0.0000000000E+00    0.0000000000E+00    0.0000000000E+00
    0.0000000000E+00    0.0000000000E+00    0.0000000000E+00    0.0000000000E+00
    0.0000000000E+00    0.0000000000E+00    0.0000000000E+00    0.0000000000E+00
    0.0000000000E+00    0.0000000000E+00    0.0000000000E+00    0.0000000000E+00
    0.0000000000E+00    0.0000000000E+00    0.0000000000E+00    0.0000000000E+00
    0.0000000000E+00    0.0000000000E+00    0.0000000000E+00    0.0000000000E+00
    0.0000000000E+00    0.0000000000E+00    0.0000000000E+00    0.0000000000E+00
    0.0000000000E+00    0.0000000000E+00    0.0000000000E+00    0.0000000000E+00
    0.0000000000E+00    0.0000000000E+00    0.0000000000E+00    0.0000000000E+00
    0.0000000000E+00    0.0000000000E+00    0.0000000000E+00    0.0000000000E+00
    0.0000000000E+00    0.0000000000E+00    0.0000000000E+00    0.0000000000E+00
    0.0000000000E+00    0.0000000000E+00    0.0000000000E+00    0.0000000000E+00
    0.0000000000E+00    0.0000000000E+00    0.0000000000E+00    0.0000000000E+00
    0.0000000000E+00    0.0000000000E+00    0.0000000000E+00    0.0000000000E+00
    0.0000000000E+00    0.0000000000E+00    0.0000000000E+00    0.0000000000E+00
    0.0000000000E+00    0.0000000000E+00    0.0000000000E+00    0.0000000000E+00
    0.0000000000E+00    0.0000000000E+00    0.0000000000E+00    0.0000000000E+00
    0.0000000000E+00    0.0000000000E+00    0.0000000000E+00    0.0000000000E+00
    0.0000000000E+00    0.0000000000E+00    0.0000000000E+00    0.0000000000E+00
    0.0000000000E+00    0.0000000000E+00    0.0000000000E+00    0.0000000000E+00
    0.0000000000E+00    0.0000000000E+00    0.0000000000E+00    0.0000000000E+00
    0.0000000000E+00    0.0000000000E+00    0.0000000000E+00    0.0000000000E+00
    0.0000000000E+00    0.0000000000E+00    0.0000000000E+00    0.0000000000E+00
    0.0000000000E+00    0.0000000000E+00    0.0000000000E+00    0.0000000000E+00
    0.0000000000E+00    0.0000000000E+00    0.0000000000E+00    0.0000000000E+00
    0.0000000000E+00    0.0000000000E+00    0.0000000000E+00    0.0000000000E+00
    0.0000000000E+00    0.0000000000E+00    0.0000000000E+00    0.0000000000E+00
    0.0000000000E+00    0.0000000000E+00    0.0000000000E+00    0.0000000000E+00
    0.0000000000E+00    0.0000000000E+00    0.0000000000E+00    0.0000000000E+00
    0.0000000000E+00    0.0000000000E+00    0.0000000000E+00    0.0000000000E+00
    0.0000000000E+00    0.0000000000E+00    0.0000000000E+00    0.0000000000E+00
    0.0000000000E+00    0.0000000000E+00    0.0000000000E+00    0.0000000000E+00
    0.0000000000E+00    0.0000000000E+00    0.0000000000E+00    0.0000000000E+00
    0.0000000000E+00    0.0000000000E+00    0.0000000000E+00    0.0000000000E+00
    0.0000000000E+00    0.0000000000E+00    0.0000000000E+00    0.0000000000E+00
    0.0000000000E+00    0.0000000000E+00    0.0000000000E+00    0.0000000000E+00
    0.0000000000E+00    0.0000000000E+00    0.0000000000E+00    0.0000000000E+00
    0.0000000000E+00    0.0000000000E+00    0.0000000000E+00    0.0000000000E+00
    0.0000000000E+00    0.0000000000E+00    0.0000000000E+00    0.0000000000E+00
    0.0000000000E+00    0.0000000000E+00    0.0000000000E+00    0.0000000000E+00
    0.0000000000E+00    0.0000000000E+00    0.0000000000E+00    0.0000000000E+00
    0.0000000000E+00    0.0000000000E+00    0.0000000000E+00    0.0000000000E+00
    0.0000000000E+00    0.0000000000E+00    0.0000000000E+00    0.0000000000E+00
    0.0000000000E+00    0.0000000000E+00    0.0000000000E+00    0.0000000000E+00
    0.0000000000E+00    0.0000000000E+00    0.0000000000E+00    0.0000000000E+00
    0.0000000000E+00    0.0000000000E+00    0.0000000000E+00    0.0000000000E+00
    0.0000000000E+00    0.0000000000E+00    0.0000000000E+00    0.0000000000E+00
    0.0000000000E+00    0.0000000000E+00    0.0000000000E+00    0.0000000000E+00
    0.0000000000E+00    0.0000000000E+00    0.0000000000E+00    0.0000000000E+00
    0.0000000000E+00    0.0000000000E+00    0.0000000000E+00    0.0000000000E+00
    0.0000000000E+00    0.0000000000E+00    0.0000000000E+00    0.0000000000E+00
    0.0000000000E+00    0.0000000000E+00    0.0000000000E+00    0.0000000000E+00
    0.0000000000E+00    0.0000000000E+00    0.0000000000E+00    0.0000000000E+00
    0.0000000000E+00    0.0000000000E+00    0.0000000000E+00    0.0000000000E+00
    0.0000000000E+00    0.0000000000E+00    0.0000000000E+00    0.0000000000E+00
    0.0000000000E+00    0.0000000000E+00    0.0000000000E+00    0.0000000000E+00
    0.0000000000E+00    0.0000000000E+00    0.0000000000E+00    0.0000000000E+00
    0.0000000000E+00    0.0000000000E+00    0.0000000000E+00    0.0000000000E+00
    0.0000000000E+00    0.0000000000E+00    0.0000000000E+00    0.0000000000E+00
    0.0000000000E+00    0.0000000000E+00    0.0000000000E+00    0.0000000000E+00
    0.0000000000E+00    0.0000000000E+00    0.0000000000E+00    0.0000000000E+00
    0.0000000000E+00    0.0000000000E+00    0.0000000000E+00    0.0000000000E+00
    0.0000000000E+00    0.0000000000E+00    0.0000000000E+00    0.0000000000E+00
    0.0000000000E+00    0.0000000000E+00    0.0000000000E+00    0.0000000000E+00
    0.0000000000E+00    0.0000000000E+00    0.0000000000E+00    0.0000000000E+00
    0.0000000000E+00    0.0000000000E+00    0.0000000000E+00    0.0000000000E+00
    0.0000000000E+00    0.0000000000E+00    0.0000000000E+00    0.0000000000E+00
    0.0000000000E+00    0.0000000000E+00    0.0000000000E+00    0.0000000000E+00
    0.0000000000E+00    0.0000000000E+00    0.0000000000E+00    0.0000000000E+00
    0.0000000000E+00    0.0000000000E+00    0.0000000000E+00    0.0000000000E+00
    0.0000000000E+00    0.0000000000E+00    0.0000000000E+00    0.0000000000E+00
    0.0000000000E+00    0.0000000000E+00    0.0000000000E+00    0.0000000000E+00
    0.0000000000E+00    0.0000000000E+00    0.0000000000E+00    0.0000000000E+00
    0.0000000000E+00    0.0000000000E+00    0.0000000000E+00    0.0000000000E+00
    0.0000000000E+00    0.0000000000E+00    0.0000000000E+00    0.0000000000E+00
    0.0000000000E+00    0.0000000000E+00    0.0000000000E+00    0.0000000000E+00
    0.0000000000E+00    0.0000000000E+00    0.0000000000E+00    0.0000000000E+00
    0.0000000000E+00    0.0000000000E+00    0.0000000000E+00    0.0000000000E+00
    0.0000000000E+00    0.0000000000E+00    0.0000000000E+00    0.0000000000E+00
    0.0000000000E+00    0.0000000000E+00    0.0000000000E+00    0.0000000000E+00
    0.0000000000E+00    0.0000000000E+00    0.0000000000E+00    0.0000000000E+00
    0.0000000000E+00    0.0000000000E+00    0.0000000000E+00    0.0000000000E+00
    0.0000000000E+00    0.0000000000E+00    0.0000000000E+00    0.0000000000E+00
    0.0000000000E+00    0.0000000000E+00    0.0000000000E+00    0.0000000000E+00
    0.0000000000E+00    0.0000000000E+00    0.0000000000E+00    0.0000000000E+00
    0.0000000000E+00    0.0000000000E+00    0.0000000000E+00    0.0000000000E+00
    0.0000000000E+00    0.0000000000E+00    0.0000000000E+00    0.0000000000E+00
    0.0000000000E+00    0.0000000000E+00    0.0000000000E+00    0.0000000000E+00
    0.0000000000E+00    0.0000000000E+00    0.0000000000E+00    0.0000000000E+00
    0.0000000000E+00    0.0000000000E+00    0.0000000000E+00    0.0000000000E+00
    0.0000000000E+00    0.0000000000E+00    0.0000000000E+00    0.0000000000E+00
    0.0000000000E+00    0.0000000000E+00    0.0000000000E+00    0.0000000000E+00
    0.0000000000E+00    0.0000000000E+00    0.0000000000E+00    0.0000000000E+00
    0.0000000000E+00    0.0000000000E+00    0.0000000000E+00    0.0000000000E+00
    0.0000000000E+00    0.0000000000E+00    0.0000000000E+00    0.0000000000E+00
    0.0000000000E+00    0.0000000000E+00    0.0000000000E+00    0.0000000000E+00
    0.0000000000E+00    0.0000000000E+00    0.0000000000E+00    0.0000000000E+00
    0.0000000000E+00    0.0000000000E+00    0.0000000000E+00    0.0000000000E+00
    0.0000000000E+00    0.0000000000E+00    0.0000000000E+00    0.0000000000E+00
    0.0000000000E+00    0.0000000000E+00    0.0000000000E+00    0.0000000000E+00
    0.0000000000E+00    0.0000000000E+00    0.0000000000E+00    0.0000000000E+00
    0.0000000000E+00    0.0000000000E+00    0.0000000000E+00    0.0000000000E+00
    0.0000000000E+00    0.0000000000E+00    0.0000000000E+00    0.0000000000E+00
    0.0000000000E+00    0.0000000000E+00    0.0000000000E+00    0.0000000000E+00
    0.0000000000E+00    0.0000000000E+00    0.0000000000E+00    0.0000000000E+00
    0.0000000000E+00    0.0000000000E+00    0.0000000000E+00    0.0000000000E+00
    0.0000000000E+00    0.0000000000E+00    0.0000000000E+00    0.0000000000E+00
    0.0000000000E+00    0.0000000000E+00    0.0000000000E+00    0.0000000000E+00
    0.0000000000E+00    0.0000000000E+00    0.0000000000E+00    0.0000000000E+00
    0.0000000000E+00    0.0000000000E+00    0.0000000000E+00    0.0000000000E+00
    0.0000000000E+00    0.0000000000E+00    0.0000000000E+00    0.0000000000E+00
    0.0000000000E+00    0.0000000000E+00    0.0000000000E+00    0.0000000000E+00
    0.0000000000E+00    0.0000000000E+00    0.0000000000E+00    0.0000000000E+00
    0.0000000000E+00    0.0000000000E+00    0.0000000000E+00    0.0000000000E+00
    0.0000000000E+00    0.0000000000E+00    0.0000000000E+00    0.0000000000E+00
    0.0000000000E+00    0.0000000000E+00    0.0000000000E+00    0.0000000000E+00
    0.0000000000E+00    0.0000000000E+00    0.0000000000E+00    0.0000000000E+00
    0.0000000000E+00    0.0000000000E+00    0.0000000000E+00    0.0000000000E+00
    0.0000000000E+00    0.0000000000E+00    0.0000000000E+00    0.0000000000E+00
    0.0000000000E+00    0.0000000000E+00    0.0000000000E+00    0.0000000000E+00
    0.0000000000E+00    0.0000000000E+00    0.0000000000E+00    0.0000000000E+00
    0.0000000000E+00    0.0000000000E+00    0.0000000000E+00    0.0000000000E+00
    0.0000000000E+00    0.0000000000E+00    0.0000000000E+00    0.0000000000E+00
    0.0000000000E+00    0.0000000000E+00    0.0000000000E+00    0.0000000000E+00
    0.0000000000E+00    0.0000000000E+00    0.0000000000E+00    0.0000000000E+00
    0.0000000000E+00    0.0000000000E+00    0.0000000000E+00    0.0000000000E+00
    0.0000000000E+00    0.0000000000E+00    0.0000000000E+00    0.0000000000E+00
    0.0000000000E+00    0.0000000000E+00    0.0000000000E+00    0.0000000000E+00
    0.0000000000E+00    0.0000000000E+00    0.0000000000E+00    0.0000000000E+00
    0.0000000000E+00    0.0000000000E+00    0.0000000000E+00    0.0000000000E+00
    0.0000000000E+00    0.0000000000E+00    0.0000000000E+00    0.0000000000E+00
    0.0000000000E+00    0.0000000000E+00    0.0000000000E+00    0.0000000000E+00
    0.0000000000E+00    0.0000000000E+00    0.0000000000E+00    0.0000000000E+00
    0.0000000000E+00    0.0000000000E+00    0.0000000000E+00    0.0000000000E+00
    0.0000000000E+00    0.0000000000E+00    0.0000000000E+00    0.0000000000E+00
    0.0000000000E+00    0.0000000000E+00    0.0000000000E+00    0.0000000000E+00
    0.0000000000E+00    0.0000000000E+00    0.0000000000E+00    0.0000000000E+00
    0.0000000000E+00    0.0000000000E+00    0.0000000000E+00    0.0000000000E+00
    0.0000000000E+00    0.0000000000E+00    0.0000000000E+00    0.0000000000E+00
    0.0000000000E+00    0.0000000000E+00    0.0000000000E+00    0.0000000000E+00
    0.0000000000E+00    0.0000000000E+00    0.0000000000E+00    0.0000000000E+00
    0.0000000000E+00    0.0000000000E+00    0.0000000000E+00    0.0000000000E+00
    0.0000000000E+00    0.0000000000E+00    0.0000000000E+00    0.0000000000E+00
    0.0000000000E+00    0.0000000000E+00    0.0000000000E+00    0.0000000000E+00
    0.0000000000E+00    0.0000000000E+00    0.0000000000E+00    0.0000000000E+00
    0.0000000000E+00    0.0000000000E+00    0.0000000000E+00    0.0000000000E+00
    0.0000000000E+00    0.0000000000E+00    0.0000000000E+00    0.0000000000E+00
    0.0000000000E+00    0.0000000000E+00    0.0000000000E+00    0.0000000000E+00
    0.0000000000E+00    0.0000000000E+00    0.0000000000E+00    0.0000000000E+00
    0.0000000000E+00    0.0000000000E+00    0.0000000000E+00    0.0000000000E+00
    0.0000000000E+00    0.0000000000E+00    0.0000000000E+00    0.0000000000E+00
    0.0000000000E+00    0.0000000000E+00    0.0000000000E+00    0.0000000000E+00
    0.0000000000E+00    0.0000000000E+00    0.0000000000E+00    0.0000000000E+00
    0.0000000000E+00    0.0000000000E+00    0.0000000000E+00    0.0000000000E+00
    0.0000000000E+00    0.0000000000E+00    0.0000000000E+00    0.0000000000E+00
    0.0000000000E+00    0.0000000000E+00    0.0000000000E+00    0.0000000000E+00
    0.0000000000E+00    0.0000000000E+00    0.0000000000E+00    0.0000000000E+00
    0.0000000000E+00    0.0000000000E+00    0.0000000000E+00    0.0000000000E+00
    0.0000000000E+00    0.0000000000E+00    0.0000000000E+00    0.0000000000E+00
    0.0000000000E+00    0.0000000000E+00    0.0000000000E+00    0.0000000000E+00
    0.0000000000E+00    0.0000000000E+00    0.0000000000E+00    0.0000000000E+00
    0.0000000000E+00    0.0000000000E+00    0.0000000000E+00    0.0000000000E+00
    0.0000000000E+00    0.0000000000E+00    0.0000000000E+00    0.0000000000E+00
    0.0000000000E+00    0.0000000000E+00    0.0000000000E+00    0.0000000000E+00
    0.0000000000E+00    0.0000000000E+00    0.0000000000E+00    0.0000000000E+00
    0.0000000000E+00    0.0000000000E+00    0.0000000000E+00    0.0000000000E+00
    0.0000000000E+00    0.0000000000E+00    0.0000000000E+00    0.0000000000E+00
    0.0000000000E+00    0.0000000000E+00    0.0000000000E+00    0.0000000000E+00
    0.0000000000E+00    0.0000000000E+00    0.0000000000E+00    0.0000000000E+00
    0.0000000000E+00    0.0000000000E+00    0.0000000000E+00    0.0000000000E+00
    0.0000000000E+00    0.0000000000E+00    0.0000000000E+00    0.0000000000E+00
    0.0000000000E+00    0.0000000000E+00    0.0000000000E+00    0.0000000000E+00
    0.0000000000E+00    0.0000000000E+00    0.0000000000E+00    0.0000000000E+00
    0.0000000000E+00    0.0000000000E+00    0.0000000000E+00    0.0000000000E+00
    0.0000000000E+00    0.0000000000E+00    0.0000000000E+00    0.0000000000E+00
    0.0000000000E+00    0.0000000000E+00    0.0000000000E+00    0.0000000000E+00
    0.0000000000E+00    0.0000000000E+00    0.0000000000E+00    0.0000000000E+00
    0.0000000000E+00    0.0000000000E+00    0.0000000000E+00    0.0000000000E+00
    0.0000000000E+00    0.0000000000E+00    0.0000000000E+00    0.0000000000E+00
    0.0000000000E+00    0.0000000000E+00    0.0000000000E+00    0.0000000000E+00
    0.0000000000E+00    0.0000000000E+00    0.0000000000E+00    0.0000000000E+00
    0.0000000000E+00    0.0000000000E+00    0.0000000000E+00    0.0000000000E+00
    0.0000000000E+00    0.0000000000E+00    0.0000000000E+00    0.0000000000E+00
    0.0000000000E+00    0.0000000000E+00    0.0000000000E+00    0.0000000000E+00
    0.0000000000E+00    0.0000000000E+00    0.0000000000E+00    0.0000000000E+00
    0.0000000000E+00    0.0000000000E+00    0.0000000000E+00    0.0000000000E+00
    0.0000000000E+00    0.0000000000E+00    0.0000000000E+00    0.0000000000E+00
    0.0000000000E+00    0.0000000000E+00    0.0000000000E+00    0.0000000000E+00
    0.0000000000E+00    0.0000000000E+00    0.0000000000E+00    0.0000000000E+00
    0.0000000000E+00    0.0000000000E+00    0.0000000000E+00    0.0000000000E+00
    0.0000000000E+00    0.0000000000E+00    0.0000000000E+00    0.0000000000E+00
    0.0000000000E+00    0.0000000000E+00    0.0000000000E+00    0.0000000000E+00
    0.0000000000E+00    0.0000000000E+00    0.0000000000E+00    0.0000000000E+00
    0.0000000000E+00    0.0000000000E+00    0.0000000000E+00    0.0000000000E+00
    0.0000000000E+00    0.0000000000E+00    0.0000000000E+00    0.0000000000E+00
    0.0000000000E+00    0.0000000000E+00    0.0000000000E+00    0.0000000000E+00
    0.0000000000E+00    0.0000000000E+00    0.0000000000E+00    0.0000000000E+00
    0.0000000000E+00    0.0000000000E+00    0.0000000000E+00    0.0000000000E+00
    0.0000000000E+00    0.0000000000E+00    0.0000000000E+00    0.0000000000E+00
    0.0000000000E+00    0.0000000000E+00    0.0000000000E+00    0.0000000000E+00
    0.0000000000E+00    0.0000000000E+00    0.0000000000E+00    0.0000000000E+00
    0.0000000000E+00    0.0000000000E+00    0.0000000000E+00    0.0000000000E+00
    0.0000000000E+00    0.0000000000E+00    0.0000000000E+00    0.0000000000E+00
    0.0000000000E+00    0.0000000000E+00    0.0000000000E+00    0.0000000000E+00
    0.0000000000E+00    0.0000000000E+00    0.0000000000E+00    0.0000000000E+00
    0.0000000000E+00    0.0000000000E+00    0.0000000000E+00    0.0000000000E+00
    0.0000000000E+00    0.0000000000E+00    0.0000000000E+00    0.0000000000E+00
    0.0000000000E+00    0.0000000000E+00    0.0000000000E+00    0.0000000000E+00
    0.0000000000E+00    0.0000000000E+00    0.0000000000E+00    0.0000000000E+00
    0.0000000000E+00    0.0000000000E+00    0.0000000000E+00    0.0000000000E+00
    0.0000000000E+00    0.0000000000E+00    0.0000000000E+00    0.0000000000E+00
    0.0000000000E+00    0.0000000000E+00    0.0000000000E+00    0.0000000000E+00
    0.0000000000E+00    0.0000000000E+00    0.0000000000E+00    0.0000000000E+00
    0.0000000000E+00    0.0000000000E+00    0.0000000000E+00    0.0000000000E+00
    0.0000000000E+00    0.0000000000E+00    0.0000000000E+00    0.0000000000E+00
    0.0000000000E+00    0.0000000000E+00    0.0000000000E+00    0.0000000000E+00
    0.0000000000E+00    0.0000000000E+00    0.0000000000E+00    0.0000000000E+00
    0.0000000000E+00    0.0000000000E+00    0.0000000000E+00    0.0000000000E+00
    0.0000000000E+00    0.0000000000E+00    0.0000000000E+00    0.0000000000E+00
    0.0000000000E+00    0.0000000000E+00    0.0000000000E+00    0.0000000000E+00
    0.0000000000E+00    0.0000000000E+00    0.0000000000E+00    0.0000000000E+00
    0.0000000000E+00    0.0000000000E+00    0.0000000000E+00    0.0000000000E+00
    0.0000000000E+00    0.0000000000E+00    0.0000000000E+00    0.0000000000E+00
    0.0000000000E+00    0.0000000000E+00    0.0000000000E+00    0.0000000000E+00
    0.0000000000E+00    0.0000000000E+00    0.0000000000E+00    0.0000000000E+00
    0.0000000000E+00    0.0000000000E+00    0.0000000000E+00    0.0000000000E+00
    0.0000000000E+00    0.0000000000E+00    0.0000000000E+00    0.0000000000E+00
    0.0000000000E+00    0.0000000000E+00    0.0000000000E+00    0.0000000000E+00
    0.0000000000E+00    0.0000000000E+00    0.0000000000E+00    0.0000000000E+00
    0.0000000000E+00    0.0000000000E+00    0.0000000000E+00    0.0000000000E+00
    0.0000000000E+00    0.0000000000E+00    0.0000000000E+00    0.0000000000E+00
    0.0000000000E+00    0.0000000000E+00    0.0000000000E+00    0.0000000000E+00
    0.0000000000E+00    0.0000000000E+00    0.0000000000E+00    0.0000000000E+00
    0.0000000000E+00    0.0000000000E+00    0.0000000000E+00    0.0000000000E+00
    0.0000000000E+00    0.0000000000E+00    0.0000000000E+00    0.0000000000E+00
    0.0000000000E+00    0.0000000000E+00    0.0000000000E+00    0.0000000000E+00
    0.0000000000E+00    0.0000000000E+00    0.0000000000E+00    0.0000000000E+00
    0.0000000000E+00    0.0000000000E+00    0.0000000000E+00    0.0000000000E+00
    0.0000000000E+00    0.0000000000E+00    0.0000000000E+00    0.0000000000E+00
    0.0000000000E+00    0.0000000000E+00    0.0000000000E+00    0.0000000000E+00
    0.0000000000E+00    0.0000000000E+00    0.0000000000E+00    0.0000000000E+00
    0.0000000000E+00    0.0000000000E+00    0.0000000000E+00    0.0000000000E+00
    0.0000000000E+00    0.0000000000E+00    0.0000000000E+00    0.0000000000E+00
    0.0000000000E+00    0.0000000000E+00    0.0000000000E+00    0.0000000000E+00
    0.0000000000E+00    0.0000000000E+00    0.0000000000E+00    0.0000000000E+00
    0.0000000000E+00    0.0000000000E+00    0.0000000000E+00    0.0000000000E+00
    0.0000000000E+00    0.0000000000E+00    0.0000000000E+00    0.0000000000E+00
    0.0000000000E+00    0.0000000000E+00    0.0000000000E+00    0.0000000000E+00
    0.0000000000E+00    0.0000000000E+00    0.0000000000E+00    0.0000000000E+00
    0.0000000000E+00    0.0000000000E+00    0.0000000000E+00    0.0000000000E+00
    0.0000000000E+00    0.0000000000E+00    0.0000000000E+00    0.0000000000E+00
    0.0000000000E+00    0.0000000000E+00    0.0000000000E+00    0.0000000000E+00
    0.0000000000E+00    0.0000000000E+00    0.0000000000E+00    0.0000000000E+00
    0.0000000000E+00    0.0000000000E+00    0.0000000000E+00    0.0000000000E+00
    0.0000000000E+00    0.0000000000E+00    0.0000000000E+00    0.0000000000E+00
    0.0000000000E+00    0.0000000000E+00    0.0000000000E+00    0.0000000000E+00
    0.0000000000E+00    0.0000000000E+00    0.0000000000E+00    0.0000000000E+00
    0.0000000000E+00    0.0000000000E+00    0.0000000000E+00    0.0000000000E+00
    0.0000000000E+00    0.0000000000E+00    0.0000000000E+00    0.0000000000E+00
    0.0000000000E+00    0.0000000000E+00    0.0000000000E+00    0.0000000000E+00
    0.0000000000E+00    0.0000000000E+00    0.0000000000E+00    0.0000000000E+00
    0.0000000000E+00    0.0000000000E+00    0.0000000000E+00    0.0000000000E+00
    0.0000000000E+00    0.0000000000E+00    0.0000000000E+00    0.0000000000E+00
    0.0000000000E+00    0.0000000000E+00    0.0000000000E+00    0.0000000000E+00
    0.0000000000E+00    0.0000000000E+00    0.0000000000E+00    0.0000000000E+00
    0.0000000000E+00    0.0000000000E+00    0.0000000000E+00    0.0000000000E+00
    0.0000000000E+00    0.0000000000E+00    0.0000000000E+00    0.0000000000E+00
    0.0000000000E+00    0.0000000000E+00    0.0000000000E+00    0.0000000000E+00
    0.0000000000E+00    0.0000000000E+00    0.0000000000E+00    0.0000000000E+00
    0.0000000000E+00    0.0000000000E+00    0.0000000000E+00    0.0000000000E+00
    0.0000000000E+00    0.0000000000E+00    0.0000000000E+00    0.0000000000E+00
    0.0000000000E+00    0.0000000000E+00    0.0000000000E+00    0.0000000000E+00
    0.0000000000E+00    0.0000000000E+00    0.0000000000E+00    0.0000000000E+00
    0.0000000000E+00    0.0000000000E+00    0.0000000000E+00    0.0000000000E+00
    0.0000000000E+00    0.0000000000E+00    0.0000000000E+00    0.0000000000E+00
    0.0000000000E+00    0.0000000000E+00    0.0000000000E+00    0.0000000000E+00
    0.0000000000E+00    0.0000000000E+00    0.0000000000E+00    0.0000000000E+00
    0.0000000000E+00    0.0000000000E+00    0.0000000000E+00    0.0000000000E+00
    0.0000000000E+00    0.0000000000E+00    0.0000000000E+00    0.0000000000E+00
    0.0000000000E+00    0.0000000000E+00    0.0000000000E+00    0.0000000000E+00
    0.0000000000E+00    0.0000000000E+00    0.0000000000E+00    0.0000000000E+00
    0.0000000000E+00    0.0000000000E+00    0.0000000000E+00    0.0000000000E+00
    0.0000000000E+00    0.0000000000E+00    0.0000000000E+00    0.0000000000E+00
    0.0000000000E+00    0.0000000000E+00    0.0000000000E+00    0.0000000000E+00
    0.0000000000E+00    0.0000000000E+00    0.0000000000E+00    0.0000000000E+00
    0.0000000000E+00    0.0000000000E+00    0.0000000000E+00    0.0000000000E+00
    0.0000000000E+00    0.0000000000E+00    0.0000000000E+00    0.0000000000E+00
    0.0000000000E+00    0.0000000000E+00    0.0000000000E+00    0.0000000000E+00
    0.0000000000E+00    0.0000000000E+00    0.0000000000E+00    0.0000000000E+00
    0.0000000000E+00    0.0000000000E+00    0.0000000000E+00    0.0000000000E+00
    0.0000000000E+00    0.0000000000E+00    0.0000000000E+00    0.0000000000E+00
    0.0000000000E+00    0.0000000000E+00    0.0000000000E+00    0.0000000000E+00
    0.0000000000E+00    0.0000000000E+00    0.0000000000E+00    0.0000000000E+00
    0.0000000000E+00    0.0000000000E+00    0.0000000000E+00    0.0000000000E+00
    0.0000000000E+00    0.0000000000E+00    0.0000000000E+00    0.0000000000E+00
    0.0000000000E+00    0.0000000000E+00    0.0000000000E+00    0.0000000000E+00
    0.0000000000E+00    0.0000000000E+00    0.0000000000E+00    0.0000000000E+00
    0.0000000000E+00    0.0000000000E+00    0.0000000000E+00    0.0000000000E+00
    0.0000000000E+00    0.0000000000E+00    0.0000000000E+00    0.0000000000E+00
    0.0000000000E+00    0.0000000000E+00    0.0000000000E+00    0.0000000000E+00
    0.0000000000E+00    0.0000000000E+00    0.0000000000E+00    0.0000000000E+00
    0.0000000000E+00    0.0000000000E+00    0.0000000000E+00    0.0000000000E+00
    0.0000000000E+00    0.0000000000E+00    0.0000000000E+00    0.0000000000E+00
    0.0000000000E+00    0.0000000000E+00    0.0000000000E+00    0.0000000000E+00
    0.0000000000E+00    0.0000000000E+00    0.0000000000E+00    0.0000000000E+00
    0.0000000000E+00    0.0000000000E+00    0.0000000000E+00    0.0000000000E+00
    0.0000000000E+00    0.0000000000E+00    0.0000000000E+00    0.0000000000E+00
    0.0000000000E+00    0.0000000000E+00    0.0000000000E+00    0.0000000000E+00
    0.0000000000E+00    0.0000000000E+00    0.0000000000E+00    0.0000000000E+00
    0.0000000000E+00    0.0000000000E+00    0.0000000000E+00    0.0000000000E+00
    0.0000000000E+00    0.0000000000E+00    0.0000000000E+00    0.0000000000E+00
    0.0000000000E+00    0.0000000000E+00    0.0000000000E+00    0.0000000000E+00
    0.0000000000E+00    0.0000000000E+00    0.0000000000E+00    0.0000000000E+00
    0.0000000000E+00    0.0000000000E+00    0.0000000000E+00    0.0000000000E+00
    0.0000000000E+00    0.0000000000E+00
 </PP_NLCC>
 <PP_RHOATOM type="real"  size="1766" columns="4">
    0.0000000000E+00    2.6059724304E-04    1.0441381213E-03    2.3558631748E-03
    4.2044836334E-03    6.6021469844E-03    9.5643889128E-03    1.3110071759E-02
    1.7261309679E-02    2.2043380740E-02    2.7484626205E-02    3.3616337331E-02
    4.0472630009E-02    4.8090307646E-02    5.6508712696E-02    6.5769567308E-02
    7.5916803584E-02    8.6996383972E-02    9.9056112358E-02    1.1214543645E-01
    1.2631524210E-01    1.4161764016E-01    1.5810574660E-01    1.7583345666E-01
    1.9485521355E-01    2.1522577276E-01    2.3699996243E-01    2.6023244088E-01
    2.8497745178E-01    3.1128857814E-01    3.3921849557E-01    3.6881872598E-01
    4.0013939235E-01    4.3322897544E-01    4.6813407340E-01    5.0489916497E-01
    5.4356637717E-01    5.8417525836E-01    6.2676255730E-01    6.7136200928E-01
    7.1800412976E-01    7.6671601660E-01    8.1752116137E-01    8.7043927056E-01
    9.2548609737E-01    9.8267328461E-01    1.0420082195E+00    1.1034939006E+00
    1.1671288180E+00    1.2329068466E+00    1.3008171533E+00    1.3708441182E+00
    1.4429672707E+00    1.5171612403E+00    1.5933957222E+00    1.6716354590E+00
    1.7518402367E+00    1.8339648971E+00    1.9179593656E+00    2.0037686940E+00
    2.0913331198E+00    2.1805881393E+00    2.2714645975E+00    2.3638887918E+00
    2.4577825906E+00    2.5530635663E+00    2.6496451418E+00    2.7474367513E+00
    2.8463440127E+00    2.9462689137E+00    3.0471100087E+00    3.1487626279E+00
    3.2511190959E+00    3.3540689608E+00    3.4574992325E+00    3.5612946287E+00
    3.6653378291E+00    3.7695097360E+00    3.8736897409E+00    3.9777559961E+00
    4.0815856905E+00    4.1850553288E+00    4.2880410126E+00    4.3904187237E+00
    4.4920646073E+00    4.5928552552E+00    4.6926679880E+00    4.7913811343E+00
    4.8888743080E+00    4.9850286809E+00    5.0797272511E+00    5.1728551050E+00
    5.2642996743E+00    5.3539509845E+00    5.4417018959E+00    5.5274483369E+00
    5.6110895262E+00    5.6925281867E+00    5.7716707479E+00    5.8484275373E+00
    5.9227129605E+00    5.9944456687E+00    6.0635487138E+00    6.1299496904E+00
    6.1935808649E+00    6.2543792905E+00    6.3122869086E+00    6.3672506364E+00
    6.4192224397E+00    6.4681593922E+00    6.5140237204E+00    6.5567828337E+00
    6.5964093410E+00    6.6328810532E+00    6.6661809714E+00    6.6962972617E+00
    6.7232232173E+00    6.7469572060E+00    6.7675026069E+00    6.7848677330E+00
    6.7990657435E+00    6.8101145438E+00    6.8180366746E+00    6.8228591912E+00
    6.8246135328E+00    6.8233353826E+00    6.8190645190E+00    6.8118446597E+00
    6.8017232982E+00    6.7887515332E+00    6.7729838927E+00    6.7544781530E+00
    6.7332951527E+00    6.7094986031E+00    6.6831548956E+00    6.6543329067E+00
    6.6231038009E+00    6.5895408328E+00    6.5537191489E+00    6.5157155893E+00
    6.4756084906E+00    6.4334774897E+00    6.3894033308E+00    6.3434676734E+00
    6.2957529046E+00    6.2463419552E+00    6.1953181184E+00    6.1427648750E+00
    6.0887657223E+00    6.0334040085E+00    5.9767627735E+00    5.9189245948E+00
    5.8599714400E+00    5.7999845265E+00    5.7390441867E+00    5.6772297411E+00
    5.6146193785E+00    5.5512900420E+00    5.4873173244E+00    5.4227753690E+00
    5.3577367786E+00    5.2922725320E+00    5.2264519069E+00    5.1603424109E+00
    5.0940097189E+00    5.0275176181E+00    4.9609279592E+00    4.8943006148E+00
    4.8276934441E+00    4.7611622637E+00    4.6947608252E+00    4.6285407979E+00
    4.5625517574E+00    4.4968411801E+00    4.4314544420E+00    4.3664348232E+00
    4.3018235163E+00    4.2376596400E+00    4.1739802560E+00    4.1108203903E+00
    4.0482130576E+00    3.9861892893E+00    3.9247781645E+00    3.8640068438E+00
    3.8039006051E+00    3.7444828825E+00    3.6857753062E+00    3.6277977455E+00
    3.5705683518E+00    3.5141036042E+00    3.4584183554E+00    3.4035258791E+00
    3.3494379176E+00    3.2961647305E+00    3.2437151429E+00    3.1920965954E+00
    3.1413151919E+00    3.0913757499E+00    3.0422818481E+00    2.9940358759E+00
    2.9466390809E+00    2.9000916168E+00    2.8543925899E+00    2.8095401053E+00
    2.7655313121E+00    2.7223624486E+00    2.6800288869E+00    2.6385251759E+00
    2.5978450838E+00    2.5579816395E+00    2.5189271724E+00    2.4806733518E+00
    2.4432112403E+00    2.4065313948E+00    2.3706240310E+00    2.3354791014E+00
    2.3010862941E+00    2.2674350690E+00    2.2345146811E+00    2.2023142044E+00
    2.1708225553E+00    2.1400285143E+00    2.1099207471E+00    2.0804878248E+00
    2.0517182428E+00    2.0236004397E+00    1.9961228154E+00    1.9692737553E+00
    1.9430416612E+00    1.9174149827E+00    1.8923822226E+00    1.8679319468E+00
    1.8440527951E+00    1.8207334890E+00    1.7979628400E+00    1.7757297569E+00
    1.7540232524E+00    1.7328324492E+00    1.7121465855E+00    1.6919550199E+00
    1.6722472354E+00    1.6530128436E+00    1.6342415850E+00    1.6159233280E+00
    1.5980480634E+00    1.5806059047E+00    1.5635870915E+00    1.5469819934E+00
    1.5307811111E+00    1.5149750778E+00    1.4995546606E+00    1.4845107618E+00
    1.4698344199E+00    1.4555168103E+00    1.4415492459E+00    1.4279231775E+00
    1.4146301938E+00    1.4016620221E+00    1.3890105273E+00    1.3766677128E+00
    1.3646257193E+00    1.3528768246E+00    1.3414134435E+00    1.3302281265E+00
    1.3193135597E+00    1.3086625635E+00    1.2982680921E+00    1.2881232325E+00
    1.2782212033E+00    1.2685553538E+00    1.2591191630E+00    1.2499062384E+00
    1.2409103146E+00    1.2321252526E+00    1.2235450379E+00    1.2151637798E+00
    1.2069757097E+00    1.1989751799E+00    1.1911566626E+00    1.1835147479E+00
    1.1760441427E+00    1.1687396696E+00    1.1615962651E+00    1.1546089783E+00
    1.1477729694E+00    1.1410835083E+00    1.1345359734E+00    1.1281258496E+00
    1.1218487273E+00    1.1157003006E+00    1.1096763661E+00    1.1037728211E+00
    1.0979856624E+00    1.0923109846E+00    1.0867449786E+00    1.0812839302E+00
    1.0759242186E+00    1.0706623148E+00    1.0654947801E+00    1.0604182645E+00
    1.0554295055E+00    1.0505253264E+00    1.0457026346E+00    1.0409584206E+00
    1.0362897559E+00    1.0316937921E+00    1.0271677589E+00    1.0227089631E+00
    1.0183147869E+00    1.0139826862E+00    1.0097101896E+00    1.0054948968E+00
    1.0013344772E+00    9.9722666814E-01    9.9316927414E-01    9.8916016498E-01
    9.8519727458E-01    9.8127859958E-01    9.7740219797E-01    9.7356618782E-01
    9.6976874594E-01    9.6600810655E-01    9.6228256006E-01    9.5859045179E-01
    9.5493018068E-01    9.5130019814E-01    9.4769900677E-01    9.4412515921E-01
    9.4057725697E-01    9.3705394923E-01    9.3355393176E-01    9.3007594577E-01
    9.2661877682E-01    9.2318125373E-01    9.1976224752E-01    9.1636067039E-01
    9.1297547467E-01    9.0960565181E-01    9.0625023143E-01    9.0290828029E-01
    8.9957890141E-01    8.9626123307E-01    8.9295444794E-01    8.8965775216E-01
    8.8637038448E-01    8.8309161539E-01    8.7982074624E-01    8.7655710849E-01
    8.7330006282E-01    8.7004899839E-01    8.6680333204E-01    8.6356250751E-01
    8.6032599474E-01    8.5709328911E-01    8.5386391074E-01    8.5063740378E-01
    8.4741333572E-01    8.4419129676E-01    8.4097089910E-01    8.3775177635E-01
    8.3453358289E-01    8.3131599324E-01    8.2809870148E-01    8.2488142067E-01
    8.2166388227E-01    8.1844583559E-01    8.1522704722E-01    8.1200730054E-01
    8.0878639516E-01    8.0556414644E-01    8.0234038498E-01    7.9911495613E-01
    7.9588771952E-01    7.9265854863E-01    7.8942733028E-01    7.8619396422E-01
    7.8295836272E-01    7.7972045012E-01    7.7648016243E-01    7.7323744692E-01
    7.6999226174E-01    7.6674457556E-01    7.6349436717E-01    7.6024162509E-01
    7.5698634731E-01    7.5372854084E-01    7.5046822143E-01    7.4720541326E-01
    7.4394014855E-01    7.4067246733E-01    7.3740241706E-01    7.3413005241E-01
    7.3085543490E-01    7.2757863267E-01    7.2429972018E-01    7.2101877793E-01
    7.1773589226E-01    7.1445115501E-01    7.1116466335E-01    7.0787651950E-01
    7.0458683049E-01    7.0129570796E-01    6.9800326790E-01    6.9470963048E-01
    6.9141491981E-01    6.8811926371E-01    6.8482279359E-01    6.8152564415E-01
    6.7822795330E-01    6.7492986188E-01    6.7163151355E-01    6.6833305457E-01
    6.6503463367E-01    6.6173640184E-01    6.5843851221E-01    6.5514111989E-01
    6.5184438179E-01    6.4854845649E-01    6.4525350412E-01    6.4195968618E-01
    6.3866716543E-01    6.3537610575E-01    6.3208667202E-01    6.2879903000E-01
    6.2551334619E-01    6.2222978773E-01    6.1894852230E-01    6.1566971797E-01
    6.1239354314E-01    6.0912016639E-01    6.0584975645E-01    6.0258248201E-01
    5.9931851170E-01    5.9605801398E-01    5.9280115704E-01    5.8954810871E-01
    5.8629903642E-01    5.8305410706E-01    5.7981348696E-01    5.7657734176E-01
    5.7334583640E-01    5.7011913499E-01    5.6689740079E-01    5.6368079613E-01
    5.6046948232E-01    5.5726361965E-01    5.5406336727E-01    5.5086888318E-01
    5.4768032414E-01    5.4449784566E-01    5.4132160190E-01    5.3815174568E-01
    5.3498842838E-01    5.3183179994E-01    5.2868200878E-01    5.2553920181E-01
    5.2240352434E-01    5.1927512007E-01    5.1615413104E-01    5.1304069764E-01
    5.0993495851E-01    5.0683705057E-01    5.0374710897E-01    5.0066526705E-01
    4.9759165633E-01    4.9452640649E-01    4.9146964535E-01    4.8842149881E-01
    4.8538209090E-01    4.8235154369E-01    4.7932997733E-01    4.7631751000E-01
    4.7331425790E-01    4.7032033526E-01    4.6733585430E-01    4.6436092524E-01
    4.6139565626E-01    4.5844015354E-01    4.5549452122E-01    4.5255886138E-01
    4.4963327408E-01    4.4671785730E-01    4.4381270700E-01    4.4091791707E-01
    4.3803357933E-01    4.3515978355E-01    4.3229661746E-01    4.2944416671E-01
    4.2660251492E-01    4.2377174363E-01    4.2095193236E-01    4.1814315857E-01
    4.1534549769E-01    4.1255902311E-01    4.0978380623E-01    4.0701991637E-01
    4.0426742091E-01    4.0152638517E-01    3.9879687253E-01    3.9607894434E-01
    3.9337266002E-01    3.9067807701E-01    3.8799525081E-01    3.8532423497E-01
    3.8266508114E-01    3.8001783904E-01    3.7738255651E-01    3.7475927949E-01
    3.7214805206E-01    3.6954891646E-01    3.6696191307E-01    3.6438708046E-01
    3.6182445541E-01    3.5927407287E-01    3.5673596605E-01    3.5421016640E-01
    3.5169670363E-01    3.4919560572E-01    3.4670689896E-01    3.4423060795E-01
    3.4176675561E-01    3.3931536325E-01    3.3687645051E-01    3.3445003544E-01
    3.3203613450E-01    3.2963476257E-01    3.2724593300E-01    3.2486965758E-01
    3.2250594660E-01    3.2015480887E-01    3.1781625171E-01    3.1549028098E-01
    3.1317690115E-01    3.1087611522E-01    3.0858792486E-01    3.0631233032E-01
    3.0404933051E-01    3.0179892304E-01    2.9956110418E-01    2.9733586891E-01
    2.9512321097E-01    2.9292312281E-01    2.9073559569E-01    2.8856061964E-01
    2.8639818351E-01    2.8424827499E-01    2.8211088061E-01    2.7998598579E-01
    2.7787357482E-01    2.7577363094E-01    2.7368613629E-01    2.7161107199E-01
    2.6954841811E-01    2.6749815372E-01    2.6546025693E-01    2.6343470484E-01
    2.6142147364E-01    2.5942053856E-01    2.5743187395E-01    2.5545545326E-01
    2.5349124904E-01    2.5153923303E-01    2.4959937612E-01    2.4767164837E-01
    2.4575601907E-01    2.4385245670E-01    2.4196092900E-01    2.4008140296E-01
    2.3821384486E-01    2.3635822024E-01    2.3451449397E-01    2.3268263026E-01
    2.3086259262E-01    2.2905434397E-01    2.2725784658E-01    2.2547306211E-01
    2.2369995165E-01    2.2193847568E-01    2.2018859417E-01    2.1845026651E-01
    2.1672345158E-01    2.1500810774E-01    2.1330419285E-01    2.1161166431E-01
    2.0993047903E-01    2.0826059348E-01    2.0660196368E-01    2.0495454524E-01
    2.0331829336E-01    2.0169316283E-01    2.0007910807E-01    1.9847608314E-01
    1.9688404171E-01    1.9530293715E-01    1.9373272247E-01    1.9217335037E-01
    1.9062477326E-01    1.8908694325E-01    1.8755981215E-01    1.8604333152E-01
    1.8453745267E-01    1.8304212666E-01    1.8155730430E-01    1.8008293620E-01
    1.7861897274E-01    1.7716536412E-01    1.7572206032E-01    1.7428901118E-01
    1.7286616632E-01    1.7145347526E-01    1.7005088731E-01    1.6865835168E-01
    1.6727581745E-01    1.6590323354E-01    1.6454054881E-01    1.6318771199E-01
    1.6184467170E-01    1.6051137651E-01    1.5918777488E-01    1.5787381524E-01
    1.5656944591E-01    1.5527461521E-01    1.5398927137E-01    1.5271336260E-01
    1.5144683711E-01    1.5018964303E-01    1.4894172853E-01    1.4770304174E-01
    1.4647353079E-01    1.4525314384E-01    1.4404182904E-01    1.4283953457E-01
    1.4164620862E-01    1.4046179943E-01    1.3928625528E-01    1.3811952448E-01
    1.3696155538E-01    1.3581229642E-01    1.3467169608E-01    1.3353970289E-01
    1.3241626548E-01    1.3130133254E-01    1.3019485285E-01    1.2909677527E-01
    1.2800704876E-01    1.2692562235E-01    1.2585244521E-01    1.2478746659E-01
    1.2373063585E-01    1.2268190248E-01    1.2164121605E-01    1.2060852629E-01
    1.1958378305E-01    1.1856693629E-01    1.1755793611E-01    1.1655673275E-01
    1.1556327660E-01    1.1457751817E-01    1.1359940813E-01    1.1262889730E-01
    1.1166593665E-01    1.1071047730E-01    1.0976247054E-01    1.0882186782E-01
    1.0788862073E-01    1.0696268107E-01    1.0604400076E-01    1.0513253193E-01
    1.0422822687E-01    1.0333103804E-01    1.0244091808E-01    1.0155781983E-01
    1.0068169628E-01    9.9812500633E-02    9.8950186261E-02    9.8094706730E-02
    9.7246015798E-02    9.6404067411E-02    9.5568815712E-02    9.4740215035E-02
    9.3918219913E-02    9.3102785076E-02    9.2293865454E-02    9.1491416176E-02
    9.0695392573E-02    8.9905750180E-02    8.9122444736E-02    8.8345432184E-02
    8.7574668674E-02    8.6810110563E-02    8.6051714415E-02    8.5299437006E-02
    8.4553235317E-02    8.3813066545E-02    8.3078888093E-02    8.2350657578E-02
    8.1628332831E-02    8.0911871895E-02    8.0201233024E-02    7.9496374691E-02
    7.8797255578E-02    7.8103834587E-02    7.7416070833E-02    7.6733923645E-02
    7.6057352570E-02    7.5386317371E-02    7.4720778027E-02    7.4060694733E-02
    7.3406027902E-02    7.2756738162E-02    7.2112786359E-02    7.1474133555E-02
    7.0840741029E-02    7.0212570279E-02    6.9589583017E-02    6.8971741172E-02
    6.8359006892E-02    6.7751342537E-02    6.7148710689E-02    6.6551074141E-02
    6.5958395905E-02    6.5370639207E-02    6.4787767489E-02    6.4209744408E-02
    6.3636533836E-02    6.3068099858E-02    6.2504406775E-02    6.1945419101E-02
    6.1391101562E-02    6.0841419099E-02    6.0296336863E-02    5.9755820219E-02
    5.9219834742E-02    5.8688346219E-02    5.8161320646E-02    5.7638724231E-02
    5.7120523390E-02    5.6606684747E-02    5.6097175136E-02    5.5591961598E-02
    5.5091011380E-02    5.4594291937E-02    5.4101770928E-02    5.3613416219E-02
    5.3129195879E-02    5.2649078182E-02    5.2173031603E-02    5.1701024822E-02
    5.1233026719E-02    5.0769006375E-02    5.0308933073E-02    4.9852776293E-02
    4.9400505716E-02    4.8952091219E-02    4.8507502878E-02    4.8066710965E-02
    4.7629685947E-02    4.7196398487E-02    4.6766819441E-02    4.6340919859E-02
    4.5918670984E-02    4.5500044249E-02    4.5085011281E-02    4.4673543894E-02
    4.4265614092E-02    4.3861194069E-02    4.3460256206E-02    4.3062773068E-02
    4.2668717410E-02    4.2278062169E-02    4.1890780468E-02    4.1506845612E-02
    4.1126231090E-02    4.0748910571E-02    4.0374857906E-02    4.0004047124E-02
    3.9636452437E-02    3.9272048229E-02    3.8910809067E-02    3.8552709691E-02
    3.8197725018E-02    3.7845830138E-02    3.7497000317E-02    3.7151210991E-02
    3.6808437771E-02    3.6468656435E-02    3.6131842937E-02    3.5797973393E-02
    3.5467024094E-02    3.5138971495E-02    3.4813792218E-02    3.4491463050E-02
    3.4171960944E-02    3.3855263018E-02    3.3541346550E-02    3.3230188982E-02
    3.2921767917E-02    3.2616061118E-02    3.2313046508E-02    3.2012702168E-02
    3.1715006337E-02    3.1419937410E-02    3.1127473940E-02    3.0837594632E-02
    3.0550278347E-02    3.0265504100E-02    2.9983251056E-02    2.9703498534E-02
    2.9426226001E-02    2.9151413076E-02    2.8879039526E-02    2.8609085266E-02
    2.8341530358E-02    2.8076355011E-02    2.7813539577E-02    2.7553064557E-02
    2.7294910590E-02    2.7039058463E-02    2.6785489103E-02    2.6534183576E-02
    2.6285123092E-02    2.6038288997E-02    2.5793662778E-02    2.5551226059E-02
    2.5310960600E-02    2.5072848299E-02    2.4836871187E-02    2.4603011430E-02
    2.4371251329E-02    2.4141573316E-02    2.3913959956E-02    2.3688393945E-02
    2.3464858107E-02    2.3243335399E-02    2.3023808904E-02    2.2806261835E-02
    2.2590677530E-02    2.2377039454E-02    2.2165331197E-02    2.1955536476E-02
    2.1747639128E-02    2.1541623115E-02    2.1337472523E-02    2.1135171556E-02
    2.0934704541E-02    2.0736055924E-02    2.0539210271E-02    2.0344152266E-02
    2.0150866710E-02    1.9959338521E-02    1.9769552734E-02    1.9581494498E-02
    1.9395149079E-02    1.9210501853E-02    1.9027538312E-02    1.8846244060E-02
    1.8666604812E-02    1.8488606394E-02    1.8312234742E-02    1.8137475901E-02
    1.7964316026E-02    1.7792741379E-02    1.7622738330E-02    1.7454293354E-02
    1.7287393033E-02    1.7122024053E-02    1.6958173207E-02    1.6795827389E-02
    1.6634973597E-02    1.6475598931E-02    1.6317690593E-02    1.6161235886E-02
    1.6006222212E-02    1.5852637075E-02    1.5700468075E-02    1.5549702912E-02
    1.5400329384E-02    1.5252335384E-02    1.5105708902E-02    1.4960438025E-02
    1.4816510933E-02    1.4673915900E-02    1.4532641295E-02    1.4392675580E-02
    1.4254007307E-02    1.4116625123E-02    1.3980517764E-02    1.3845674056E-02
    1.3712082915E-02    1.3579733348E-02    1.3448614448E-02    1.3318715397E-02
    1.3190025465E-02    1.3062534006E-02    1.2936230464E-02    1.2811104365E-02
    1.2687145321E-02    1.2564343029E-02    1.2442687268E-02    1.2322167902E-02
    1.2202774877E-02    1.2084498219E-02    1.1967328037E-02    1.1851254521E-02
    1.1736267939E-02    1.1622358641E-02    1.1509517055E-02    1.1397733687E-02
    1.1286999122E-02    1.1177304020E-02    1.1068639121E-02    1.0960995238E-02
    1.0854363261E-02    1.0748734157E-02    1.0644098963E-02    1.0540448795E-02
    1.0437774838E-02    1.0336068354E-02    1.0235320674E-02    1.0135523203E-02
    1.0036667416E-02    9.9387448594E-03    9.8417471503E-03    9.7456659749E-03
    9.6504930889E-03    9.5562203168E-03    9.4628395512E-03    9.3703427524E-03
    9.2787219483E-03    9.1879692330E-03    9.0980767673E-03    9.0090367774E-03
    8.9208415550E-03    8.8334834565E-03    8.7469549024E-03    8.6612483773E-03
    8.5763564290E-03    8.4922716680E-03    8.4089867675E-03    8.3264944623E-03
    8.2447875487E-03    8.1638588842E-03    8.0837013866E-03    8.0043080338E-03
    7.9256718634E-03    7.8477859721E-03    7.7706435152E-03    7.6942377064E-03
    7.6185618171E-03    7.5436091763E-03    7.4693731696E-03    7.3958472395E-03
    7.3230248841E-03    7.2508996575E-03    7.1794651690E-03    7.1087150824E-03
    7.0386431161E-03    6.9692430425E-03    6.9005086873E-03    6.8324339296E-03
    6.7650127008E-03    6.6982389851E-03    6.6321068182E-03    6.5666102874E-03
    6.5017435311E-03    6.4375007385E-03    6.3738761490E-03    6.3108640518E-03
    6.2484587857E-03    6.1866547387E-03    6.1254463474E-03    6.0648280969E-03
    6.0047945201E-03    5.9453401977E-03    5.8864597575E-03    5.8281478741E-03
    5.7703992687E-03    5.7132087085E-03    5.6565710067E-03    5.6004810214E-03
    5.5449336563E-03    5.4899238593E-03    5.4354466228E-03    5.3814969833E-03
    5.3280700207E-03    5.2751608581E-03    5.2227646618E-03    5.1708766404E-03
    5.1194920449E-03    5.0686061681E-03    5.0182143443E-03    4.9683119492E-03
    4.9188943992E-03    4.8699571513E-03    4.8214957028E-03    4.7735055910E-03
    4.7259823924E-03    4.6789217231E-03    4.6323192381E-03    4.5861706309E-03
    4.5404716335E-03    4.4952180156E-03    4.4504055848E-03    4.4060301861E-03
    4.3620877015E-03    4.3185740498E-03    4.2754851863E-03    4.2328171023E-03
    4.1905658253E-03    4.1487274180E-03    4.1072979787E-03    4.0662736405E-03
    4.0256505713E-03    3.9854249735E-03    3.9455930834E-03    3.9061511713E-03
    3.8670955411E-03    3.8284225301E-03    3.7901285082E-03    3.7522098786E-03
    3.7146630765E-03    3.6774845697E-03    3.6406708575E-03    3.6042184712E-03
    3.5681239735E-03    3.5323839580E-03    3.4969950495E-03    3.4619539030E-03
    3.4272572043E-03    3.3929016689E-03    3.3588840427E-03    3.3252011005E-03
    3.2918496471E-03    3.2588265160E-03    3.2261285697E-03    3.1937526994E-03
    3.1616958244E-03    3.1299548925E-03    3.0985268790E-03    3.0674087873E-03
    3.0365976479E-03    3.0060905185E-03    2.9758844840E-03    2.9459766557E-03
    2.9163641717E-03    2.8870441961E-03    2.8580139194E-03    2.8292705576E-03
    2.8008113524E-03    2.7726335709E-03    2.7447345055E-03    2.7171114733E-03
    2.6897618164E-03    2.6626829012E-03    2.6358721186E-03    2.6093268834E-03
    2.5830446345E-03    2.5570228344E-03    2.5312589690E-03    2.5057505476E-03
    2.4804951026E-03    2.4554901892E-03    2.4307333852E-03    2.4062222911E-03
    2.3819545296E-03    2.3579277454E-03    2.3341396052E-03    2.3105877973E-03
    2.2872700317E-03    2.2641840396E-03    2.2413275734E-03    2.2186984064E-03
    2.1962943327E-03    2.1741131672E-03    2.1521527448E-03    2.1304109209E-03
    2.1088855710E-03    2.0875745905E-03    2.0664758942E-03    2.0455874167E-03
    2.0249071120E-03    2.0044329531E-03    1.9841629322E-03    1.9640950601E-03
    1.9442273666E-03    1.9245578998E-03    1.9050847263E-03    1.8858059307E-03
    1.8667196158E-03    1.8478239022E-03    1.8291169283E-03    1.8105968498E-03
    1.7922618401E-03    1.7741100897E-03    1.7561398062E-03    1.7383492142E-03
    1.7207365549E-03    1.7033000863E-03    1.6860380829E-03    1.6689488354E-03
    1.6520306508E-03    1.6352818521E-03    1.6187007783E-03    1.6022857840E-03
    1.5860352394E-03    1.5699475305E-03    1.5540210581E-03    1.5382542388E-03
    1.5226455038E-03    1.5071932993E-03    1.4918960866E-03    1.4767523413E-03
    1.4617605536E-03    1.4469192283E-03    1.4322268842E-03    1.4176820543E-03
    1.4032832858E-03    1.3890291395E-03    1.3749181902E-03    1.3609490260E-03
    1.3471202488E-03    1.3334304739E-03    1.3198783295E-03    1.3064624574E-03
    1.2931815120E-03    1.2800341609E-03    1.2670190843E-03    1.2541349751E-03
    1.2413805389E-03    1.2287544935E-03    1.2162555691E-03    1.2038825082E-03
    1.1916340652E-03    1.1795090067E-03    1.1675061110E-03    1.1556241683E-03
    1.1438619803E-03    1.1322183604E-03    1.1206921333E-03    1.1092821352E-03
    1.0979872133E-03    1.0868062261E-03    1.0757380431E-03    1.0647815447E-03
    1.0539356220E-03    1.0431991772E-03    1.0325711226E-03    1.0220503814E-03
    1.0116358871E-03    1.0013265836E-03    9.9112142479E-04    9.8101937498E-04
    9.7101940841E-04    9.6112050926E-04    9.5132167158E-04    9.4162189917E-04
    9.3202020553E-04    9.2251561373E-04    9.1310715632E-04    9.0379387527E-04
    8.9457482188E-04    8.8544905664E-04    8.7641564922E-04    8.6747367834E-04
    8.5862223167E-04    8.4986040581E-04    8.4118730613E-04    8.3260204675E-04
    8.2410375040E-04    8.1569154839E-04    8.0736458051E-04    7.9912199496E-04
    7.9096294822E-04    7.8288660507E-04    7.7489213840E-04    7.6697872922E-04
    7.5914556655E-04    7.5139184733E-04    7.4371677638E-04    7.3611956628E-04
    7.2859943736E-04    7.2115561756E-04    7.1378734240E-04    7.0649385489E-04
    6.9927440548E-04    6.9212825195E-04    6.8505465938E-04    6.7805290008E-04
    6.7112225349E-04    6.6426200612E-04    6.5747145151E-04    6.5074989015E-04
    6.4409662939E-04    6.3751098340E-04    6.3099227312E-04    6.2453982615E-04
    6.1815297671E-04    6.1183106561E-04    6.0557344011E-04    5.9937945394E-04
    5.9324846720E-04    5.8717984627E-04    5.8117296381E-04    5.7522719866E-04
    5.6934193581E-04    5.6351656629E-04    5.5775048716E-04    5.5204310147E-04
    5.4639381811E-04    5.4080205186E-04    5.3526722327E-04    5.2978875862E-04
    5.2436608988E-04    5.1899865464E-04    5.1368589603E-04    5.0842726274E-04
    5.0322220889E-04    4.9807019402E-04    4.9297068303E-04    4.8792314612E-04
    4.8292705875E-04    4.7798190157E-04    4.7308716041E-04    4.6824232618E-04
    4.6344689485E-04    4.5870036740E-04    4.5400224977E-04    4.4935205281E-04
    4.4474929221E-04    4.4019348851E-04    4.3568416699E-04    4.3122085768E-04
    4.2680309525E-04    4.2243041903E-04    4.1810237293E-04    4.1381850540E-04
    4.0957836938E-04    4.0538152227E-04    4.0122752589E-04    3.9711594641E-04
    3.9304635435E-04    3.8901832448E-04    3.8503143584E-04    3.8108527166E-04
    3.7717941933E-04    3.7331347037E-04    3.6948702035E-04    3.6569966891E-04
    3.6195101967E-04    3.5824068023E-04    3.5456826208E-04    3.5093338064E-04
    3.4733565514E-04    3.4377470862E-04    3.4025016792E-04    3.3676166358E-04
    3.3330882985E-04    3.2989130465E-04    3.2650872952E-04    3.2316074960E-04
    3.1984701355E-04    3.1656717361E-04    3.1332088544E-04    3.1010780821E-04
    3.0692760446E-04    3.0377994014E-04    3.0066448456E-04    2.9758091033E-04
    2.9452889334E-04    2.9150811275E-04    2.8851825094E-04    2.8555899348E-04
    2.8263002907E-04    2.7973104959E-04    2.7686174997E-04    2.7402182822E-04
    2.7121098540E-04    2.6842892557E-04    2.6567535574E-04    2.6294998591E-04
    2.6025252897E-04    2.5758270070E-04    2.5494021975E-04    2.5232480760E-04
    2.4973618853E-04    2.4717408960E-04    2.4463824062E-04    2.4212837413E-04
    2.3964422535E-04    2.3718553217E-04    2.3475203513E-04    2.3234347739E-04
    2.2995960469E-04    2.2760016534E-04    2.2526491018E-04    2.2295359258E-04
    2.2066596839E-04    2.1840179593E-04    2.1616083594E-04    2.1394285161E-04
    2.1174760849E-04    2.0957487451E-04    2.0742441995E-04    2.0529601741E-04
    2.0318944178E-04    2.0110447024E-04    1.9904088220E-04    1.9699845932E-04
    1.9497698547E-04    1.9297624668E-04    1.9099603118E-04    1.8903612932E-04
    1.8709633358E-04    1.8517643854E-04    1.8327624085E-04    1.8139553924E-04
    1.7953413445E-04    1.7769182926E-04    1.7586842845E-04    1.7406373876E-04
    1.7227756889E-04    1.7050972951E-04    1.6876003317E-04    1.6702829434E-04
    1.6531432937E-04    1.6361795647E-04    1.6193899569E-04    1.6027726891E-04
    1.5863259983E-04    1.5700481390E-04    1.5539373840E-04    1.5379920230E-04
    1.5222103636E-04    1.5065907303E-04    1.4911314646E-04    1.4758309250E-04
    1.4606874866E-04    1.4456995409E-04    1.4308654960E-04    1.4161837759E-04
    1.4016528207E-04    1.3872710866E-04    1.3730370451E-04    1.3589491835E-04
    1.3450060045E-04    1.3312060259E-04    1.3175477805E-04    1.3040298164E-04
    1.2906506960E-04    1.2774089967E-04    1.2643033102E-04    1.2513322425E-04
    1.2384944140E-04    1.2257884589E-04    1.2132130255E-04    1.2007667758E-04
    1.1884483853E-04    1.1762565432E-04    1.1641899519E-04    1.1522473271E-04
    1.1404273976E-04    1.1287289051E-04    1.1171506042E-04    1.1056912622E-04
    1.0943496588E-04    1.0831245863E-04    1.0720148492E-04    1.0610192645E-04
    1.0501366608E-04    1.0393658790E-04    1.0287057718E-04    1.0181552034E-04
    1.0077130497E-04    9.9737819816E-05    9.8714954751E-05    9.7702600773E-05
    9.6700649993E-05    9.5708995626E-05    9.4727531974E-05    9.3756154422E-05
    9.2794759421E-05    9.1843244482E-05    9.0901508160E-05    8.9969450048E-05
    8.9046970766E-05    8.8133971951E-05    8.7230356240E-05    8.6336027272E-05
    8.5450889665E-05    8.4574849015E-05    8.3707811885E-05    8.2849685789E-05
    8.2000379191E-05    8.1159801489E-05    8.0327863009E-05    7.9504474993E-05
    7.8689549593E-05    7.7882999858E-05    7.7084739727E-05    7.6294684020E-05
    7.5512748430E-05    7.4738849510E-05    7.3972904672E-05    7.3214832168E-05
    7.2464551091E-05    7.1721981360E-05    7.0987043716E-05    7.0259659711E-05
    6.9539751698E-05    6.8827242829E-05    6.8122057043E-05    6.7424119055E-05
    6.6733354355E-05    6.6049689194E-05    6.5373050579E-05    6.4703366267E-05
    6.4040564752E-05    6.3384575264E-05    6.2735327757E-05    6.2092752904E-05
    6.1456782088E-05    6.0827347395E-05    6.0204381610E-05    5.9587818203E-05
    5.8977591330E-05    5.8373635819E-05    5.7775887171E-05    5.7184281545E-05
    5.6598755756E-05    5.6019247267E-05    5.5445694183E-05    5.4878035243E-05
    5.4316209817E-05    5.3760157895E-05    5.3209820082E-05    5.2665137597E-05
    5.2126052258E-05    5.1592506482E-05    5.1064443276E-05    5.0541806235E-05
    5.0024539530E-05    4.9512587906E-05    4.9005896676E-05    4.8504411715E-05
    4.8008079452E-05    4.7516846868E-05    4.7030661488E-05    4.6549471377E-05
    4.6073225131E-05    4.5601871875E-05    4.5135361259E-05    4.4673643447E-05
    4.4216669117E-05    4.3764389453E-05    4.3316756142E-05    4.2873721366E-05
    4.2435237798E-05    4.2001258600E-05    4.1571737413E-05    4.1146628354E-05
    4.0725886014E-05    4.0309465449E-05    3.9897322180E-05    3.9489412180E-05
    3.9085691880E-05    3.8686118156E-05    3.8290648327E-05    3.7899240154E-05
    3.7511851828E-05    3.7128441974E-05    3.6748969641E-05    3.6373394299E-05
    3.6001675834E-05    3.5633774547E-05    3.5269651145E-05    3.4909266740E-05
    3.4552582845E-05    3.4199561368E-05    3.3850164608E-05    3.3504355255E-05
    3.3162096379E-05    3.2823351434E-05    3.2488084246E-05    3.2156259016E-05
    3.1827840313E-05    3.1502793070E-05    3.1181082581E-05    3.0862674498E-05
    3.0547534826E-05    3.0235629919E-05    2.9926926479E-05    2.9621391549E-05
    2.9318992514E-05    2.9019697093E-05    2.8723473335E-05    2.8430289622E-05
    2.8140114660E-05    2.7852917477E-05    2.7568667420E-05    2.7287334151E-05
    2.7008887646E-05    2.6733298188E-05    2.6460536369E-05    2.6190573080E-05
    2.5923379515E-05    2.5658927163E-05    2.5397187808E-05    2.5138133523E-05
    2.4881736671E-05    2.4627969896E-05    2.4376806127E-05    2.4128218571E-05
    2.3882180710E-05    2.3638666300E-05    2.3397649368E-05    2.3159104207E-05
    2.2923005376E-05    2.2689327695E-05    2.2458046246E-05    2.2229136365E-05
    2.2002573643E-05    2.1778333922E-05    2.1556393295E-05    2.1336728098E-05
    2.1119314913E-05    2.0904130564E-05    2.0691152112E-05    2.0480356855E-05
    2.0271722326E-05    2.0065226287E-05    1.9860846733E-05    1.9658561881E-05
    1.9458350177E-05    1.9260190286E-05    1.9064061095E-05    1.8869941707E-05
    1.8677811441E-05    1.8487649830E-05    1.8299436617E-05    1.8113151753E-05
    1.7928775396E-05    1.7746287911E-05    1.7565669863E-05    1.7386902017E-05
    1.7209965338E-05    1.7034840985E-05    1.6861510314E-05    1.6689954871E-05
    1.6520156392E-05    1.6352096804E-05    1.6185758217E-05    1.6021122927E-05
    1.5858173413E-05    1.5696892334E-05    1.5537262527E-05    1.5379267008E-05
    1.5222888966E-05    1.5068111765E-05    1.4914918938E-05    1.4763294190E-05
    1.4613221394E-05    1.4464684588E-05    1.4317667975E-05    1.4172155922E-05
    1.4028132956E-05    1.3885583763E-05    1.3744493188E-05    1.3604846232E-05
    1.3466628050E-05    1.3329823951E-05    1.3194419395E-05    1.3060399992E-05
    1.2927751500E-05    1.2796459824E-05    1.2666511015E-05    1.2537891266E-05
    1.2410586915E-05    1.2284584439E-05    1.2159870454E-05    1.2036431716E-05
    1.1914255115E-05    1.1793327679E-05    1.1673636568E-05    1.1555169074E-05
    1.1437912621E-05    1.1321854763E-05    1.1206983180E-05    1.1093285681E-05
    1.0980750202E-05    1.0869364800E-05    1.0759117658E-05    1.0649997079E-05
    1.0541991487E-05    1.0435089427E-05    1.0329279559E-05    1.0224550662E-05
    1.0120891630E-05    1.0018291473E-05    9.9167393124E-06    9.8162243820E-06
    9.7167360274E-06    9.6182637035E-06    9.5207969741E-06    9.4243255104E-06
    9.3288390902E-06    9.2343275966E-06    9.1407810171E-06    9.0481894422E-06
    8.9565430649E-06    8.8658321790E-06    8.7760471785E-06    8.6871785563E-06
    8.5992169033E-06    8.5121529075E-06    8.4259773526E-06    8.3406811176E-06
    8.2562551754E-06    8.1726905919E-06    8.0899785251E-06    8.0081102243E-06
    7.9270770288E-06    7.8468703672E-06    7.7674817563E-06    7.6889028005E-06
    7.6111251907E-06    7.5341407033E-06    7.4579411996E-06    7.3825186247E-06
    7.3078650069E-06    7.2339724563E-06    7.1608331645E-06    7.0884394036E-06
    7.0167835252E-06    6.9458579597E-06    6.8756552156E-06    6.8061678785E-06
    6.7373886104E-06    6.6693101491E-06    6.6019253070E-06    6.5352269706E-06
    6.4692080998E-06    6.4038617268E-06    6.3391809557E-06    6.2751589617E-06
    6.2117889902E-06    6.1490643562E-06    6.0869784436E-06    6.0255247046E-06
    5.9646966585E-06    5.9044878917E-06    5.8448920564E-06    5.7859028702E-06
    5.7275141157E-06    5.6697196392E-06    5.6125133503E-06    5.5558892217E-06
    5.4998412880E-06    5.4443636452E-06    5.3894504501E-06    5.3350959197E-06
    5.2812943305E-06    5.2280400180E-06    5.1753273759E-06    5.1231508559E-06
    5.0715049663E-06    5.0203842725E-06    4.9697833956E-06    4.9196970122E-06
    4.8701198535E-06    4.8210467050E-06    4.7724724061E-06    4.7243918489E-06
    4.6767999786E-06    4.6296917919E-06    4.5830623374E-06    4.5369067143E-06
    4.4912200726E-06    4.4459976122E-06    4.4012345821E-06    4.3569262803E-06
    4.3130680534E-06    4.2696552957E-06    4.2266834489E-06    4.1841480015E-06
    4.1420444887E-06    4.1003684913E-06    4.0591156358E-06    4.0182815938E-06
    3.9778620812E-06    3.9378528580E-06    3.8982497279E-06    3.8590485377E-06
    3.8202451769E-06    3.7818355774E-06    3.7438157128E-06    3.7061815982E-06
    3.6689292896E-06    3.6320548838E-06    3.5955545174E-06    3.5594243670E-06
    3.5236606484E-06    3.4882596162E-06    3.4532175638E-06    3.4185308225E-06
    3.3841957612E-06    3.3502087864E-06    3.3165663414E-06    3.2832649062E-06
    3.2503009968E-06    3.2176711651E-06    3.1853719984E-06    3.1534001193E-06
    3.1217521847E-06    3.0904248863E-06    3.0594149494E-06    3.0287191331E-06
    2.9983342299E-06    2.9682570653E-06    2.9384844973E-06    2.9090134161E-06
    2.8798407441E-06    2.8509634350E-06    2.8223784741E-06    2.7940828776E-06
    2.7660736921E-06    2.7383479947E-06    2.7109028927E-06    2.6837355229E-06
    2.6568430516E-06    2.6302226741E-06    2.6038716147E-06    2.5777871260E-06
    2.5519664889E-06    2.5264070121E-06    2.5011060322E-06    2.4760609129E-06
    2.4512690450E-06    2.4267278462E-06    2.4024347606E-06    2.3783872587E-06
    2.3545828367E-06    2.3310190168E-06    2.3076933464E-06    2.2846033981E-06
    2.2617467696E-06    2.2391210829E-06    2.2167239847E-06    2.1945531457E-06
    2.1726062608E-06    2.1508810480E-06    2.1293752493E-06    2.1080866294E-06
    2.0870129761E-06    2.0661521001E-06    2.0455018342E-06    2.0250600336E-06
    2.0048245755E-06    1.9847933588E-06    1.9649643041E-06    1.9453353532E-06
    1.9259044690E-06    1.9066696354E-06    1.8876288569E-06    1.8687801583E-06
    1.8501215849E-06    1.8316512019E-06
 </PP_RHOATOM>
 <PP_SPIN_ORB>
   <PP_RELBETA.1  index="1"  lll="0" jjj="0.5"/>
   <PP_RELBETA.2  index="2"  lll="0" jjj="0.5"/>
   <PP_RELBETA.3  index="3"  lll="1" jjj="0.5"/>
   <PP_RELBETA.4  index="4"  lll="1" jjj="1.5"/>
   <PP_RELBETA.5  index="5"  lll="1" jjj="0.5"/>
   <PP_RELBETA.6  index="6"  lll="1" jjj="1.5"/>
   <PP_RELBETA.7  index="7"  lll="2" jjj="1.5"/>
   <PP_RELBETA.8  index="8"  lll="2" jjj="2.5"/>
   <PP_RELBETA.9  index="9"  lll="2" jjj="1.5"/>
   <PP_RELBETA.10 index="10" lll="2" jjj="2.5"/>
   <PP_RELWFC.1  index="1"  lchi="0" jchi="0.5" nn="1"/>
   <PP_RELWFC.2  index="2"  lchi="1" jchi="1.5" nn="2"/>
   <PP_RELWFC.3  index="3"  lchi="1" jchi="0.5" nn="2"/>
   <PP_RELWFC.4  index="4"  lchi="2" jchi="2.5" nn="3"/>
   <PP_RELWFC.5  index="5"  lchi="2" jchi="1.5" nn="3"/>
   <PP_RELWFC.6  index="6"  lchi="0" jchi="0.5" nn="4"/>
 </PP_SPIN_ORB>
</UPF>

